 Set GAUSS_PDEF to "32".
 Set GAUSS_WDEF to "maginet229".
 Entering Gaussian System, Link 0=g16
 Initial command:
 /home/programes/qq/gaussian/g16.A03/g16/l1.exe "/scratch/108211/Gau-5837.inp" -scrdir="/scratch/108211/"
 Default linda workers: maginet229
 Default is to use  32 SMP processors on each worker.
 Entering Link 1 = /home/programes/qq/gaussian/g16.A03/g16/l1.exe PID=      5838.
  
 Copyright (c) 1988,1990,1992,1993,1995,1998,2003,2009,2016,
            Gaussian, Inc.  All Rights Reserved.
  
 This is part of the Gaussian(R) 16 program.  It is based on
 the Gaussian(R) 09 system (copyright 2009, Gaussian, Inc.),
 the Gaussian(R) 03 system (copyright 2003, Gaussian, Inc.),
 the Gaussian(R) 98 system (copyright 1998, Gaussian, Inc.),
 the Gaussian(R) 94 system (copyright 1995, Gaussian, Inc.),
 the Gaussian 92(TM) system (copyright 1992, Gaussian, Inc.),
 the Gaussian 90(TM) system (copyright 1990, Gaussian, Inc.),
 the Gaussian 88(TM) system (copyright 1988, Gaussian, Inc.),
 the Gaussian 86(TM) system (copyright 1986, Carnegie Mellon
 University), and the Gaussian 82(TM) system (copyright 1983,
 Carnegie Mellon University). Gaussian is a federally registered
 trademark of Gaussian, Inc.
  
 This software contains proprietary and confidential information,
 including trade secrets, belonging to Gaussian, Inc.
  
 This software is provided under written license and may be
 used, copied, transmitted, or stored only in accord with that
 written license.
  
 The following legend is applicable only to US Government
 contracts under FAR:
  
                    RESTRICTED RIGHTS LEGEND
  
 Use, reproduction and disclosure by the US Government is
 subject to restrictions as set forth in subparagraphs (a)
 and (c) of the Commercial Computer Software - Restricted
 Rights clause in FAR 52.227-19.
  
 Gaussian, Inc.
 340 Quinnipiac St., Bldg. 40, Wallingford CT 06492
  
  
 ---------------------------------------------------------------
 Warning -- This program may not be used in any manner that
 competes with the business of Gaussian, Inc. or will provide
 assistance to any competitor of Gaussian, Inc.  The licensee
 of this program is prohibited from giving any competitor of
 Gaussian, Inc. access to this program.  By using this program,
 the user acknowledges that Gaussian, Inc. is engaged in the
 business of creating and licensing software in the field of
 computational chemistry and represents and warrants to the
 licensee that it is not a competitor of Gaussian, Inc. and that
 it will not use this program in any manner prohibited above.
 ---------------------------------------------------------------
  

 Cite this work as:
 Gaussian 16, Revision A.03,
 M. J. Frisch, G. W. Trucks, H. B. Schlegel, G. E. Scuseria, 
 M. A. Robb, J. R. Cheeseman, G. Scalmani, V. Barone, 
 G. A. Petersson, H. Nakatsuji, X. Li, M. Caricato, A. V. Marenich, 
 J. Bloino, B. G. Janesko, R. Gomperts, B. Mennucci, H. P. Hratchian, 
 J. V. Ortiz, A. F. Izmaylov, J. L. Sonnenberg, D. Williams-Young, 
 F. Ding, F. Lipparini, F. Egidi, J. Goings, B. Peng, A. Petrone, 
 T. Henderson, D. Ranasinghe, V. G. Zakrzewski, J. Gao, N. Rega, 
 G. Zheng, W. Liang, M. Hada, M. Ehara, K. Toyota, R. Fukuda, 
 J. Hasegawa, M. Ishida, T. Nakajima, Y. Honda, O. Kitao, H. Nakai, 
 T. Vreven, K. Throssell, J. A. Montgomery, Jr., J. E. Peralta, 
 F. Ogliaro, M. J. Bearpark, J. J. Heyd, E. N. Brothers, K. N. Kudin, 
 V. N. Staroverov, T. A. Keith, R. Kobayashi, J. Normand, 
 K. Raghavachari, A. P. Rendell, J. C. Burant, S. S. Iyengar, 
 J. Tomasi, M. Cossi, J. M. Millam, M. Klene, C. Adamo, R. Cammi, 
 J. W. Ochterski, R. L. Martin, K. Morokuma, O. Farkas, 
 J. B. Foresman, and D. J. Fox, Gaussian, Inc., Wallingford CT, 2016.
 
 ******************************************
 Gaussian 16:  ES64L-G16RevA.03 25-Dec-2016
                24-Mar-2026 
 ******************************************
 %mem=20GB
 %chk=bi_rad_eq.chk
 SetLPE:    new flags="-opt 'Tsnet.Node.lindarsharg: ssh'  -nodelist 'maginet229' -env GAUSS_MDEF=2684354560 -env GAUSS_EXEDIR="/home/programes/qq/gaussian/g16.A03/g16/bsd:/home/programes/qq/gaussian/g16.A03/g16""
 Will use up to    1 processors via Linda.
 ----------------------------------------------------------------------
 #p b3lyp/gen EmpiricalDispersion=GD3BJ pseudo=read scrf=(solvent=n,n-D
 iMethylFormamide,pcm,read) nosymm pop=(Orbitals=20) geom=checkpoint gu
 ess=read
 ----------------------------------------------------------------------
 1/29=2,38=1,40=2,172=1/1;
 2/12=2,15=1,40=1/2;
 3/5=7,11=2,14=-4,16=1,17=8,25=1,30=1,70=2203,72=148,74=-5,116=-2,124=41/1,2,3;
 4/5=1/1;
 5/5=2,38=6,53=148/2;
 6/7=2,8=2,9=2,10=2,28=1,96=20/1;
 99/5=1,9=1/99;
 Leave Link    1 at Tue Mar 24 18:23:21 2026, MaxMem=  2684354560 cpu:               0.9 elap:               0.0
 (Enter /home/programes/qq/gaussian/g16.A03/g16/l101.exe)
 -------------------
 Title Card Required
 -------------------
 Structure from the checkpoint file:  "bi_rad_eq.chk"
 Charge =  1 Multiplicity = 1
 Redundant internal coordinates found in file.  (old form).
 C,0,-8.9519779629,2.9260539517,-0.0373104221
 C,0,-7.5755672677,2.7811099889,0.2474619144
 C,0,-6.7480231559,3.8914104655,0.4063532407
 C,0,-7.3382949798,5.1643272514,0.2762952559
 C,0,-8.7017925425,5.3077984234,0.0045763599
 C,0,-9.5371429935,4.185124728,-0.1610514826
 C,0,-8.4838496099,0.6983354276,0.0724928555
 H,0,-5.6878618798,3.7820583082,0.6357733376
 H,0,-6.71503687,6.052569038,0.3956386382
 H,0,-9.1320203056,6.3069125531,-0.0867743499
 H,0,-10.5967562516,4.2995232242,-0.3905361794
 N,0,-7.3051128386,1.4202977785,0.3066635588
 N,0,-9.4916237178,1.6503136839,-0.1361656501
 C,0,-5.9560169551,0.888381977,0.2134240845
 H,0,-5.3220493669,1.6156308907,-0.3137878803
 H,0,-5.5194906189,0.694565384,1.2060264134
 H,0,-5.9684319386,-0.0472702919,-0.3582728122
 C,0,-10.9205606067,1.3984786491,-0.0569632848
 H,0,-11.3984092427,2.2261160604,0.4864175306
 H,0,-11.3814339824,1.3188066645,-1.0542493213
 H,0,-11.0997509223,0.4666693169,0.492773124
 C,0,-8.6282076576,-0.7124921201,0.0517154456
 C,0,-7.7852768834,-1.5696198658,0.8365408102
 C,0,-9.6249233867,-1.3578036156,-0.7553272673
 C,0,-7.9336535887,-2.9486320167,0.805492196
 H,0,-7.0440280095,-1.1321115469,1.5049485178
 C,0,-9.7590868421,-2.7385684816,-0.7649679103
 H,0,-10.2602861394,-0.7598684594,-1.4083198821
 C,0,-8.9197420674,-3.5601837798,0.00967017
 H,0,-7.2795897579,-3.564559982,1.428419128
 H,0,-10.5225636801,-3.1907708286,-1.4035756859
 H,0,-9.0308588878,-4.6454921466,-0.0063594229
 Recover connectivity data from disk.
 ITRead=  0  0  0  0  0  0  0  0  0  0  0  0  0  0  0  0  0  0  0  0
 ITRead=  0  0  0  0  0  0  0  0  0  0  0  0
 MicOpt= -1 -1 -1 -1 -1 -1 -1 -1 -1 -1 -1 -1 -1 -1 -1 -1 -1 -1 -1 -1
 MicOpt= -1 -1 -1 -1 -1 -1 -1 -1 -1 -1 -1 -1
                           ----------------------------
                           !    Current Parameters    !
                           ! (Angstroms and Degrees)  !
 --------------------------                            --------------------------
 ! Name  Definition              Value                                          !
 --------------------------------------------------------------------------------
 ! R1    R(1,2)                  1.413                                          !
 ! R2    R(1,6)                  1.3939                                         !
 ! R3    R(1,13)                 1.3887                                         !
 ! R4    R(2,3)                  1.3939                                         !
 ! R5    R(2,12)                 1.3887                                         !
 ! R6    R(3,4)                  1.4091                                         !
 ! R7    R(3,8)                  1.0902                                         !
 ! R8    R(4,5)                  1.3977                                         !
 ! R9    R(4,9)                  1.0916                                         !
 ! R10   R(5,6)                  1.4091                                         !
 ! R11   R(5,10)                 1.0916                                         !
 ! R12   R(6,11)                 1.0902                                         !
 ! R13   R(7,12)                 1.402                                          !
 ! R14   R(7,13)                 1.4019                                         !
 ! R15   R(7,22)                 1.4183                                         !
 ! R16   R(12,14)                1.4532                                         !
 ! R17   R(13,18)                1.4531                                         !
 ! R18   R(14,15)                1.0994                                         !
 ! R19   R(14,16)                1.1015                                         !
 ! R20   R(14,17)                1.0966                                         !
 ! R21   R(18,19)                1.0994                                         !
 ! R22   R(18,20)                1.1015                                         !
 ! R23   R(18,21)                1.0966                                         !
 ! R24   R(22,23)                1.4357                                         !
 ! R25   R(22,24)                1.4357                                         !
 ! R26   R(23,25)                1.3873                                         !
 ! R27   R(23,26)                1.0898                                         !
 ! R28   R(24,27)                1.3873                                         !
 ! R29   R(24,28)                1.0898                                         !
 ! R30   R(25,29)                1.407                                          !
 ! R31   R(25,30)                1.0933                                         !
 ! R32   R(27,29)                1.407                                          !
 ! R33   R(27,31)                1.0933                                         !
 ! R34   R(29,32)                1.0911                                         !
 ! A1    A(2,1,6)              121.2968                                         !
 ! A2    A(2,1,13)             107.3761                                         !
 ! A3    A(6,1,13)             131.3255                                         !
 ! A4    A(1,2,3)              121.3048                                         !
 ! A5    A(1,2,12)             107.3868                                         !
 ! A6    A(3,2,12)             131.3066                                         !
 ! A7    A(2,3,4)              117.4094                                         !
 ! A8    A(2,3,8)              121.4288                                         !
 ! A9    A(4,3,8)              121.1567                                         !
 ! A10   A(3,4,5)              121.2861                                         !
 ! A11   A(3,4,9)              119.0632                                         !
 ! A12   A(5,4,9)              119.6501                                         !
 ! A13   A(4,5,6)              121.2907                                         !
 ! A14   A(4,5,10)             119.6492                                         !
 ! A15   A(6,5,10)             119.0595                                         !
 ! A16   A(1,6,5)              117.4095                                         !
 ! A17   A(1,6,11)             121.4325                                         !
 ! A18   A(5,6,11)             121.1528                                         !
 ! A19   A(12,7,13)            106.2342                                         !
 ! A20   A(12,7,22)            126.8884                                         !
 ! A21   A(13,7,22)            126.8774                                         !
 ! A22   A(2,12,7)             109.4973                                         !
 ! A23   A(2,12,14)            122.4636                                         !
 ! A24   A(7,12,14)            125.5456                                         !
 ! A25   A(1,13,7)             109.5041                                         !
 ! A26   A(1,13,18)            122.5108                                         !
 ! A27   A(7,13,18)            125.5272                                         !
 ! A28   A(12,14,15)           108.9036                                         !
 ! A29   A(12,14,16)           111.9932                                         !
 ! A30   A(12,14,17)           109.5889                                         !
 ! A31   A(15,14,16)           108.6619                                         !
 ! A32   A(15,14,17)           108.7195                                         !
 ! A33   A(16,14,17)           108.9142                                         !
 ! A34   A(13,18,19)           108.8988                                         !
 ! A35   A(13,18,20)           112.0011                                         !
 ! A36   A(13,18,21)           109.5887                                         !
 ! A37   A(19,18,20)           108.6685                                         !
 ! A38   A(19,18,21)           108.7167                                         !
 ! A39   A(20,18,21)           108.9073                                         !
 ! A40   A(7,22,23)            121.7418                                         !
 ! A41   A(7,22,24)            121.7351                                         !
 ! A42   A(23,22,24)           116.5232                                         !
 ! A43   A(22,23,25)           121.2262                                         !
 ! A44   A(22,23,26)           119.6672                                         !
 ! A45   A(25,23,26)           119.0473                                         !
 ! A46   A(22,24,27)           121.2255                                         !
 ! A47   A(22,24,28)           119.6677                                         !
 ! A48   A(27,24,28)           119.0482                                         !
 ! A49   A(23,25,29)           121.3092                                         !
 ! A50   A(23,25,30)           118.8997                                         !
 ! A51   A(29,25,30)           119.7817                                         !
 ! A52   A(24,27,29)           121.3111                                         !
 ! A53   A(24,27,31)           118.8996                                         !
 ! A54   A(29,27,31)           119.7799                                         !
 ! A55   A(25,29,27)           118.4036                                         !
 ! A56   A(25,29,32)           120.7984                                         !
 ! A57   A(27,29,32)           120.798                                          !
 ! D1    D(6,1,2,3)             -0.4547                                         !
 ! D2    D(6,1,2,12)           179.9885                                         !
 ! D3    D(13,1,2,3)           179.9611                                         !
 ! D4    D(13,1,2,12)            0.4042                                         !
 ! D5    D(2,1,6,5)              0.2018                                         !
 ! D6    D(2,1,6,11)           179.3817                                         !
 ! D7    D(13,1,6,5)           179.6735                                         !
 ! D8    D(13,1,6,11)           -1.1466                                         !
 ! D9    D(2,1,13,7)            -0.3383                                         !
 ! D10   D(2,1,13,18)          162.752                                          !
 ! D11   D(6,1,13,7)          -179.8652                                         !
 ! D12   D(6,1,13,18)          -16.775                                          !
 ! D13   D(1,2,3,4)              0.2031                                         !
 ! D14   D(1,2,3,8)            179.3906                                         !
 ! D15   D(12,2,3,4)           179.6401                                         !
 ! D16   D(12,2,3,8)            -1.1724                                         !
 ! D17   D(1,2,12,7)            -0.3245                                         !
 ! D18   D(1,2,12,14)          162.652                                          !
 ! D19   D(3,2,12,7)          -179.8204                                         !
 ! D20   D(3,2,12,14)          -16.8439                                         !
 ! D21   D(2,3,4,5)              0.2847                                         !
 ! D22   D(2,3,4,9)            179.9943                                         !
 ! D23   D(8,3,4,5)           -178.9052                                         !
 ! D24   D(8,3,4,9)              0.8044                                         !
 ! D25   D(3,4,5,6)             -0.5407                                         !
 ! D26   D(3,4,5,10)           179.7526                                         !
 ! D27   D(9,4,5,6)            179.7514                                         !
 ! D28   D(9,4,5,10)             0.0447                                         !
 ! D29   D(4,5,6,1)              0.2859                                         !
 ! D30   D(4,5,6,11)          -178.8964                                         !
 ! D31   D(10,5,6,1)           179.9943                                         !
 ! D32   D(10,5,6,11)            0.812                                          !
 ! D33   D(13,7,12,2)            0.1179                                         !
 ! D34   D(13,7,12,14)        -162.2089                                         !
 ! D35   D(22,7,12,2)         -179.8435                                         !
 ! D36   D(22,7,12,14)          17.8296                                         !
 ! D37   D(12,7,13,1)            0.1399                                         !
 ! D38   D(12,7,13,18)        -162.319                                          !
 ! D39   D(22,7,13,1)         -179.8986                                         !
 ! D40   D(22,7,13,18)          17.6425                                         !
 ! D41   D(12,7,22,23)          29.2757                                         !
 ! D42   D(12,7,22,24)        -150.7227                                         !
 ! D43   D(13,7,22,23)        -150.678                                          !
 ! D44   D(13,7,22,24)          29.3236                                         !
 ! D45   D(2,12,14,15)         -23.8193                                         !
 ! D46   D(2,12,14,16)          96.3847                                         !
 ! D47   D(2,12,14,17)        -142.6313                                         !
 ! D48   D(7,12,14,15)         136.3537                                         !
 ! D49   D(7,12,14,16)        -103.4423                                         !
 ! D50   D(7,12,14,17)          17.5417                                         !
 ! D51   D(1,13,18,19)         -23.4464                                         !
 ! D52   D(1,13,18,20)          96.7676                                         !
 ! D53   D(1,13,18,21)        -142.252                                          !
 ! D54   D(7,13,18,19)         136.8661                                         !
 ! D55   D(7,13,18,20)        -102.9199                                         !
 ! D56   D(7,13,18,21)          18.0605                                         !
 ! D57   D(7,22,23,25)        -179.835                                          !
 ! D58   D(7,22,23,26)           2.9905                                         !
 ! D59   D(24,22,23,25)          0.1635                                         !
 ! D60   D(24,22,23,26)       -177.011                                          !
 ! D61   D(7,22,24,27)        -179.8318                                         !
 ! D62   D(7,22,24,28)           2.9788                                         !
 ! D63   D(23,22,24,27)          0.1697                                         !
 ! D64   D(23,22,24,28)       -177.0196                                         !
 ! D65   D(22,23,25,29)         -0.3352                                         !
 ! D66   D(22,23,25,30)       -179.2117                                         !
 ! D67   D(26,23,25,29)        176.8565                                         !
 ! D68   D(26,23,25,30)         -2.02                                           !
 ! D69   D(22,24,27,29)         -0.3398                                         !
 ! D70   D(22,24,27,31)       -179.2204                                         !
 ! D71   D(28,24,27,29)        176.8666                                         !
 ! D72   D(28,24,27,31)         -2.014                                          !
 ! D73   D(23,25,29,27)          0.1672                                         !
 ! D74   D(23,25,29,32)       -179.8326                                         !
 ! D75   D(30,25,29,27)        179.034                                          !
 ! D76   D(30,25,29,32)         -0.9658                                         !
 ! D77   D(24,27,29,25)          0.1698                                         !
 ! D78   D(24,27,29,32)       -179.8304                                         !
 ! D79   D(31,27,29,25)        179.0407                                         !
 ! D80   D(31,27,29,32)         -0.9595                                         !
 --------------------------------------------------------------------------------
 NAtoms=     32 NQM=       32 NQMF=       0 NMMI=      0 NMMIF=      0
                NMic=       0 NMicF=      0.
                    Isotopes and Nuclear Properties:
 (Nuclear quadrupole moments (NQMom) in fm**2, nuclear magnetic moments (NMagM)
  in nuclear magnetons)

  Atom         1           2           3           4           5           6           7           8           9          10
 IAtWgt=          12          12          12          12          12          12          12           1           1           1
 AtmWgt=  12.0000000  12.0000000  12.0000000  12.0000000  12.0000000  12.0000000  12.0000000   1.0078250   1.0078250   1.0078250
 NucSpn=           0           0           0           0           0           0           0           1           1           1
 AtZEff=   3.6000000   3.6000000   3.6000000   3.6000000   3.6000000   3.6000000   3.6000000   1.0000000   1.0000000   1.0000000
 NQMom=    0.0000000   0.0000000   0.0000000   0.0000000   0.0000000   0.0000000   0.0000000   0.0000000   0.0000000   0.0000000
 NMagM=    0.0000000   0.0000000   0.0000000   0.0000000   0.0000000   0.0000000   0.0000000   2.7928460   2.7928460   2.7928460
 AtZNuc=   6.0000000   6.0000000   6.0000000   6.0000000   6.0000000   6.0000000   6.0000000   1.0000000   1.0000000   1.0000000

  Atom        11          12          13          14          15          16          17          18          19          20
 IAtWgt=           1          14          14          12           1           1           1          12           1           1
 AtmWgt=   1.0078250  14.0030740  14.0030740  12.0000000   1.0078250   1.0078250   1.0078250  12.0000000   1.0078250   1.0078250
 NucSpn=           1           2           2           0           1           1           1           0           1           1
 AtZEff=   1.0000000   4.5500000   4.5500000   3.6000000   1.0000000   1.0000000   1.0000000   3.6000000   1.0000000   1.0000000
 NQMom=    0.0000000   2.0440000   2.0440000   0.0000000   0.0000000   0.0000000   0.0000000   0.0000000   0.0000000   0.0000000
 NMagM=    2.7928460   0.4037610   0.4037610   0.0000000   2.7928460   2.7928460   2.7928460   0.0000000   2.7928460   2.7928460
 AtZNuc=   1.0000000   7.0000000   7.0000000   6.0000000   1.0000000   1.0000000   1.0000000   6.0000000   1.0000000   1.0000000

  Atom        21          22          23          24          25          26          27          28          29          30
 IAtWgt=           1          12          12          12          12           1          12           1          12           1
 AtmWgt=   1.0078250  12.0000000  12.0000000  12.0000000  12.0000000   1.0078250  12.0000000   1.0078250  12.0000000   1.0078250
 NucSpn=           1           0           0           0           0           1           0           1           0           1
 AtZEff=   1.0000000   3.6000000   3.6000000   3.6000000   3.6000000   1.0000000   3.6000000   1.0000000   3.6000000   1.0000000
 NQMom=    0.0000000   0.0000000   0.0000000   0.0000000   0.0000000   0.0000000   0.0000000   0.0000000   0.0000000   0.0000000
 NMagM=    2.7928460   0.0000000   0.0000000   0.0000000   0.0000000   2.7928460   0.0000000   2.7928460   0.0000000   2.7928460
 AtZNuc=   1.0000000   6.0000000   6.0000000   6.0000000   6.0000000   1.0000000   6.0000000   1.0000000   6.0000000   1.0000000

  Atom        31          32
 IAtWgt=           1           1
 AtmWgt=   1.0078250   1.0078250
 NucSpn=           1           1
 AtZEff=   1.0000000   1.0000000
 NQMom=    0.0000000   0.0000000
 NMagM=    2.7928460   2.7928460
 AtZNuc=   1.0000000   1.0000000
 Leave Link  101 at Tue Mar 24 18:23:21 2026, MaxMem=  2684354560 cpu:               3.6 elap:               0.1
 (Enter /home/programes/qq/gaussian/g16.A03/g16/l202.exe)
                          Input orientation:                          
 ---------------------------------------------------------------------
 Center     Atomic      Atomic             Coordinates (Angstroms)
 Number     Number       Type             X           Y           Z
 ---------------------------------------------------------------------
      1          6           0       -8.951978    2.926054   -0.037310
      2          6           0       -7.575567    2.781110    0.247462
      3          6           0       -6.748023    3.891410    0.406353
      4          6           0       -7.338295    5.164327    0.276295
      5          6           0       -8.701793    5.307798    0.004576
      6          6           0       -9.537143    4.185125   -0.161051
      7          6           0       -8.483850    0.698335    0.072493
      8          1           0       -5.687862    3.782058    0.635773
      9          1           0       -6.715037    6.052569    0.395639
     10          1           0       -9.132020    6.306913   -0.086774
     11          1           0      -10.596756    4.299523   -0.390536
     12          7           0       -7.305113    1.420298    0.306664
     13          7           0       -9.491624    1.650314   -0.136166
     14          6           0       -5.956017    0.888382    0.213424
     15          1           0       -5.322049    1.615631   -0.313788
     16          1           0       -5.519491    0.694565    1.206026
     17          1           0       -5.968432   -0.047270   -0.358273
     18          6           0      -10.920561    1.398479   -0.056963
     19          1           0      -11.398409    2.226116    0.486418
     20          1           0      -11.381434    1.318807   -1.054249
     21          1           0      -11.099751    0.466669    0.492773
     22          6           0       -8.628208   -0.712492    0.051715
     23          6           0       -7.785277   -1.569620    0.836541
     24          6           0       -9.624923   -1.357804   -0.755327
     25          6           0       -7.933654   -2.948632    0.805492
     26          1           0       -7.044028   -1.132112    1.504949
     27          6           0       -9.759087   -2.738568   -0.764968
     28          1           0      -10.260286   -0.759868   -1.408320
     29          6           0       -8.919742   -3.560184    0.009670
     30          1           0       -7.279590   -3.564560    1.428419
     31          1           0      -10.522564   -3.190771   -1.403576
     32          1           0       -9.030859   -4.645492   -0.006359
 ---------------------------------------------------------------------
                    Distance matrix (angstroms):
                    1          2          3          4          5
     1  C    0.000000
     2  C    1.413015   0.000000
     3  C    2.446665   1.393859   0.000000
     4  C    2.777083   2.395173   1.409132   0.000000
     5  C    2.395215   2.776964   2.446384   1.397691   0.000000
     6  C    1.393911   2.446614   2.861364   2.446435   1.409127
     7  C    2.279020   2.278934   3.649696   4.615075   4.615112
     8  H    3.440965   2.171662   1.090199   2.182618   3.436578
     9  H    3.868649   3.385988   2.161437   1.091635   2.157501
    10  H    3.386010   3.868532   3.429470   2.157492   1.091636
    11  H    2.171746   3.440960   3.951498   3.436586   2.182572
    12  N    2.257827   1.388690   2.535091   3.744300   4.141815
    13  N    1.388706   2.257685   3.583879   4.141888   3.744441
    14  C    3.631908   2.491289   3.111700   4.494258   5.207124
    15  H    3.869112   2.598401   2.780499   4.123917   5.015588
    16  H    4.278714   3.082201   3.516900   4.914389   5.731705
    17  H    4.224360   3.309008   4.087251   5.425859   6.023262
    18  C    2.491825   3.632262   4.882565   5.208196   4.495498
    19  H    2.597928   3.870302   4.940213   5.016150   4.123188
    20  H    3.085395   4.279884   5.497285   5.736319   4.920736
    21  H    3.307943   4.223350   5.538398   6.021910   5.424488
    22  C    3.654007   3.653987   4.985658   6.020907   6.020925
    23  C    4.726086   4.395434   5.575286   6.771980   6.987922
    24  C    4.395434   4.726103   6.097565   6.987926   6.771992
    25  C    6.021564   5.767978   6.953504   8.151970   8.330675
    26  H    4.742103   4.144528   5.150758   6.421941   6.817018
    27  C    5.767916   6.021596   7.375305   8.330680   8.151938
    28  H    4.144558   4.742136   6.104378   6.817042   6.421975
    29  C    6.486488   6.486552   7.771742   8.870691   8.870662
    30  H    6.861000   6.461408   7.544447   8.804789   9.097732
    31  H    6.461344   6.861055   8.226803   9.097758   8.804759
    32  H    7.572020   7.572101   8.846490   9.958776   9.958735
                    6          7          8          9         10
     6  C    0.000000
     7  C    3.649886   0.000000
     8  H    3.951501   4.200497   0.000000
     9  H    3.429509   5.648092   2.503592   0.000000
    10  H    2.161394   5.648153   4.331188   2.477745   0.000000
    11  H    1.090197   4.200872   5.041659   4.331164   2.503465
    12  N    3.583990   1.401958   2.881272   4.670551   5.231767
    13  N    2.535342   1.401931   4.428186   5.231835   4.670724
    14  C    4.881927   2.538881   2.936605   5.222848   6.287892
    15  H    4.938891   3.314759   2.393511   4.704266   6.047771
    16  H    5.494947   3.173694   3.144225   5.549258   6.798540
    17  H    5.539654   2.658724   3.966183   6.191433   7.103354
    18  C    3.112889   2.538606   5.791586   6.289025   5.224221
    19  H    2.778712   3.316641   5.920609   6.048468   4.702974
    20  H    3.523491   3.170257   6.429662   6.803377   5.556714
    21  H    4.086091   2.659557   6.348291   7.101931   6.190015
    22  C    4.985788   1.418346   5.402568   7.038790   7.038824
    23  C    6.097648   2.493069   5.751514   7.709577   8.044003
    24  C    5.575386   2.492999   6.622220   8.043991   7.709591
    25  C    7.375356   3.760369   7.097505   9.092559   9.375357
    26  H    6.104439   2.734145   5.171433   7.277255   7.888750
    27  C    6.953524   3.760303   7.813803   9.375358   9.092518
    28  H    5.150881   2.734025   6.761248   7.888749   7.277284
    29  C    7.771752   4.281231   8.046463   9.869889   9.869851
    30  H    8.226821   4.632608   7.558749   9.688887  10.157425
    31  H    7.544452   4.632524   8.726605  10.157449   9.688837
    32  H    8.846471   5.372330   9.089091  10.953225  10.953167
                   11         12         13         14         15
    11  H    0.000000
    12  N    4.428424   0.000000
    13  N    2.881724   2.242729   0.000000
    14  C    5.791124   1.453165   3.633630   0.000000
    15  H    5.918758   2.087021   4.173500   1.099435   0.000000
    16  H    6.428325   2.126967   4.300323   1.101535   1.788066
    17  H    6.349570   2.093469   3.917142   1.096557   1.784665
    18  C    2.938057   3.633753   1.453119   4.998000   5.608604
    19  H    2.389710   4.175731   2.086861   5.611033   6.159153
    20  H    3.152920   4.298695   2.127007   5.588149   6.111672
    21  H    3.965351   3.917055   2.093478   5.168547   5.945796
    22  C    5.402876   2.522771   2.522625   3.119223   4.060102
    23  C    6.622460   3.074237   3.771704   3.126698   4.187669
    24  C    5.751772   3.771895   3.074069   4.409615   5.248904
    25  C    7.813985   4.442009   4.946139   4.357094   5.376408
    26  H    6.761464   2.831757   4.052884   2.633286   3.717943
    27  C    7.097649   4.946367   4.441758   5.345593   6.232970
    28  H    5.171706   4.053066   2.831642   4.886053   5.588128
    29  C    8.046585   5.244085   5.243815   5.349291   6.311662
    30  H    8.726740   5.109579   5.876728   4.801744   5.805310
    31  H    7.558853   5.876977   5.109331   6.333050   7.164809
    32  H    9.089165   6.314269   6.313979   6.334566   7.283642
                   16         17         18         19         20
    16  H    0.000000
    17  H    1.788547   0.000000
    18  C    5.591260   5.167645   0.000000
    19  H    6.117611   5.946969   1.099357   0.000000
    20  H    6.313549   5.625935   1.101513   1.788058   0.000000
    21  H    5.630273   5.226744   1.096626   1.784626   1.788508
    22  C    3.602272   2.772186   3.118155   4.061822   3.595774
    23  C    3.224413   2.654440   4.408850   5.252135   4.985022
    24  C    4.991363   3.904495   3.124657   4.187083   3.215420
    25  C    4.388792   3.692471   5.344419   6.235732   5.792828
    26  H    2.397982   2.409436   4.885792   5.592471   5.600856
    27  C    5.800466   4.666642   4.354934   5.376006   4.379268
    28  H    5.605830   4.475534   2.630701   3.715031   2.388143
    29  C    5.576367   4.602844   5.347527   6.312871   5.567441
    30  H    4.613844   4.157250   6.332044   7.168261   6.843686
    31  H    6.851029   5.631551   4.799268   5.803606   4.603909
    32  H    6.505060   5.535878   6.332702   7.284718   6.495855
                   21         22         23         24         25
    21  H    0.000000
    22  C    2.773712   0.000000
    23  C    3.905175   1.435671   0.000000
    24  C    2.657362   1.435683   2.441968   0.000000
    25  C    4.667574   2.459859   1.387319   2.797729   0.000000
    26  H    4.475432   2.190341   1.089785   3.438140   2.140191
    27  C    3.694975   2.459847   2.797713   1.387301   2.417163
    28  H    2.413141   2.190349   3.438134   1.089776   3.886498
    29  C    4.604495   2.862885   2.435790   2.435771   1.407018
    30  H    5.632040   3.442147   2.141454   3.890901   1.093254
    31  H    4.160066   3.442139   3.890886   2.141437   3.411901
    32  H    5.537476   3.953984   3.423879   3.423852   2.177682
                   26         27         28         29         30
    26  H    0.000000
    27  C    3.886485   0.000000
    28  H    4.355458   2.140177   0.000000
    29  C    3.413165   1.406988   3.413139   0.000000
    30  H    2.445026   3.411908   4.979752   2.168633   0.000000
    31  H    4.979739   1.093254   2.445015   2.168586   4.321666
    32  H    4.309918   2.177650   4.309879   1.091100   2.508774
                   31         32
    31  H    0.000000
    32  H    2.508707   0.000000
 Symmetry turned off by external request.
 Stoichiometry    C15H15N2(1+)
 Framework group  C1[X(C15H15N2)]
 Deg. of freedom    90
 Full point group                 C1      NOp   1
 Rotational constants (GHZ):           1.2131067           0.2921418           0.2419261
 Leave Link  202 at Tue Mar 24 18:23:21 2026, MaxMem=  2684354560 cpu:               0.1 elap:               0.0
 (Enter /home/programes/qq/gaussian/g16.A03/g16/l301.exe)
 General basis read from cards:  (5D, 7F)
 Centers:       1      2      3      4      5      6      7     14     18     22
 Centers:      23     24     25     27     29     12     13      8      9     10
 Centers:      11     15     16     17     19     20     21     26     28     30
 Centers:      31     32
 cc-pVDZ
 ****
 ======================================================================================================
                                       Pseudopotential Parameters
 ======================================================================================================
  Center     Atomic      Valence      Angular      Power
  Number     Number     Electrons     Momentum     of R      Exponent        Coefficient   SO-Coeffient
 ======================================================================================================
    1          6
                                   No pseudopotential on this center.
    2          6
                                   No pseudopotential on this center.
    3          6
                                   No pseudopotential on this center.
    4          6
                                   No pseudopotential on this center.
    5          6
                                   No pseudopotential on this center.
    6          6
                                   No pseudopotential on this center.
    7          6
                                   No pseudopotential on this center.
    8          1
                                   No pseudopotential on this center.
    9          1
                                   No pseudopotential on this center.
   10          1
                                   No pseudopotential on this center.
   11          1
                                   No pseudopotential on this center.
   12          7
                                   No pseudopotential on this center.
   13          7
                                   No pseudopotential on this center.
   14          6
                                   No pseudopotential on this center.
   15          1
                                   No pseudopotential on this center.
   16          1
                                   No pseudopotential on this center.
   17          1
                                   No pseudopotential on this center.
   18          6
                                   No pseudopotential on this center.
   19          1
                                   No pseudopotential on this center.
   20          1
                                   No pseudopotential on this center.
   21          1
                                   No pseudopotential on this center.
   22          6
                                   No pseudopotential on this center.
   23          6
                                   No pseudopotential on this center.
   24          6
                                   No pseudopotential on this center.
   25          6
                                   No pseudopotential on this center.
   26          1
                                   No pseudopotential on this center.
   27          6
                                   No pseudopotential on this center.
   28          1
                                   No pseudopotential on this center.
   29          6
                                   No pseudopotential on this center.
   30          1
                                   No pseudopotential on this center.
   31          1
                                   No pseudopotential on this center.
   32          1
                                   No pseudopotential on this center.
 ======================================================================================================
 Ernie: Thresh=  0.10000D-02 Tol=  0.10000D-05 Strict=F.
 Ernie:  34 primitive shells out of 449 were deleted.
   313 basis functions,   666 primitive gaussians,   330 cartesian basis functions
    59 alpha electrons       59 beta electrons
       nuclear repulsion energy      1133.4762792409 Hartrees.
 IExCor=  402 DFT=T Ex+Corr=B3LYP ExCW=0 ScaHFX=  0.200000
 ScaDFX=  0.800000  0.720000  1.000000  0.810000 ScalE2=  1.000000  1.000000
 IRadAn=      5 IRanWt=     -1 IRanGd=            0 ICorTp=0 IEmpDi=141
 NAtoms=   32 NActive=   32 NUniq=   32 SFac= 1.00D+00 NAtFMM=   60 NAOKFM=F Big=F
 Integral buffers will be    131072 words long.
 Raffenetti 2 integral format.
 Two-electron integral symmetry is turned off.
 R6Disp:  Grimme-D3(BJ) Dispersion energy=       -0.0696640625 Hartrees.
 Nuclear repulsion after empirical dispersion term =     1133.4066151784 Hartrees.
 Using the following non-standard input for PCM:
 NonEq=read
 --- end of non-standard input.
 ------------------------------------------------------------------------------
 Polarizable Continuum Model (PCM)
 =================================
 Model                : PCM.
 Atomic radii         : UFF (Universal Force Field).
 Polarization charges : Total charges.
 Charge compensation  : None.
 Solution method      : On-the-fly selection.
 Cavity type          : Scaled VdW (van der Waals Surface) (Alpha=1.100).
 Cavity algorithm     : GePol (No added spheres)
                        Default sphere list used, NSphG=   32.
                        Lebedev-Laikov grids with approx.  5.0 points / Ang**2.
                        Smoothing algorithm: York/Karplus (Gamma=1.0000).
                        Polarization charges: spherical gaussians, with
                                              point-specific exponents (IZeta= 3).
                        Self-potential: point-specific (ISelfS= 7).
                        Self-field    : sphere-specific E.n sum rule (ISelfD= 2).
 Solvent              : n,n-DiMethylFormamide, Eps=  37.219000 Eps(inf)=   2.046330
 ------------------------------------------------------------------------------
 GePol: Number of generator spheres                  =      32
 GePol: Total number of spheres                      =      32
 GePol: Number of exposed spheres                    =      32 (100.00%)
 GePol: Number of points                             =    2348
 GePol: Average weight of points                     =       0.13
 GePol: Minimum weight of points                     =   0.17D-10
 GePol: Maximum weight of points                     =    0.20577
 GePol: Number of points with low weight             =     164
 GePol: Fraction of low-weight points (<1% of avg)   =       6.98%
 GePol: Cavity surface area                          =    298.852 Ang**2
 GePol: Cavity volume                                =    326.827 Ang**3
 Leave Link  301 at Tue Mar 24 18:23:21 2026, MaxMem=  2684354560 cpu:               0.8 elap:               0.0
 (Enter /home/programes/qq/gaussian/g16.A03/g16/l302.exe)
 NPDir=0 NMtPBC=     1 NCelOv=     1 NCel=       1 NClECP=     1 NCelD=      1
         NCelK=      1 NCelE2=     1 NClLst=     1 CellRange=     0.0.
 One-electron integrals computed using PRISM.
   1 Symmetry operations used in ECPInt.
 ECPInt:  NShTT=   10878 NPrTT=   87130 LenC2=   10228 LenP2D=   46234.
 LDataN:  DoStor=T MaxTD1= 4 Len=   56
 NBasis=   313 RedAO= T EigKep=  3.17D-04  NBF=   313
 NBsUse=   313 1.00D-06 EigRej= -1.00D+00 NBFU=   313
 Precomputing XC quadrature grid using
 IXCGrd= 4 IRadAn=           5 IRanWt=          -1 IRanGd=           0 AccXCQ= 0.00D+00.
 Generated NRdTot=       0 NPtTot=           0 NUsed=           0 NTot=          32
 NSgBfM=   329   329   329   329   329 MxSgAt=    32 MxSgA2=    32.
 Leave Link  302 at Tue Mar 24 18:23:21 2026, MaxMem=  2684354560 cpu:               6.2 elap:               0.2
 (Enter /home/programes/qq/gaussian/g16.A03/g16/l303.exe)
 DipDrv:  MaxL=1.
 Leave Link  303 at Tue Mar 24 18:23:21 2026, MaxMem=  2684354560 cpu:               0.8 elap:               0.0
 (Enter /home/programes/qq/gaussian/g16.A03/g16/l401.exe)
 Initial guess from the checkpoint file:  "bi_rad_eq.chk"
 B after Tr=     0.000000    0.000000    0.000000
         Rot=    1.000000    0.000000    0.000000    0.000000 Ang=   0.00 deg.
 Guess basis will be translated and rotated to current coordinates.
 JPrj=2 DoOrth=T DoCkMO=T.
 Initial guess <Sx>= 0.0000 <Sy>= 0.0000 <Sz>= 0.0000 <S**2>= 0.0243 S= 0.0237
 Leave Link  401 at Tue Mar 24 18:23:22 2026, MaxMem=  2684354560 cpu:               6.7 elap:               0.2
 (Enter /home/programes/qq/gaussian/g16.A03/g16/l502.exe)
 Two-electron integral symmetry not used.
 UHF open shell SCF:
 Using DIIS extrapolation, IDIIS=  1040.
 NGot=  2684354560 LenX=  2684123386 LenY=  2684014045
 Requested convergence on RMS density matrix=1.00D-08 within 128 cycles.
 Requested convergence on MAX density matrix=1.00D-06.
 Requested convergence on             energy=1.00D-06.
 No special actions if energy rises.
 Fock matrices will be formed incrementally for  20 cycles.

 Cycle   1  Pass 1  IDiag  1:
 FoFJK:  IHMeth= 1 ICntrl=       0 DoSepK=F KAlg= 0 I1Cent=           0 FoldK=F
 IRaf= 880000000 NMat=       1 IRICut=       1 DoRegI=T DoRafI=F ISym2E= 0 IDoP0=0 IntGTp=1.
 FoFCou: FMM=F IPFlag=           0 FMFlag=      100000 FMFlg1=           0
         NFxFlg=           0 DoJE=F BraDBF=F KetDBF=F FulRan=T
         wScrn=  0.000000 ICntrl=         0 IOpCl=  1 I1Cent=           0 NGrid=           0
         NMat0=    1 NMatS0=      1 NMatT0=    0 NMatD0=    1 NMtDS0=    0 NMtDT0=    0
 Symmetry not used in FoFCou.
 Inv3:  Mode=1 IEnd=    16539312.
 Iteration    1 A*A^-1 deviation from unit magnitude is 9.55D-15 for    400.
 Iteration    1 A*A^-1 deviation from orthogonality  is 3.96D-15 for   1501    717.
 Iteration    1 A^-1*A deviation from unit magnitude is 1.04D-14 for    400.
 Iteration    1 A^-1*A deviation from orthogonality  is 3.46D-15 for   2065    392.
 NEqPCM:  Using non-equilibrium solvation (IEInf=1, Eps=  37.2190, EpsInf=   2.0463)
 Inv3:  Mode=1 IEnd=    16539312.
 Iteration    1 A*A^-1 deviation from unit magnitude is 8.88D-15 for    416.
 Iteration    1 A*A^-1 deviation from orthogonality  is 3.41D-15 for    441    416.
 Iteration    1 A^-1*A deviation from unit magnitude is 8.10D-15 for    725.
 Iteration    1 A^-1*A deviation from orthogonality  is 2.96D-15 for   1962    564.
 E= -690.053132584088    
 DIIS: error= 6.73D-03 at cycle   1 NSaved=   1.
 NSaved= 1 IEnMin= 1 EnMin= -690.053132584088     IErMin= 1 ErrMin= 6.73D-03
 ErrMax= 6.73D-03  0.00D+00 EMaxC= 1.00D-01 BMatC= 6.74D-02 BMatP= 6.74D-02
 IDIUse=3 WtCom= 9.33D-01 WtEn= 6.73D-02
 Coeff-Com:  0.100D+01
 Coeff-En:   0.100D+01
 Coeff:      0.100D+01
 Gap=     0.133 Goal=   None    Shift=    0.000
 Gap=     0.149 Goal=   None    Shift=    0.000
 GapD=    0.133 DampG=1.000 DampE=1.000 DampFc=1.0000 IDamp=-1.
 RMSDP=1.35D-03 MaxDP=7.85D-02              OVMax= 1.24D-01

 Cycle   2  Pass 1  IDiag  1:
 RMSU=  1.34D-03    CP:  1.00D+00
 E= -690.027168851213     Delta-E=        0.025963732875 Rises=F Damp=F
 DIIS: error= 1.24D-02 at cycle   2 NSaved=   2.
 NSaved= 2 IEnMin= 1 EnMin= -690.053132584088     IErMin= 1 ErrMin= 6.73D-03
 ErrMax= 1.24D-02  0.00D+00 EMaxC= 1.00D-01 BMatC= 1.69D-01 BMatP= 6.74D-02
 IDIUse=2 WtCom= 0.00D+00 WtEn= 1.00D+00
 Coeff-En:   0.665D+00 0.335D+00
 Coeff:      0.665D+00 0.335D+00
 Gap=     0.158 Goal=   None    Shift=    0.000
 Gap=     0.164 Goal=   None    Shift=    0.000
 RMSDP=6.83D-04 MaxDP=5.09D-02 DE= 2.60D-02 OVMax= 7.96D-02

 Cycle   3  Pass 1  IDiag  1:
 RMSU=  3.06D-04    CP:  1.00D+00  5.46D-01
 E= -690.075380185335     Delta-E=       -0.048211334122 Rises=F Damp=F
 DIIS: error= 1.72D-03 at cycle   3 NSaved=   3.
 NSaved= 3 IEnMin= 3 EnMin= -690.075380185335     IErMin= 3 ErrMin= 1.72D-03
 ErrMax= 1.72D-03  0.00D+00 EMaxC= 1.00D-01 BMatC= 5.29D-03 BMatP= 6.74D-02
 IDIUse=3 WtCom= 9.83D-01 WtEn= 1.72D-02
 Coeff-Com:  0.318D+00 0.163D+00 0.518D+00
 Coeff-En:   0.000D+00 0.000D+00 0.100D+01
 Coeff:      0.313D+00 0.161D+00 0.527D+00
 Gap=     0.148 Goal=   None    Shift=    0.000
 Gap=     0.153 Goal=   None    Shift=    0.000
 RMSDP=1.43D-04 MaxDP=6.95D-03 DE=-4.82D-02 OVMax= 1.17D-02

 Cycle   4  Pass 1  IDiag  1:
 RMSU=  1.16D-04    CP:  1.00D+00  5.06D-01  8.00D-01
 E= -690.076880924436     Delta-E=       -0.001500739101 Rises=F Damp=F
 DIIS: error= 7.34D-04 at cycle   4 NSaved=   4.
 NSaved= 4 IEnMin= 4 EnMin= -690.076880924436     IErMin= 4 ErrMin= 7.34D-04
 ErrMax= 7.34D-04  0.00D+00 EMaxC= 1.00D-01 BMatC= 3.55D-04 BMatP= 5.29D-03
 IDIUse=3 WtCom= 9.93D-01 WtEn= 7.34D-03
 Coeff-Com:  0.333D-01 0.209D-02 0.184D+00 0.781D+00
 Coeff-En:   0.000D+00 0.000D+00 0.000D+00 0.100D+01
 Coeff:      0.331D-01 0.207D-02 0.182D+00 0.782D+00
 Gap=     0.150 Goal=   None    Shift=    0.000
 Gap=     0.153 Goal=   None    Shift=    0.000
 RMSDP=5.52D-05 MaxDP=3.98D-03 DE=-1.50D-03 OVMax= 8.53D-03

 Cycle   5  Pass 1  IDiag  1:
 RMSU=  4.65D-05    CP:  1.00D+00  4.98D-01  8.89D-01  1.02D+00
 E= -690.077034866747     Delta-E=       -0.000153942310 Rises=F Damp=F
 DIIS: error= 4.68D-04 at cycle   5 NSaved=   5.
 NSaved= 5 IEnMin= 5 EnMin= -690.077034866747     IErMin= 5 ErrMin= 4.68D-04
 ErrMax= 4.68D-04  0.00D+00 EMaxC= 1.00D-01 BMatC= 1.59D-04 BMatP= 3.55D-04
 IDIUse=3 WtCom= 9.95D-01 WtEn= 4.68D-03
 Coeff-Com: -0.276D-01-0.218D-01 0.232D-01 0.457D+00 0.569D+00
 Coeff-En:   0.000D+00 0.000D+00 0.000D+00 0.000D+00 0.100D+01
 Coeff:     -0.275D-01-0.217D-01 0.231D-01 0.455D+00 0.571D+00
 Gap=     0.151 Goal=   None    Shift=    0.000
 Gap=     0.152 Goal=   None    Shift=    0.000
 RMSDP=2.95D-05 MaxDP=1.98D-03 DE=-1.54D-04 OVMax= 5.38D-03

 Cycle   6  Pass 1  IDiag  1:
 RMSU=  2.54D-05    CP:  1.00D+00  5.01D-01  9.07D-01  1.14D+00  1.02D+00
 E= -690.077110680238     Delta-E=       -0.000075813492 Rises=F Damp=F
 DIIS: error= 2.38D-04 at cycle   6 NSaved=   6.
 NSaved= 6 IEnMin= 6 EnMin= -690.077110680238     IErMin= 6 ErrMin= 2.38D-04
 ErrMax= 2.38D-04  0.00D+00 EMaxC= 1.00D-01 BMatC= 2.76D-05 BMatP= 1.59D-04
 IDIUse=3 WtCom= 9.98D-01 WtEn= 2.38D-03
 Coeff-Com: -0.209D-01-0.711D-02-0.471D-01-0.836D-01 0.186D+00 0.972D+00
 Coeff-En:   0.000D+00 0.000D+00 0.000D+00 0.000D+00 0.000D+00 0.100D+01
 Coeff:     -0.208D-01-0.709D-02-0.469D-01-0.834D-01 0.186D+00 0.972D+00
 Gap=     0.151 Goal=   None    Shift=    0.000
 Gap=     0.152 Goal=   None    Shift=    0.000
 RMSDP=2.81D-05 MaxDP=1.62D-03 DE=-7.58D-05 OVMax= 5.10D-03

 Cycle   7  Pass 1  IDiag  1:
 RMSU=  1.27D-05    CP:  1.00D+00  5.04D-01  9.26D-01  1.23D+00  1.42D+00
                    CP:  1.43D+00
 E= -690.077148914379     Delta-E=       -0.000038234141 Rises=F Damp=F
 DIIS: error= 1.56D-04 at cycle   7 NSaved=   7.
 NSaved= 7 IEnMin= 7 EnMin= -690.077148914379     IErMin= 7 ErrMin= 1.56D-04
 ErrMax= 1.56D-04  0.00D+00 EMaxC= 1.00D-01 BMatC= 1.21D-05 BMatP= 2.76D-05
 IDIUse=3 WtCom= 9.98D-01 WtEn= 1.56D-03
 Coeff-Com: -0.292D-02 0.279D-02-0.312D-01-0.189D+00-0.927D-01 0.510D+00
 Coeff-Com:  0.803D+00
 Coeff-En:   0.000D+00 0.000D+00 0.000D+00 0.000D+00 0.000D+00 0.000D+00
 Coeff-En:   0.100D+01
 Coeff:     -0.291D-02 0.279D-02-0.311D-01-0.189D+00-0.925D-01 0.509D+00
 Coeff:      0.804D+00
 Gap=     0.151 Goal=   None    Shift=    0.000
 Gap=     0.152 Goal=   None    Shift=    0.000
 RMSDP=1.95D-05 MaxDP=1.05D-03 DE=-3.82D-05 OVMax= 3.84D-03

 Cycle   8  Pass 1  IDiag  1:
 RMSU=  8.14D-06    CP:  1.00D+00  5.05D-01  9.36D-01  1.28D+00  1.66D+00
                    CP:  1.90D+00  1.09D+00
 E= -690.077164044171     Delta-E=       -0.000015129792 Rises=F Damp=F
 DIIS: error= 7.73D-05 at cycle   8 NSaved=   8.
 NSaved= 8 IEnMin= 8 EnMin= -690.077164044171     IErMin= 8 ErrMin= 7.73D-05
 ErrMax= 7.73D-05  0.00D+00 EMaxC= 1.00D-01 BMatC= 5.07D-06 BMatP= 1.21D-05
 IDIUse=1 WtCom= 1.00D+00 WtEn= 0.00D+00
 Coeff-Com:  0.721D-02 0.474D-02-0.419D-03-0.897D-01-0.134D+00-0.618D-01
 Coeff-Com:  0.515D+00 0.759D+00
 Coeff:      0.721D-02 0.474D-02-0.419D-03-0.897D-01-0.134D+00-0.618D-01
 Coeff:      0.515D+00 0.759D+00
 Gap=     0.152 Goal=   None    Shift=    0.000
 Gap=     0.152 Goal=   None    Shift=    0.000
 RMSDP=1.25D-05 MaxDP=6.37D-04 DE=-1.51D-05 OVMax= 2.40D-03

 Cycle   9  Pass 1  IDiag  1:
 RMSU=  3.78D-06    CP:  1.00D+00  5.05D-01  9.43D-01  1.31D+00  1.80D+00
                    CP:  2.17D+00  1.57D+00  1.13D+00
 E= -690.077169408770     Delta-E=       -0.000005364599 Rises=F Damp=F
 DIIS: error= 3.05D-05 at cycle   9 NSaved=   9.
 NSaved= 9 IEnMin= 9 EnMin= -690.077169408770     IErMin= 9 ErrMin= 3.05D-05
 ErrMax= 3.05D-05  0.00D+00 EMaxC= 1.00D-01 BMatC= 8.80D-07 BMatP= 5.07D-06
 IDIUse=1 WtCom= 1.00D+00 WtEn= 0.00D+00
 Coeff-Com:  0.379D-02 0.984D-03 0.757D-02 0.990D-02-0.329D-01-0.161D+00
 Coeff-Com:  0.819D-02 0.327D+00 0.837D+00
 Coeff:      0.379D-02 0.984D-03 0.757D-02 0.990D-02-0.329D-01-0.161D+00
 Coeff:      0.819D-02 0.327D+00 0.837D+00
 Gap=     0.152 Goal=   None    Shift=    0.000
 Gap=     0.151 Goal=   None    Shift=    0.000
 RMSDP=5.69D-06 MaxDP=2.65D-04 DE=-5.36D-06 OVMax= 9.99D-04

 Cycle  10  Pass 1  IDiag  1:
 RMSU=  1.97D-06    CP:  1.00D+00  5.05D-01  9.45D-01  1.32D+00  1.86D+00
                    CP:  2.28D+00  1.73D+00  1.41D+00  1.09D+00
 E= -690.077170344143     Delta-E=       -0.000000935373 Rises=F Damp=F
 DIIS: error= 1.87D-05 at cycle  10 NSaved=  10.
 NSaved=10 IEnMin=10 EnMin= -690.077170344143     IErMin=10 ErrMin= 1.87D-05
 ErrMax= 1.87D-05  0.00D+00 EMaxC= 1.00D-01 BMatC= 3.10D-07 BMatP= 8.80D-07
 IDIUse=1 WtCom= 1.00D+00 WtEn= 0.00D+00
 Coeff-Com:  0.394D-03-0.601D-03 0.416D-02 0.285D-01 0.163D-01-0.754D-01
 Coeff-Com: -0.133D+00-0.832D-02 0.493D+00 0.675D+00
 Coeff:      0.394D-03-0.601D-03 0.416D-02 0.285D-01 0.163D-01-0.754D-01
 Coeff:     -0.133D+00-0.832D-02 0.493D+00 0.675D+00
 Gap=     0.152 Goal=   None    Shift=    0.000
 Gap=     0.152 Goal=   None    Shift=    0.000
 RMSDP=2.17D-06 MaxDP=1.18D-04 DE=-9.35D-07 OVMax= 4.19D-04

 Cycle  11  Pass 1  IDiag  1:
 RMSU=  8.27D-07    CP:  1.00D+00  5.05D-01  9.46D-01  1.32D+00  1.88D+00
                    CP:  2.32D+00  1.79D+00  1.51D+00  1.30D+00  9.45D-01
 E= -690.077170516979     Delta-E=       -0.000000172836 Rises=F Damp=F
 DIIS: error= 5.61D-06 at cycle  11 NSaved=  11.
 NSaved=11 IEnMin=11 EnMin= -690.077170516979     IErMin=11 ErrMin= 5.61D-06
 ErrMax= 5.61D-06  0.00D+00 EMaxC= 1.00D-01 BMatC= 2.03D-08 BMatP= 3.10D-07
 IDIUse=1 WtCom= 1.00D+00 WtEn= 0.00D+00
 Coeff-Com: -0.346D-03-0.237D-03 0.181D-03 0.714D-02 0.865D-02-0.291D-02
 Coeff-Com: -0.384D-01-0.425D-01 0.374D-01 0.199D+00 0.832D+00
 Coeff:     -0.346D-03-0.237D-03 0.181D-03 0.714D-02 0.865D-02-0.291D-02
 Coeff:     -0.384D-01-0.425D-01 0.374D-01 0.199D+00 0.832D+00
 Gap=     0.152 Goal=   None    Shift=    0.000
 Gap=     0.152 Goal=   None    Shift=    0.000
 RMSDP=5.61D-07 MaxDP=3.23D-05 DE=-1.73D-07 OVMax= 1.09D-04

 Cycle  12  Pass 1  IDiag  1:
 RMSU=  3.26D-07    CP:  1.00D+00  5.05D-01  9.46D-01  1.32D+00  1.88D+00
                    CP:  2.32D+00  1.81D+00  1.53D+00  1.35D+00  1.07D+00
                    CP:  1.12D+00
 E= -690.077170529707     Delta-E=       -0.000000012728 Rises=F Damp=F
 DIIS: error= 2.97D-06 at cycle  12 NSaved=  12.
 NSaved=12 IEnMin=12 EnMin= -690.077170529707     IErMin=12 ErrMin= 2.97D-06
 ErrMax= 2.97D-06  0.00D+00 EMaxC= 1.00D-01 BMatC= 8.34D-09 BMatP= 2.03D-08
 IDIUse=1 WtCom= 1.00D+00 WtEn= 0.00D+00
 Coeff-Com: -0.272D-03 0.288D-04-0.857D-03-0.279D-02 0.703D-03 0.150D-01
 Coeff-Com:  0.106D-01-0.195D-01-0.917D-01-0.438D-01 0.454D+00 0.678D+00
 Coeff:     -0.272D-03 0.288D-04-0.857D-03-0.279D-02 0.703D-03 0.150D-01
 Coeff:      0.106D-01-0.195D-01-0.917D-01-0.438D-01 0.454D+00 0.678D+00
 Gap=     0.152 Goal=   None    Shift=    0.000
 Gap=     0.152 Goal=   None    Shift=    0.000
 RMSDP=2.54D-07 MaxDP=1.73D-05 DE=-1.27D-08 OVMax= 4.32D-05

 Cycle  13  Pass 1  IDiag  1:
 RMSU=  1.67D-07    CP:  1.00D+00  5.05D-01  9.46D-01  1.32D+00  1.88D+00
                    CP:  2.32D+00  1.81D+00  1.54D+00  1.36D+00  1.11D+00
                    CP:  1.27D+00  9.72D-01
 E= -690.077170533506     Delta-E=       -0.000000003799 Rises=F Damp=F
 DIIS: error= 1.06D-06 at cycle  13 NSaved=  13.
 NSaved=13 IEnMin=13 EnMin= -690.077170533506     IErMin=13 ErrMin= 1.06D-06
 ErrMax= 1.06D-06  0.00D+00 EMaxC= 1.00D-01 BMatC= 9.57D-10 BMatP= 8.34D-09
 IDIUse=1 WtCom= 1.00D+00 WtEn= 0.00D+00
 Coeff-Com: -0.458D-04 0.340D-04-0.282D-03-0.197D-02-0.105D-02 0.532D-02
 Coeff-Com:  0.901D-02 0.229D-03-0.361D-01-0.416D-01 0.295D-01 0.235D+00
 Coeff-Com:  0.801D+00
 Coeff:     -0.458D-04 0.340D-04-0.282D-03-0.197D-02-0.105D-02 0.532D-02
 Coeff:      0.901D-02 0.229D-03-0.361D-01-0.416D-01 0.295D-01 0.235D+00
 Coeff:      0.801D+00
 Gap=     0.152 Goal=   None    Shift=    0.000
 Gap=     0.152 Goal=   None    Shift=    0.000
 RMSDP=1.15D-07 MaxDP=1.06D-05 DE=-3.80D-09 OVMax= 1.88D-05

 Cycle  14  Pass 1  IDiag  1:
 RMSU=  7.55D-08    CP:  1.00D+00  5.05D-01  9.46D-01  1.32D+00  1.88D+00
                    CP:  2.32D+00  1.81D+00  1.54D+00  1.37D+00  1.12D+00
                    CP:  1.33D+00  1.16D+00  1.11D+00
 E= -690.077170534018     Delta-E=       -0.000000000512 Rises=F Damp=F
 DIIS: error= 7.17D-07 at cycle  14 NSaved=  14.
 NSaved=14 IEnMin=14 EnMin= -690.077170534018     IErMin=14 ErrMin= 7.17D-07
 ErrMax= 7.17D-07  0.00D+00 EMaxC= 1.00D-01 BMatC= 7.62D-10 BMatP= 9.57D-10
 IDIUse=1 WtCom= 1.00D+00 WtEn= 0.00D+00
 Coeff-Com:  0.519D-04 0.834D-05 0.851D-04-0.484D-03-0.101D-02-0.117D-02
 Coeff-Com:  0.289D-02 0.694D-02 0.493D-02-0.157D-01-0.135D+00-0.535D-01
 Coeff-Com:  0.602D+00 0.590D+00
 Coeff:      0.519D-04 0.834D-05 0.851D-04-0.484D-03-0.101D-02-0.117D-02
 Coeff:      0.289D-02 0.694D-02 0.493D-02-0.157D-01-0.135D+00-0.535D-01
 Coeff:      0.602D+00 0.590D+00
 Gap=     0.152 Goal=   None    Shift=    0.000
 Gap=     0.152 Goal=   None    Shift=    0.000
 RMSDP=7.08D-08 MaxDP=6.39D-06 DE=-5.12D-10 OVMax= 1.11D-05

 Cycle  15  Pass 1  IDiag  1:
 RMSU=  3.77D-08    CP:  1.00D+00  5.05D-01  9.46D-01  1.32D+00  1.88D+00
                    CP:  2.32D+00  1.81D+00  1.54D+00  1.37D+00  1.13D+00
                    CP:  1.36D+00  1.24D+00  1.34D+00  7.48D-01
 E= -690.077170534316     Delta-E=       -0.000000000298 Rises=F Damp=F
 DIIS: error= 2.25D-07 at cycle  15 NSaved=  15.
 NSaved=15 IEnMin=15 EnMin= -690.077170534316     IErMin=15 ErrMin= 2.25D-07
 ErrMax= 2.25D-07  0.00D+00 EMaxC= 1.00D-01 BMatC= 7.88D-11 BMatP= 7.62D-10
 IDIUse=1 WtCom= 1.00D+00 WtEn= 0.00D+00
 Coeff-Com:  0.333D-04-0.187D-05 0.857D-04 0.121D-03-0.306D-03-0.149D-02
 Coeff-Com: -0.254D-03 0.320D-02 0.933D-02-0.180D-03-0.701D-01-0.694D-01
 Coeff-Com:  0.140D+00 0.290D+00 0.699D+00
 Coeff:      0.333D-04-0.187D-05 0.857D-04 0.121D-03-0.306D-03-0.149D-02
 Coeff:     -0.254D-03 0.320D-02 0.933D-02-0.180D-03-0.701D-01-0.694D-01
 Coeff:      0.140D+00 0.290D+00 0.699D+00
 Gap=     0.152 Goal=   None    Shift=    0.000
 Gap=     0.152 Goal=   None    Shift=    0.000
 RMSDP=2.80D-08 MaxDP=2.77D-06 DE=-2.98D-10 OVMax= 5.23D-06

 Cycle  16  Pass 1  IDiag  1:
 RMSU=  1.66D-08    CP:  1.00D+00  5.05D-01  9.46D-01  1.32D+00  1.88D+00
                    CP:  2.32D+00  1.81D+00  1.54D+00  1.37D+00  1.14D+00
                    CP:  1.37D+00  1.27D+00  1.41D+00  9.12D-01  9.57D-01
 E= -690.077170534364     Delta-E=       -0.000000000048 Rises=F Damp=F
 DIIS: error= 1.37D-07 at cycle  16 NSaved=  16.
 NSaved=16 IEnMin=16 EnMin= -690.077170534364     IErMin=16 ErrMin= 1.37D-07
 ErrMax= 1.37D-07  0.00D+00 EMaxC= 1.00D-01 BMatC= 3.12D-11 BMatP= 7.88D-11
 IDIUse=1 WtCom= 1.00D+00 WtEn= 0.00D+00
 Coeff-Com:  0.820D-05-0.189D-05 0.277D-04 0.224D-03 0.105D-03-0.617D-03
 Coeff-Com: -0.104D-02-0.152D-03 0.474D-02 0.472D-02-0.313D-02-0.291D-01
 Coeff-Com: -0.966D-01 0.830D-02 0.459D+00 0.653D+00
 Coeff:      0.820D-05-0.189D-05 0.277D-04 0.224D-03 0.105D-03-0.617D-03
 Coeff:     -0.104D-02-0.152D-03 0.474D-02 0.472D-02-0.313D-02-0.291D-01
 Coeff:     -0.966D-01 0.830D-02 0.459D+00 0.653D+00
 Gap=     0.152 Goal=   None    Shift=    0.000
 Gap=     0.152 Goal=   None    Shift=    0.000
 RMSDP=1.43D-08 MaxDP=1.49D-06 DE=-4.82D-11 OVMax= 2.81D-06

 Cycle  17  Pass 1  IDiag  1:
 RMSU=  7.29D-09    CP:  1.00D+00  5.05D-01  9.46D-01  1.32D+00  1.88D+00
                    CP:  2.32D+00  1.81D+00  1.54D+00  1.37D+00  1.14D+00
                    CP:  1.37D+00  1.29D+00  1.44D+00  9.49D-01  1.15D+00
                    CP:  8.52D-01
 E= -690.077170534350     Delta-E=        0.000000000015 Rises=F Damp=F
 DIIS: error= 3.42D-08 at cycle  17 NSaved=  17.
 NSaved=17 IEnMin=16 EnMin= -690.077170534364     IErMin=17 ErrMin= 3.42D-08
 ErrMax= 3.42D-08  0.00D+00 EMaxC= 1.00D-01 BMatC= 1.83D-12 BMatP= 3.12D-11
 IDIUse=1 WtCom= 1.00D+00 WtEn= 0.00D+00
 Coeff-Com: -0.358D-05-0.974D-07-0.819D-05 0.420D-04 0.893D-04 0.784D-04
 Coeff-Com: -0.258D-03-0.613D-03-0.201D-03 0.140D-02 0.111D-01 0.359D-02
 Coeff-Com: -0.534D-01-0.491D-01 0.167D-01 0.205D+00 0.865D+00
 Coeff:     -0.358D-05-0.974D-07-0.819D-05 0.420D-04 0.893D-04 0.784D-04
 Coeff:     -0.258D-03-0.613D-03-0.201D-03 0.140D-02 0.111D-01 0.359D-02
 Coeff:     -0.534D-01-0.491D-01 0.167D-01 0.205D+00 0.865D+00
 Gap=     0.152 Goal=   None    Shift=    0.000
 Gap=     0.152 Goal=   None    Shift=    0.000
 RMSDP=4.93D-09 MaxDP=4.96D-07 DE= 1.48D-11 OVMax= 7.24D-07

 Error on total polarization charges =  0.01533
 SCF Done:  E(UB3LYP) =  -690.077170534     A.U. after   17 cycles
            NFock= 17  Conv=0.49D-08     -V/T= 2.0077
 <Sx>= 0.0000 <Sy>= 0.0000 <Sz>= 0.0000 <S**2>= 0.0000 S= 0.0000
 <L.S>= 0.000000000000E+00
 KE= 6.848119889068D+02 PE=-3.848423508733D+03 EE= 1.340127734114D+03
 Annihilation of the first spin contaminant:
 S**2 before annihilation     0.0000,   after     0.0000
 Leave Link  502 at Tue Mar 24 18:24:02 2026, MaxMem=  2684354560 cpu:            1229.0 elap:              40.3
 (Enter /home/programes/qq/gaussian/g16.A03/g16/l601.exe)
 Copying SCF densities to generalized density rwf, IOpCl= 1 IROHF=0.

 **********************************************************************

            Population analysis using the SCF density.

 **********************************************************************

 Alpha  occ. eigenvalues --  -14.49690 -14.49686 -10.38727 -10.31733 -10.31690
 Alpha  occ. eigenvalues --  -10.30578 -10.30567 -10.30403 -10.28599 -10.28597
 Alpha  occ. eigenvalues --  -10.27857 -10.27596 -10.27594 -10.27309 -10.27307
 Alpha  occ. eigenvalues --  -10.26835 -10.26789  -1.13398  -1.03218  -0.95270
 Alpha  occ. eigenvalues --   -0.93087  -0.87088  -0.85319  -0.83651  -0.83032
 Alpha  occ. eigenvalues --   -0.81181  -0.77352  -0.73977  -0.70990  -0.68171
 Alpha  occ. eigenvalues --   -0.67970  -0.66588  -0.61429  -0.60575  -0.60020
 Alpha  occ. eigenvalues --   -0.57911  -0.56881  -0.54984  -0.53133  -0.52993
 Alpha  occ. eigenvalues --   -0.52670  -0.52280  -0.52170  -0.50671  -0.50324
 Alpha  occ. eigenvalues --   -0.48073  -0.47963  -0.47407  -0.45530  -0.44353
 Alpha  occ. eigenvalues --   -0.44050  -0.43174  -0.42639  -0.41723  -0.39290
 Alpha  occ. eigenvalues --   -0.35898  -0.34074  -0.31811  -0.30998
 Alpha virt. eigenvalues --   -0.15846  -0.09038  -0.08500  -0.07281  -0.05261
 Alpha virt. eigenvalues --   -0.00927   0.00885   0.00916   0.02743   0.03762
 Alpha virt. eigenvalues --    0.03904   0.04125   0.04966   0.05186   0.05354
 Alpha virt. eigenvalues --    0.06649   0.07234   0.07780   0.08152   0.08988
 Alpha virt. eigenvalues --    0.09623   0.10279   0.11364   0.12063   0.12539
 Alpha virt. eigenvalues --    0.12839   0.16430   0.18486   0.18722   0.20528
 Alpha virt. eigenvalues --    0.21084   0.21554   0.22797   0.25166   0.26351
 Alpha virt. eigenvalues --    0.26404   0.30356   0.30481   0.31932   0.32684
 Alpha virt. eigenvalues --    0.34728   0.34866   0.36693   0.38551   0.38686
 Alpha virt. eigenvalues --    0.38853   0.39696   0.40609   0.41089   0.41840
 Alpha virt. eigenvalues --    0.41887   0.42068   0.42914   0.43133   0.43316
 Alpha virt. eigenvalues --    0.44102   0.44959   0.45255   0.45692   0.45914
 Alpha virt. eigenvalues --    0.47110   0.47389   0.48630   0.49126   0.49949
 Alpha virt. eigenvalues --    0.50322   0.53517   0.53998   0.54352   0.54404
 Alpha virt. eigenvalues --    0.55458   0.55586   0.57464   0.57482   0.57715
 Alpha virt. eigenvalues --    0.58060   0.58370   0.59699   0.59896   0.60046
 Alpha virt. eigenvalues --    0.61112   0.62843   0.63613   0.63747   0.64131
 Alpha virt. eigenvalues --    0.66486   0.67180   0.68922   0.69152   0.69179
 Alpha virt. eigenvalues --    0.71787   0.73437   0.76045   0.77469   0.79216
 Alpha virt. eigenvalues --    0.80795   0.80938   0.82395   0.83128   0.83471
 Alpha virt. eigenvalues --    0.84141   0.85361   0.85870   0.86623   0.86802
 Alpha virt. eigenvalues --    0.89032   0.90041   0.91210   0.91623   0.92746
 Alpha virt. eigenvalues --    0.93478   0.94304   0.94504   0.95820   0.96009
 Alpha virt. eigenvalues --    0.97424   0.98214   0.99285   0.99921   0.99992
 Alpha virt. eigenvalues --    1.02070   1.02357   1.05073   1.06204   1.08732
 Alpha virt. eigenvalues --    1.11678   1.16067   1.16679   1.19271   1.21568
 Alpha virt. eigenvalues --    1.21594   1.24381   1.25560   1.27301   1.28493
 Alpha virt. eigenvalues --    1.30045   1.32885   1.34094   1.34655   1.36548
 Alpha virt. eigenvalues --    1.38074   1.38254   1.40095   1.40204   1.40687
 Alpha virt. eigenvalues --    1.41375   1.42696   1.43287   1.43482   1.44738
 Alpha virt. eigenvalues --    1.46537   1.49343   1.49999   1.50799   1.51494
 Alpha virt. eigenvalues --    1.51673   1.52839   1.52978   1.54856   1.55735
 Alpha virt. eigenvalues --    1.56211   1.56809   1.56854   1.57733   1.59134
 Alpha virt. eigenvalues --    1.59843   1.60352   1.61153   1.62137   1.62294
 Alpha virt. eigenvalues --    1.63411   1.65430   1.67129   1.67217   1.67785
 Alpha virt. eigenvalues --    1.68031   1.69447   1.69456   1.71289   1.71667
 Alpha virt. eigenvalues --    1.73119   1.73342   1.74943   1.75020   1.75029
 Alpha virt. eigenvalues --    1.76509   1.76610   1.77566   1.79170   1.79619
 Alpha virt. eigenvalues --    1.80725   1.81758   1.82325   1.82832   1.83989
 Alpha virt. eigenvalues --    1.84699   1.87157   1.89383   1.90121   1.91283
 Alpha virt. eigenvalues --    1.91630   1.92623   1.92737   1.93989   1.94095
 Alpha virt. eigenvalues --    1.95864   1.98195   2.02258   2.02438   2.03436
 Alpha virt. eigenvalues --    2.05348   2.08175   2.08743   2.09854   2.12450
 Alpha virt. eigenvalues --    2.14801   2.16351   2.21596   2.22869   2.24022
 Alpha virt. eigenvalues --    2.28748   2.31591   2.31627   2.32337   2.34372
 Alpha virt. eigenvalues --    2.34435   2.35587   2.35809   2.36759   2.37616
 Alpha virt. eigenvalues --    2.38142   2.41020   2.41225   2.46159   2.46424
 Alpha virt. eigenvalues --    2.48721   2.50886   2.51297   2.57171   2.57885
 Alpha virt. eigenvalues --    2.62103   2.64097   2.64346   2.67502   2.69300
 Alpha virt. eigenvalues --    2.71251   2.71381   2.79797   2.87719   2.92969
 Alpha virt. eigenvalues --    2.94699   2.97135   3.46195   3.46381
  Beta  occ. eigenvalues --  -14.49690 -14.49686 -10.38727 -10.31733 -10.31690
  Beta  occ. eigenvalues --  -10.30578 -10.30567 -10.30403 -10.28599 -10.28597
  Beta  occ. eigenvalues --  -10.27856 -10.27596 -10.27594 -10.27309 -10.27307
  Beta  occ. eigenvalues --  -10.26835 -10.26789  -1.13398  -1.03218  -0.95270
  Beta  occ. eigenvalues --   -0.93087  -0.87088  -0.85319  -0.83651  -0.83032
  Beta  occ. eigenvalues --   -0.81181  -0.77352  -0.73977  -0.70990  -0.68171
  Beta  occ. eigenvalues --   -0.67970  -0.66588  -0.61429  -0.60575  -0.60020
  Beta  occ. eigenvalues --   -0.57911  -0.56881  -0.54984  -0.53133  -0.52993
  Beta  occ. eigenvalues --   -0.52670  -0.52280  -0.52170  -0.50671  -0.50324
  Beta  occ. eigenvalues --   -0.48073  -0.47963  -0.47407  -0.45530  -0.44353
  Beta  occ. eigenvalues --   -0.44050  -0.43174  -0.42639  -0.41723  -0.39290
  Beta  occ. eigenvalues --   -0.35898  -0.34074  -0.31811  -0.30998
  Beta virt. eigenvalues --   -0.15846  -0.09038  -0.08500  -0.07281  -0.05261
  Beta virt. eigenvalues --   -0.00927   0.00885   0.00916   0.02743   0.03762
  Beta virt. eigenvalues --    0.03904   0.04125   0.04966   0.05186   0.05354
  Beta virt. eigenvalues --    0.06649   0.07234   0.07780   0.08152   0.08988
  Beta virt. eigenvalues --    0.09623   0.10279   0.11364   0.12063   0.12539
  Beta virt. eigenvalues --    0.12839   0.16430   0.18486   0.18722   0.20528
  Beta virt. eigenvalues --    0.21084   0.21554   0.22797   0.25166   0.26351
  Beta virt. eigenvalues --    0.26404   0.30356   0.30481   0.31932   0.32684
  Beta virt. eigenvalues --    0.34728   0.34866   0.36693   0.38551   0.38686
  Beta virt. eigenvalues --    0.38853   0.39696   0.40609   0.41089   0.41840
  Beta virt. eigenvalues --    0.41887   0.42068   0.42914   0.43133   0.43316
  Beta virt. eigenvalues --    0.44102   0.44959   0.45255   0.45692   0.45914
  Beta virt. eigenvalues --    0.47110   0.47389   0.48630   0.49126   0.49949
  Beta virt. eigenvalues --    0.50322   0.53517   0.53998   0.54352   0.54404
  Beta virt. eigenvalues --    0.55458   0.55586   0.57464   0.57482   0.57715
  Beta virt. eigenvalues --    0.58060   0.58370   0.59699   0.59896   0.60046
  Beta virt. eigenvalues --    0.61112   0.62843   0.63613   0.63747   0.64131
  Beta virt. eigenvalues --    0.66486   0.67180   0.68922   0.69152   0.69179
  Beta virt. eigenvalues --    0.71787   0.73437   0.76045   0.77469   0.79216
  Beta virt. eigenvalues --    0.80795   0.80938   0.82395   0.83128   0.83471
  Beta virt. eigenvalues --    0.84141   0.85361   0.85870   0.86623   0.86802
  Beta virt. eigenvalues --    0.89032   0.90041   0.91210   0.91623   0.92746
  Beta virt. eigenvalues --    0.93478   0.94304   0.94504   0.95820   0.96009
  Beta virt. eigenvalues --    0.97424   0.98214   0.99285   0.99921   0.99992
  Beta virt. eigenvalues --    1.02070   1.02357   1.05073   1.06204   1.08732
  Beta virt. eigenvalues --    1.11678   1.16067   1.16679   1.19271   1.21568
  Beta virt. eigenvalues --    1.21594   1.24381   1.25560   1.27301   1.28493
  Beta virt. eigenvalues --    1.30045   1.32885   1.34094   1.34655   1.36548
  Beta virt. eigenvalues --    1.38074   1.38254   1.40095   1.40204   1.40687
  Beta virt. eigenvalues --    1.41375   1.42696   1.43287   1.43482   1.44738
  Beta virt. eigenvalues --    1.46537   1.49343   1.49999   1.50799   1.51494
  Beta virt. eigenvalues --    1.51673   1.52839   1.52978   1.54856   1.55735
  Beta virt. eigenvalues --    1.56211   1.56809   1.56854   1.57733   1.59134
  Beta virt. eigenvalues --    1.59843   1.60352   1.61153   1.62137   1.62294
  Beta virt. eigenvalues --    1.63411   1.65430   1.67129   1.67217   1.67785
  Beta virt. eigenvalues --    1.68031   1.69447   1.69456   1.71289   1.71667
  Beta virt. eigenvalues --    1.73119   1.73342   1.74943   1.75020   1.75029
  Beta virt. eigenvalues --    1.76509   1.76610   1.77566   1.79170   1.79619
  Beta virt. eigenvalues --    1.80725   1.81758   1.82325   1.82832   1.83989
  Beta virt. eigenvalues --    1.84699   1.87157   1.89383   1.90121   1.91283
  Beta virt. eigenvalues --    1.91630   1.92623   1.92737   1.93989   1.94095
  Beta virt. eigenvalues --    1.95864   1.98195   2.02258   2.02438   2.03436
  Beta virt. eigenvalues --    2.05348   2.08175   2.08743   2.09854   2.12450
  Beta virt. eigenvalues --    2.14801   2.16351   2.21596   2.22869   2.24022
  Beta virt. eigenvalues --    2.28748   2.31591   2.31627   2.32337   2.34372
  Beta virt. eigenvalues --    2.34435   2.35587   2.35809   2.36759   2.37616
  Beta virt. eigenvalues --    2.38142   2.41020   2.41225   2.46159   2.46424
  Beta virt. eigenvalues --    2.48721   2.50886   2.51297   2.57171   2.57885
  Beta virt. eigenvalues --    2.62103   2.64097   2.64346   2.67502   2.69300
  Beta virt. eigenvalues --    2.71251   2.71381   2.79797   2.87719   2.92969
  Beta virt. eigenvalues --    2.94699   2.97135   3.46195   3.46381
          Condensed to atoms (all electrons):
               1          2          3          4          5          6
     1  C    4.919292   0.357216  -0.039541  -0.066735   0.006292   0.497256
     2  C    0.357216   4.919056   0.497304   0.006285  -0.066724  -0.039600
     3  C   -0.039541   0.497304   4.777761   0.504434  -0.005163  -0.050864
     4  C   -0.066735   0.006285   0.504434   4.702673   0.488917  -0.005125
     5  C    0.006292  -0.066724  -0.005163   0.488917   4.702746   0.504398
     6  C    0.497256  -0.039600  -0.050864  -0.005125   0.504398   4.777835
     7  C   -0.101409  -0.101363   0.002747   0.000482   0.000481   0.002734
     8  H    0.010400  -0.030676   0.382216  -0.039194   0.008197  -0.000202
     9  H   -0.000380   0.009573  -0.041751   0.397234  -0.045186   0.010022
    10  H    0.009576  -0.000381   0.010025  -0.045176   0.397240  -0.041773
    11  H   -0.030607   0.010398  -0.000202   0.008195  -0.039223   0.382253
    12  N   -0.050579   0.407339  -0.047097   0.002340   0.000497   0.003640
    13  N    0.407216  -0.050571   0.003639   0.000496   0.002340  -0.047042
    14  C    0.010123  -0.055251  -0.005682   0.000098  -0.000017   0.000049
    15  H    0.000969  -0.009696   0.005738   0.000361  -0.000026  -0.000063
    16  H   -0.000433  -0.000010   0.001294   0.000037   0.000000  -0.000003
    17  H   -0.000443   0.005039   0.000081  -0.000006   0.000000   0.000012
    18  C   -0.055218   0.010127   0.000049  -0.000018   0.000100  -0.005718
    19  H   -0.009723   0.000978  -0.000063  -0.000025   0.000360   0.005706
    20  H    0.000057  -0.000437  -0.000003   0.000000   0.000036   0.001279
    21  H    0.005034  -0.000443   0.000012   0.000000  -0.000006   0.000081
    22  C    0.001523   0.001545  -0.000549   0.000010   0.000010  -0.000549
    23  C   -0.000003  -0.000197  -0.000014   0.000000  -0.000000   0.000007
    24  C   -0.000196  -0.000001   0.000007  -0.000000   0.000000  -0.000014
    25  C    0.000001   0.000017   0.000000   0.000000   0.000000   0.000000
    26  H   -0.000110  -0.000012  -0.000003  -0.000000   0.000000  -0.000002
    27  C    0.000018   0.000001   0.000000   0.000000   0.000000   0.000000
    28  H   -0.000015  -0.000109  -0.000002   0.000000  -0.000000  -0.000003
    29  C    0.000000   0.000000  -0.000000   0.000000   0.000000  -0.000000
    30  H   -0.000000  -0.000000  -0.000000   0.000000  -0.000000   0.000000
    31  H   -0.000000  -0.000000   0.000000  -0.000000   0.000000  -0.000000
    32  H    0.000000   0.000000  -0.000000   0.000000   0.000000  -0.000000
               7          8          9         10         11         12
     1  C   -0.101409   0.010400  -0.000380   0.009576  -0.030607  -0.050579
     2  C   -0.101363  -0.030676   0.009573  -0.000381   0.010398   0.407339
     3  C    0.002747   0.382216  -0.041751   0.010025  -0.000202  -0.047097
     4  C    0.000482  -0.039194   0.397234  -0.045176   0.008195   0.002340
     5  C    0.000481   0.008197  -0.045186   0.397240  -0.039223   0.000497
     6  C    0.002734  -0.000202   0.010022  -0.041773   0.382253   0.003640
     7  C    5.014901  -0.000664   0.000009   0.000009  -0.000663   0.442291
     8  H   -0.000664   0.667823  -0.012873  -0.000160   0.000036  -0.006544
     9  H    0.000009  -0.012873   0.681386  -0.014193  -0.000159  -0.000103
    10  H    0.000009  -0.000160  -0.014193   0.681401  -0.012878   0.000006
    11  H   -0.000663   0.000036  -0.000159  -0.012878   0.667537  -0.000159
    12  N    0.442291  -0.006544  -0.000103   0.000006  -0.000159   6.280849
    13  N    0.442464  -0.000159   0.000006  -0.000103  -0.006521  -0.046327
    14  C   -0.052478   0.002962  -0.000009  -0.000000   0.000010   0.372711
    15  H    0.003831   0.002343   0.000016  -0.000000   0.000001  -0.016299
    16  H    0.000874  -0.000270  -0.000000   0.000000  -0.000000  -0.019688
    17  H   -0.009280  -0.000083  -0.000000   0.000000  -0.000000  -0.015167
    18  C   -0.052558   0.000010  -0.000000  -0.000009   0.002885   0.002764
    19  H    0.003866   0.000001  -0.000000   0.000016   0.002357  -0.000047
    20  H    0.000837  -0.000000   0.000000  -0.000000  -0.000270  -0.000032
    21  H   -0.009301  -0.000000   0.000000  -0.000000  -0.000083   0.000300
    22  C    0.291293  -0.000003  -0.000000  -0.000000  -0.000002  -0.036351
    23  C   -0.092893  -0.000002  -0.000000   0.000000   0.000000  -0.006607
    24  C   -0.092779   0.000000   0.000000  -0.000000  -0.000002   0.001995
    25  C    0.008731   0.000000  -0.000000  -0.000000  -0.000000   0.000141
    26  H   -0.019808  -0.000000   0.000000   0.000000  -0.000000   0.000666
    27  C    0.008743  -0.000000  -0.000000  -0.000000   0.000000  -0.000088
    28  H   -0.019838  -0.000000   0.000000   0.000000  -0.000000   0.000091
    29  C    0.000281   0.000000  -0.000000  -0.000000   0.000000   0.000004
    30  H   -0.000409  -0.000000  -0.000000   0.000000  -0.000000  -0.000003
    31  H   -0.000408  -0.000000   0.000000  -0.000000  -0.000000   0.000001
    32  H    0.000017   0.000000  -0.000000  -0.000000   0.000000   0.000000
              13         14         15         16         17         18
     1  C    0.407216   0.010123   0.000969  -0.000433  -0.000443  -0.055218
     2  C   -0.050571  -0.055251  -0.009696  -0.000010   0.005039   0.010127
     3  C    0.003639  -0.005682   0.005738   0.001294   0.000081   0.000049
     4  C    0.000496   0.000098   0.000361   0.000037  -0.000006  -0.000018
     5  C    0.002340  -0.000017  -0.000026   0.000000   0.000000   0.000100
     6  C   -0.047042   0.000049  -0.000063  -0.000003   0.000012  -0.005718
     7  C    0.442464  -0.052478   0.003831   0.000874  -0.009280  -0.052558
     8  H   -0.000159   0.002962   0.002343  -0.000270  -0.000083   0.000010
     9  H    0.000006  -0.000009   0.000016  -0.000000  -0.000000  -0.000000
    10  H   -0.000103  -0.000000  -0.000000   0.000000   0.000000  -0.000009
    11  H   -0.006521   0.000010   0.000001  -0.000000  -0.000000   0.002885
    12  N   -0.046327   0.372711  -0.016299  -0.019688  -0.015167   0.002764
    13  N    6.280522   0.002763  -0.000044  -0.000034   0.000301   0.372821
    14  C    0.002763   4.483858   0.389490   0.398070   0.392573  -0.000118
    15  H   -0.000044   0.389490   0.579012  -0.026021  -0.014699   0.000005
    16  H   -0.000034   0.398070  -0.026021   0.585734  -0.024962   0.000010
    17  H    0.000301   0.392573  -0.014699  -0.024962   0.583561  -0.000025
    18  C    0.372821  -0.000118   0.000005   0.000010  -0.000025   4.483442
    19  H   -0.016149   0.000005   0.000001  -0.000001   0.000001   0.389455
    20  H   -0.019686   0.000010  -0.000002   0.000001  -0.000001   0.398038
    21  H   -0.015192  -0.000025   0.000001  -0.000001   0.000003   0.392595
    22  C   -0.036326  -0.004083   0.000224  -0.000223   0.001773  -0.004091
    23  C    0.001990  -0.000100   0.000516  -0.002008   0.006372   0.000269
    24  C   -0.006637   0.000270   0.000044  -0.000106  -0.000090   0.000034
    25  C   -0.000088   0.000059  -0.000012   0.000188   0.000577  -0.000003
    26  H    0.000090   0.005432   0.000378  -0.000203  -0.002166   0.000012
    27  C    0.000141  -0.000002  -0.000001   0.000002  -0.000038   0.000067
    28  H    0.000641   0.000012  -0.000001  -0.000002   0.000003   0.005488
    29  C    0.000004   0.000010   0.000000  -0.000007  -0.000106   0.000010
    30  H    0.000001   0.000010  -0.000002   0.000029   0.000011  -0.000000
    31  H   -0.000003  -0.000000   0.000000  -0.000000  -0.000000   0.000010
    32  H    0.000000   0.000000  -0.000000  -0.000000   0.000001   0.000000
              19         20         21         22         23         24
     1  C   -0.009723   0.000057   0.005034   0.001523  -0.000003  -0.000196
     2  C    0.000978  -0.000437  -0.000443   0.001545  -0.000197  -0.000001
     3  C   -0.000063  -0.000003   0.000012  -0.000549  -0.000014   0.000007
     4  C   -0.000025   0.000000   0.000000   0.000010   0.000000  -0.000000
     5  C    0.000360   0.000036  -0.000006   0.000010  -0.000000   0.000000
     6  C    0.005706   0.001279   0.000081  -0.000549   0.000007  -0.000014
     7  C    0.003866   0.000837  -0.009301   0.291293  -0.092893  -0.092779
     8  H    0.000001  -0.000000  -0.000000  -0.000003  -0.000002   0.000000
     9  H   -0.000000   0.000000   0.000000  -0.000000  -0.000000   0.000000
    10  H    0.000016  -0.000000  -0.000000  -0.000000   0.000000  -0.000000
    11  H    0.002357  -0.000270  -0.000083  -0.000002   0.000000  -0.000002
    12  N   -0.000047  -0.000032   0.000300  -0.036351  -0.006607   0.001995
    13  N   -0.016149  -0.019686  -0.015192  -0.036326   0.001990  -0.006637
    14  C    0.000005   0.000010  -0.000025  -0.004083  -0.000100   0.000270
    15  H    0.000001  -0.000002   0.000001   0.000224   0.000516   0.000044
    16  H   -0.000001   0.000001  -0.000001  -0.000223  -0.002008  -0.000106
    17  H    0.000001  -0.000001   0.000003   0.001773   0.006372  -0.000090
    18  C    0.389455   0.398038   0.392595  -0.004091   0.000269   0.000034
    19  H    0.578734  -0.025900  -0.014730   0.000230   0.000043   0.000514
    20  H   -0.025900   0.585819  -0.025060  -0.000248  -0.000108  -0.002030
    21  H   -0.014730  -0.025060   0.583709   0.001734  -0.000084   0.006323
    22  C    0.000230  -0.000248   0.001734   5.084426   0.442242   0.442304
    23  C    0.000043  -0.000108  -0.000084   0.442242   4.827026  -0.002300
    24  C    0.000514  -0.002030   0.006323   0.442304  -0.002300   4.826817
    25  C   -0.000001   0.000003  -0.000037   0.014199   0.488751  -0.074336
    26  H   -0.000001  -0.000002   0.000003  -0.054688   0.405243   0.010109
    27  C   -0.000013   0.000198   0.000574   0.014295  -0.074373   0.488483
    28  H    0.000380  -0.000237  -0.002177  -0.054654   0.010117   0.405239
    29  C    0.000000  -0.000007  -0.000106  -0.074341   0.005297   0.005361
    30  H    0.000000  -0.000000  -0.000000   0.009206  -0.035893   0.000120
    31  H   -0.000002   0.000030   0.000011   0.009212   0.000117  -0.035922
    32  H   -0.000000  -0.000000   0.000001  -0.000458   0.009641   0.009640
              25         26         27         28         29         30
     1  C    0.000001  -0.000110   0.000018  -0.000015   0.000000  -0.000000
     2  C    0.000017  -0.000012   0.000001  -0.000109   0.000000  -0.000000
     3  C    0.000000  -0.000003   0.000000  -0.000002  -0.000000  -0.000000
     4  C    0.000000  -0.000000   0.000000   0.000000   0.000000   0.000000
     5  C    0.000000   0.000000   0.000000  -0.000000   0.000000  -0.000000
     6  C    0.000000  -0.000002   0.000000  -0.000003  -0.000000   0.000000
     7  C    0.008731  -0.019808   0.008743  -0.019838   0.000281  -0.000409
     8  H    0.000000  -0.000000  -0.000000  -0.000000   0.000000  -0.000000
     9  H   -0.000000   0.000000  -0.000000   0.000000  -0.000000  -0.000000
    10  H   -0.000000   0.000000  -0.000000   0.000000  -0.000000   0.000000
    11  H   -0.000000  -0.000000   0.000000  -0.000000   0.000000  -0.000000
    12  N    0.000141   0.000666  -0.000088   0.000091   0.000004  -0.000003
    13  N   -0.000088   0.000090   0.000141   0.000641   0.000004   0.000001
    14  C    0.000059   0.005432  -0.000002   0.000012   0.000010   0.000010
    15  H   -0.000012   0.000378  -0.000001  -0.000001   0.000000  -0.000002
    16  H    0.000188  -0.000203   0.000002  -0.000002  -0.000007   0.000029
    17  H    0.000577  -0.002166  -0.000038   0.000003  -0.000106   0.000011
    18  C   -0.000003   0.000012   0.000067   0.005488   0.000010  -0.000000
    19  H   -0.000001  -0.000001  -0.000013   0.000380   0.000000   0.000000
    20  H    0.000003  -0.000002   0.000198  -0.000237  -0.000007  -0.000000
    21  H   -0.000037   0.000003   0.000574  -0.002177  -0.000106  -0.000000
    22  C    0.014199  -0.054688   0.014295  -0.054654  -0.074341   0.009206
    23  C    0.488751   0.405243  -0.074373   0.010117   0.005297  -0.035893
    24  C   -0.074336   0.010109   0.488483   0.405239   0.005361   0.000120
    25  C    4.725152  -0.036952   0.011289  -0.001019   0.464004   0.394685
    26  H   -0.036952   0.698670  -0.001017  -0.000123   0.010177  -0.015365
    27  C    0.011289  -0.001017   4.725511  -0.037099   0.463916   0.008719
    28  H   -0.001019  -0.000123  -0.037099   0.699000   0.010187   0.000051
    29  C    0.464004   0.010177   0.463916   0.010187   4.763925  -0.048365
    30  H    0.394685  -0.015365   0.008719   0.000051  -0.048365   0.683001
    31  H    0.008723   0.000051   0.394721  -0.015383  -0.048396  -0.000238
    32  H   -0.044905  -0.000175  -0.044893  -0.000175   0.402417  -0.012689
              31         32
     1  C   -0.000000   0.000000
     2  C   -0.000000   0.000000
     3  C    0.000000  -0.000000
     4  C   -0.000000   0.000000
     5  C    0.000000   0.000000
     6  C   -0.000000  -0.000000
     7  C   -0.000408   0.000017
     8  H   -0.000000   0.000000
     9  H    0.000000  -0.000000
    10  H   -0.000000  -0.000000
    11  H   -0.000000   0.000000
    12  N    0.000001   0.000000
    13  N   -0.000003   0.000000
    14  C   -0.000000   0.000000
    15  H    0.000000  -0.000000
    16  H   -0.000000  -0.000000
    17  H   -0.000000   0.000001
    18  C    0.000010   0.000000
    19  H   -0.000002  -0.000000
    20  H    0.000030  -0.000000
    21  H    0.000011   0.000001
    22  C    0.009212  -0.000458
    23  C    0.000117   0.009641
    24  C   -0.035922   0.009640
    25  C    0.008723  -0.044905
    26  H    0.000051  -0.000175
    27  C    0.394721  -0.044893
    28  H   -0.015383  -0.000175
    29  C   -0.048396   0.402417
    30  H   -0.000238  -0.012689
    31  H    0.683079  -0.012693
    32  H   -0.012693   0.674308
          Atomic-Atomic Spin Densities.
               1          2          3          4          5          6
     1  C   -0.000000   0.000000   0.000000   0.000000  -0.000000  -0.000000
     2  C    0.000000  -0.000000  -0.000000  -0.000000   0.000000   0.000000
     3  C    0.000000  -0.000000   0.000001  -0.000000   0.000000  -0.000000
     4  C    0.000000  -0.000000  -0.000000  -0.000000   0.000000   0.000000
     5  C   -0.000000   0.000000   0.000000   0.000000  -0.000000  -0.000000
     6  C   -0.000000   0.000000  -0.000000   0.000000  -0.000000   0.000001
     7  C    0.000000   0.000000  -0.000000  -0.000000  -0.000000  -0.000000
     8  H   -0.000000   0.000000   0.000000   0.000000  -0.000000  -0.000000
     9  H   -0.000000   0.000000  -0.000000  -0.000000  -0.000000   0.000000
    10  H    0.000000  -0.000000   0.000000  -0.000000  -0.000000  -0.000000
    11  H    0.000000  -0.000000  -0.000000  -0.000000   0.000000   0.000000
    12  N   -0.000000  -0.000000  -0.000000   0.000000  -0.000000   0.000000
    13  N   -0.000000  -0.000000   0.000000  -0.000000   0.000000  -0.000000
    14  C   -0.000000   0.000000  -0.000000   0.000000   0.000000  -0.000000
    15  H    0.000000  -0.000000  -0.000000  -0.000000   0.000000   0.000000
    16  H    0.000000   0.000000   0.000000  -0.000000  -0.000000   0.000000
    17  H   -0.000000   0.000000   0.000000  -0.000000   0.000000   0.000000
    18  C    0.000000  -0.000000  -0.000000   0.000000   0.000000  -0.000000
    19  H   -0.000000   0.000000   0.000000   0.000000  -0.000000  -0.000000
    20  H    0.000000   0.000000   0.000000  -0.000000  -0.000000   0.000000
    21  H    0.000000  -0.000000   0.000000   0.000000  -0.000000   0.000000
    22  C   -0.000000  -0.000000  -0.000000  -0.000000  -0.000000  -0.000000
    23  C    0.000000  -0.000000   0.000000   0.000000  -0.000000   0.000000
    24  C   -0.000000   0.000000   0.000000  -0.000000   0.000000   0.000000
    25  C   -0.000000  -0.000000   0.000000   0.000000  -0.000000  -0.000000
    26  H    0.000000  -0.000000   0.000000   0.000000  -0.000000   0.000000
    27  C   -0.000000  -0.000000  -0.000000  -0.000000   0.000000   0.000000
    28  H   -0.000000   0.000000   0.000000  -0.000000   0.000000   0.000000
    29  C   -0.000000   0.000000   0.000000   0.000000   0.000000   0.000000
    30  H   -0.000000  -0.000000  -0.000000   0.000000  -0.000000  -0.000000
    31  H   -0.000000  -0.000000  -0.000000  -0.000000   0.000000  -0.000000
    32  H    0.000000   0.000000   0.000000  -0.000000  -0.000000   0.000000
               7          8          9         10         11         12
     1  C    0.000000  -0.000000  -0.000000   0.000000   0.000000  -0.000000
     2  C    0.000000   0.000000   0.000000  -0.000000  -0.000000  -0.000000
     3  C   -0.000000   0.000000  -0.000000   0.000000  -0.000000  -0.000000
     4  C   -0.000000   0.000000  -0.000000  -0.000000  -0.000000   0.000000
     5  C   -0.000000  -0.000000  -0.000000  -0.000000   0.000000  -0.000000
     6  C   -0.000000  -0.000000   0.000000  -0.000000   0.000000   0.000000
     7  C   -0.000001   0.000000  -0.000000  -0.000000   0.000000   0.000000
     8  H    0.000000  -0.000000   0.000000   0.000000  -0.000000   0.000000
     9  H   -0.000000   0.000000   0.000000   0.000000   0.000000   0.000000
    10  H   -0.000000   0.000000   0.000000   0.000000   0.000000  -0.000000
    11  H    0.000000  -0.000000   0.000000   0.000000  -0.000000   0.000000
    12  N    0.000000   0.000000   0.000000  -0.000000   0.000000   0.000001
    13  N    0.000000   0.000000  -0.000000   0.000000   0.000000   0.000000
    14  C    0.000000  -0.000000  -0.000000  -0.000000  -0.000000  -0.000000
    15  H   -0.000000   0.000000   0.000000  -0.000000   0.000000  -0.000000
    16  H   -0.000000   0.000000   0.000000   0.000000  -0.000000  -0.000000
    17  H    0.000000  -0.000000   0.000000   0.000000  -0.000000  -0.000000
    18  C    0.000000  -0.000000  -0.000000  -0.000000  -0.000000  -0.000000
    19  H   -0.000000   0.000000  -0.000000   0.000000   0.000000  -0.000000
    20  H   -0.000000  -0.000000   0.000000   0.000000   0.000000  -0.000000
    21  H    0.000000  -0.000000   0.000000   0.000000  -0.000000   0.000000
    22  C    0.000000  -0.000000  -0.000000  -0.000000  -0.000000  -0.000000
    23  C    0.000000   0.000000   0.000000  -0.000000   0.000000   0.000000
    24  C    0.000000   0.000000  -0.000000   0.000000   0.000000   0.000000
    25  C   -0.000000  -0.000000   0.000000  -0.000000   0.000000   0.000000
    26  H    0.000000  -0.000000  -0.000000  -0.000000   0.000000  -0.000000
    27  C   -0.000000   0.000000  -0.000000   0.000000  -0.000000  -0.000000
    28  H    0.000000   0.000000  -0.000000  -0.000000  -0.000000   0.000000
    29  C   -0.000000  -0.000000   0.000000   0.000000  -0.000000   0.000000
    30  H   -0.000000  -0.000000   0.000000  -0.000000   0.000000  -0.000000
    31  H   -0.000000   0.000000  -0.000000   0.000000  -0.000000  -0.000000
    32  H   -0.000000  -0.000000   0.000000   0.000000  -0.000000   0.000000
              13         14         15         16         17         18
     1  C   -0.000000  -0.000000   0.000000   0.000000  -0.000000   0.000000
     2  C   -0.000000   0.000000  -0.000000   0.000000   0.000000  -0.000000
     3  C    0.000000  -0.000000  -0.000000   0.000000   0.000000  -0.000000
     4  C   -0.000000   0.000000  -0.000000  -0.000000  -0.000000   0.000000
     5  C    0.000000   0.000000   0.000000  -0.000000   0.000000   0.000000
     6  C   -0.000000  -0.000000   0.000000   0.000000   0.000000  -0.000000
     7  C    0.000000   0.000000  -0.000000  -0.000000   0.000000   0.000000
     8  H    0.000000  -0.000000   0.000000   0.000000  -0.000000  -0.000000
     9  H   -0.000000  -0.000000   0.000000   0.000000   0.000000  -0.000000
    10  H    0.000000  -0.000000  -0.000000   0.000000   0.000000  -0.000000
    11  H    0.000000  -0.000000   0.000000  -0.000000  -0.000000  -0.000000
    12  N    0.000000  -0.000000  -0.000000  -0.000000  -0.000000  -0.000000
    13  N    0.000000  -0.000000  -0.000000  -0.000000   0.000000  -0.000000
    14  C   -0.000000  -0.000000   0.000000   0.000000   0.000000   0.000000
    15  H   -0.000000   0.000000   0.000000  -0.000000  -0.000000   0.000000
    16  H   -0.000000   0.000000  -0.000000   0.000000  -0.000000  -0.000000
    17  H    0.000000   0.000000  -0.000000  -0.000000   0.000000   0.000000
    18  C   -0.000000   0.000000   0.000000  -0.000000   0.000000  -0.000000
    19  H   -0.000000   0.000000  -0.000000   0.000000  -0.000000   0.000000
    20  H   -0.000000  -0.000000   0.000000  -0.000000   0.000000   0.000000
    21  H   -0.000000   0.000000  -0.000000   0.000000   0.000000   0.000000
    22  C   -0.000000  -0.000000  -0.000000   0.000000  -0.000000  -0.000000
    23  C    0.000000   0.000000   0.000000  -0.000000  -0.000000   0.000000
    24  C    0.000000   0.000000  -0.000000   0.000000  -0.000000   0.000000
    25  C   -0.000000  -0.000000   0.000000  -0.000000   0.000000  -0.000000
    26  H    0.000000   0.000000  -0.000000  -0.000000  -0.000000  -0.000000
    27  C    0.000000  -0.000000  -0.000000   0.000000   0.000000  -0.000000
    28  H   -0.000000  -0.000000  -0.000000   0.000000  -0.000000   0.000000
    29  C    0.000000   0.000000   0.000000  -0.000000   0.000000   0.000000
    30  H   -0.000000  -0.000000  -0.000000   0.000000   0.000000   0.000000
    31  H   -0.000000   0.000000   0.000000  -0.000000  -0.000000  -0.000000
    32  H    0.000000  -0.000000  -0.000000  -0.000000   0.000000  -0.000000
              19         20         21         22         23         24
     1  C   -0.000000   0.000000   0.000000  -0.000000   0.000000  -0.000000
     2  C    0.000000   0.000000  -0.000000  -0.000000  -0.000000   0.000000
     3  C    0.000000   0.000000   0.000000  -0.000000   0.000000   0.000000
     4  C    0.000000  -0.000000   0.000000  -0.000000   0.000000  -0.000000
     5  C   -0.000000  -0.000000  -0.000000  -0.000000  -0.000000   0.000000
     6  C   -0.000000   0.000000   0.000000  -0.000000   0.000000   0.000000
     7  C   -0.000000  -0.000000   0.000000   0.000000   0.000000   0.000000
     8  H    0.000000  -0.000000  -0.000000  -0.000000   0.000000   0.000000
     9  H   -0.000000   0.000000   0.000000  -0.000000   0.000000  -0.000000
    10  H    0.000000   0.000000   0.000000  -0.000000  -0.000000   0.000000
    11  H    0.000000   0.000000  -0.000000  -0.000000   0.000000   0.000000
    12  N   -0.000000  -0.000000   0.000000  -0.000000   0.000000   0.000000
    13  N   -0.000000  -0.000000  -0.000000  -0.000000   0.000000   0.000000
    14  C    0.000000  -0.000000   0.000000  -0.000000   0.000000   0.000000
    15  H   -0.000000   0.000000  -0.000000  -0.000000   0.000000  -0.000000
    16  H    0.000000  -0.000000   0.000000   0.000000  -0.000000   0.000000
    17  H   -0.000000   0.000000   0.000000  -0.000000  -0.000000  -0.000000
    18  C    0.000000   0.000000   0.000000  -0.000000   0.000000   0.000000
    19  H    0.000000  -0.000000  -0.000000  -0.000000  -0.000000   0.000000
    20  H   -0.000000   0.000000  -0.000000   0.000000   0.000000  -0.000000
    21  H   -0.000000  -0.000000   0.000000  -0.000000  -0.000000  -0.000000
    22  C   -0.000000   0.000000  -0.000000   0.000000  -0.000000  -0.000000
    23  C   -0.000000   0.000000  -0.000000  -0.000000   0.000000  -0.000000
    24  C    0.000000  -0.000000  -0.000000  -0.000000  -0.000000   0.000000
    25  C   -0.000000   0.000000   0.000000   0.000000   0.000000   0.000000
    26  H   -0.000000   0.000000  -0.000000  -0.000000  -0.000000   0.000000
    27  C    0.000000  -0.000000   0.000000   0.000000   0.000000   0.000000
    28  H   -0.000000  -0.000000  -0.000000  -0.000000   0.000000  -0.000000
    29  C    0.000000  -0.000000   0.000000  -0.000000  -0.000000  -0.000000
    30  H    0.000000  -0.000000  -0.000000   0.000000  -0.000000   0.000000
    31  H   -0.000000   0.000000   0.000000   0.000000   0.000000  -0.000000
    32  H   -0.000000  -0.000000   0.000000   0.000000  -0.000000  -0.000000
              25         26         27         28         29         30
     1  C   -0.000000   0.000000  -0.000000  -0.000000  -0.000000  -0.000000
     2  C   -0.000000  -0.000000  -0.000000   0.000000   0.000000  -0.000000
     3  C    0.000000   0.000000  -0.000000   0.000000   0.000000  -0.000000
     4  C    0.000000   0.000000  -0.000000  -0.000000   0.000000   0.000000
     5  C   -0.000000  -0.000000   0.000000   0.000000   0.000000  -0.000000
     6  C   -0.000000   0.000000   0.000000   0.000000   0.000000  -0.000000
     7  C   -0.000000   0.000000  -0.000000   0.000000  -0.000000  -0.000000
     8  H   -0.000000  -0.000000   0.000000   0.000000  -0.000000  -0.000000
     9  H    0.000000  -0.000000  -0.000000  -0.000000   0.000000   0.000000
    10  H   -0.000000  -0.000000   0.000000  -0.000000   0.000000  -0.000000
    11  H    0.000000   0.000000  -0.000000  -0.000000  -0.000000   0.000000
    12  N    0.000000  -0.000000  -0.000000   0.000000   0.000000  -0.000000
    13  N   -0.000000   0.000000   0.000000  -0.000000   0.000000  -0.000000
    14  C   -0.000000   0.000000  -0.000000  -0.000000   0.000000  -0.000000
    15  H    0.000000  -0.000000  -0.000000  -0.000000   0.000000  -0.000000
    16  H   -0.000000  -0.000000   0.000000   0.000000  -0.000000   0.000000
    17  H    0.000000  -0.000000   0.000000  -0.000000   0.000000   0.000000
    18  C   -0.000000  -0.000000  -0.000000   0.000000   0.000000   0.000000
    19  H   -0.000000  -0.000000   0.000000  -0.000000   0.000000   0.000000
    20  H    0.000000   0.000000  -0.000000  -0.000000  -0.000000  -0.000000
    21  H    0.000000  -0.000000   0.000000  -0.000000   0.000000  -0.000000
    22  C    0.000000  -0.000000   0.000000  -0.000000  -0.000000   0.000000
    23  C    0.000000  -0.000000   0.000000   0.000000  -0.000000  -0.000000
    24  C    0.000000   0.000000   0.000000  -0.000000  -0.000000   0.000000
    25  C   -0.000000   0.000000   0.000000   0.000000   0.000000  -0.000000
    26  H    0.000000   0.000000   0.000000   0.000000   0.000000  -0.000000
    27  C    0.000000   0.000000  -0.000000   0.000000   0.000000   0.000000
    28  H    0.000000   0.000000   0.000000   0.000000   0.000000   0.000000
    29  C    0.000000   0.000000   0.000000   0.000000   0.000000  -0.000000
    30  H   -0.000000  -0.000000   0.000000   0.000000  -0.000000   0.000000
    31  H    0.000000   0.000000  -0.000000  -0.000000  -0.000000  -0.000000
    32  H    0.000000   0.000000   0.000000   0.000000   0.000000  -0.000000
              31         32
     1  C   -0.000000   0.000000
     2  C   -0.000000   0.000000
     3  C   -0.000000   0.000000
     4  C   -0.000000  -0.000000
     5  C    0.000000  -0.000000
     6  C   -0.000000   0.000000
     7  C   -0.000000  -0.000000
     8  H    0.000000  -0.000000
     9  H   -0.000000   0.000000
    10  H    0.000000   0.000000
    11  H   -0.000000  -0.000000
    12  N   -0.000000   0.000000
    13  N   -0.000000   0.000000
    14  C    0.000000  -0.000000
    15  H    0.000000  -0.000000
    16  H   -0.000000  -0.000000
    17  H   -0.000000   0.000000
    18  C   -0.000000  -0.000000
    19  H   -0.000000  -0.000000
    20  H    0.000000  -0.000000
    21  H    0.000000   0.000000
    22  C    0.000000   0.000000
    23  C    0.000000  -0.000000
    24  C   -0.000000  -0.000000
    25  C    0.000000   0.000000
    26  H    0.000000   0.000000
    27  C   -0.000000   0.000000
    28  H   -0.000000   0.000000
    29  C   -0.000000   0.000000
    30  H   -0.000000  -0.000000
    31  H    0.000000  -0.000000
    32  H   -0.000000  -0.000000
 Mulliken charges and spin densities:
               1          2
     1  C    0.130422  -0.000000
     2  C    0.130596  -0.000000
     3  C    0.005627   0.000001
     4  C    0.044716  -0.000000
     5  C    0.044733  -0.000000
     6  C    0.005686   0.000001
     7  C    0.329260  -0.000001
     8  H    0.016842  -0.000000
     9  H    0.016410   0.000000
    10  H    0.016401   0.000000
    11  H    0.017100  -0.000000
    12  N   -0.270544   0.000000
    13  N   -0.270555   0.000000
    14  C    0.059253  -0.000000
    15  H    0.083935   0.000000
    16  H    0.087733   0.000000
    17  H    0.076761   0.000000
    18  C    0.059568  -0.000000
    19  H    0.084007   0.000000
    20  H    0.087716   0.000000
    21  H    0.076866   0.000000
    22  C   -0.047657   0.000000
    23  C    0.016949   0.000000
    24  C    0.017154   0.000000
    25  C    0.040831  -0.000000
    26  H   -0.000205   0.000000
    27  C    0.040845  -0.000000
    28  H   -0.000371   0.000000
    29  C    0.045734   0.000000
    30  H    0.017132   0.000000
    31  H    0.017092   0.000000
    32  H    0.019964  -0.000000
 Sum of Mulliken charges =   1.00000  -0.00000
 Mulliken charges and spin densities with hydrogens summed into heavy atoms:
               1          2
     1  C    0.130422  -0.000000
     2  C    0.130596  -0.000000
     3  C    0.022469   0.000001
     4  C    0.061126  -0.000000
     5  C    0.061134  -0.000000
     6  C    0.022787   0.000001
     7  C    0.329260  -0.000001
    12  N   -0.270544   0.000000
    13  N   -0.270555   0.000000
    14  C    0.307682  -0.000000
    18  C    0.308157  -0.000000
    22  C   -0.047657   0.000000
    23  C    0.016744   0.000000
    24  C    0.016783   0.000000
    25  C    0.057963  -0.000000
    27  C    0.057936  -0.000000
    29  C    0.065698   0.000000
 Electronic spatial extent (au):  <R**2>=          34910.2055
 Charge=              1.0000 electrons
 Dipole moment (field-independent basis, Debye):
    X=            -40.6390    Y=              4.5172    Z=              0.3643  Tot=             40.8909
 Quadrupole moment (field-independent basis, Debye-Ang):
   XX=            274.0028   YY=            -49.1687   ZZ=            -97.3476
   XY=            -36.6376   XZ=              4.3884   YZ=              0.2299
 Traceless Quadrupole moment (field-independent basis, Debye-Ang):
   XX=            231.5073   YY=            -91.6642   ZZ=           -139.8431
   XY=            -36.6376   XZ=              4.3884   YZ=              0.2299
 Octapole moment (field-independent basis, Debye-Ang**2):
  XXX=          -1133.5080  YYY=           -177.8013  ZZZ=            -23.1781  XYY=            413.6604
  XXY=            241.5785  XXZ=           -107.4507  XZZ=            822.3038  YZZ=           -111.5228
  YYZ=             -1.8586  XYZ=             -4.2804
 Hexadecapole moment (field-independent basis, Debye-Ang**3):
 XXXX=          -6458.0958 YYYY=          -3831.6705 ZZZZ=           -244.4290 XXXY=          -1157.2788
 XXXZ=           1486.1885 YYYX=           1398.5441 YYYZ=            -34.9886 ZZZX=             96.0505
 ZZZY=            -50.0269 XXYY=          -4363.0157 XXZZ=          -7160.1690 YYZZ=           -955.3639
 XXYZ=             57.3011 YYXZ=             45.7218 ZZXY=            879.7234
 N-N= 1.133406615178D+03 E-N=-3.848423510867D+03  KE= 6.848119889068D+02

 Atomic contributions to Alpha molecular orbitals:
 Alpha occ 40 OE=-0.530 is C22-p=0.1460 C24-p=0.1434 C23-p=0.1433 C29-p=0.1391 C25-p=0.1331 C27-p=0.1330
 Alpha occ 41 OE=-0.527 is C4-p=0.1158 C5-p=0.1158
 Alpha occ 42 OE=-0.523 is C5-p=0.1270 C4-p=0.1270 C1-p=0.1041 C2-p=0.1039
 Alpha occ 43 OE=-0.522 is C3-p=0.1720 H8-s=0.1717 H11-s=0.1714 C6-p=0.1713
 Alpha occ 44 OE=-0.507 is C22-p=0.0958
 Alpha occ 45 OE=-0.503 is C23-p=0.1549 C24-p=0.1549 C25-p=0.1219 C27-p=0.1219
 Alpha occ 46 OE=-0.481 is C14-p=0.1892 C18-p=0.1576 H17-s=0.1104
 Alpha occ 47 OE=-0.480 is C18-p=0.1598 C14-p=0.1280
 Alpha occ 48 OE=-0.474 is C18-p=0.1648 C14-p=0.1642 H20-s=0.1026 H16-s=0.1024
 Alpha occ 49 OE=-0.455 is C22-p=0.1691 C23-p=0.1123 C24-p=0.1123
 Alpha occ 50 OE=-0.444 is H9-s=0.1522 H10-s=0.1521 C5-p=0.1419 C4-p=0.1419 C6-p=0.1040 C3-p=0.1040
 Alpha occ 51 OE=-0.440 is H32-s=0.1646 C29-p=0.1357 C24-p=0.1072 C23-p=0.1072 C27-p=0.1037 C25-p=0.1037
 Alpha occ 52 OE=-0.432 is C5-p=0.1341 C4-p=0.1341 H11-s=0.1094 H8-s=0.1093
 Alpha occ 53 OE=-0.426 is C4-p=0.0843
 Alpha occ 54 OE=-0.417 is C29-p=0.0934
 Alpha occ 55 OE=-0.393 is N13-p=0.2035 N12-p=0.2033
 Alpha occ 56 OE=-0.359 is C29-p=0.2045 C22-p=0.1944
 Alpha occ 57 OE=-0.341 is C23-p=0.2530 C24-p=0.2530 C25-p=0.2294 C27-p=0.2294
 Alpha occ 58 OE=-0.318 is C3-p=0.2718 C6-p=0.2717
 Alpha occ 59 OE=-0.310 is C4-p=0.1321 C5-p=0.1314 C1-p=0.1288 C2-p=0.1285 C29-p=0.1019
 Alpha vir 60 OE=-0.158 is C7-p=0.2155 C29-p=0.1437
 Alpha vir 61 OE=-0.090 is C25-p=0.2467 C27-p=0.2465 C24-p=0.2138 C23-p=0.2136
 Alpha vir 62 OE=-0.085 is C6-p=0.2172 C3-p=0.2172
 Alpha vir 63 OE=-0.073 is C5-p=0.2427 C4-p=0.2421 C2-p=0.1899 C1-p=0.1894
 Alpha vir 64 OE=-0.053 is C7-p=0.2198 C22-p=0.1242 C29-p=0.1097
 Alpha vir 65 OE=-0.009 is H26-s=0.1923 H28-s=0.1921 H16-s=0.1357 H20-s=0.1353
 Alpha vir 66 OE=0.009 is H16-s=0.2136 H20-s=0.1985 H28-s=0.1223 H15-s=0.1167 H26-s=0.1020 H8-s=0.1010
 Alpha vir 67 OE=0.009 is H11-s=0.1941 H9-s=0.1791 H10-s=0.1786 H8-s=0.1514
 Alpha vir 68 OE=0.027 is H32-s=0.2242 H30-s=0.1357 H31-s=0.1341 H10-s=0.1153 H9-s=0.1150
 Alpha vir 69 OE=0.038 is H11-s=0.1893 H8-s=0.1852 H28-s=0.1172 H26-s=0.1165
 Alpha vir 70 OE=0.039 is H17-s=0.2458 H21-s=0.2390
 Alpha vir 71 OE=0.041 is H30-s=0.1430 H31-s=0.1429 C7-p=0.1281
 Alpha vir 72 OE=0.050 is H17-s=0.2199 H21-s=0.2179
 Alpha vir 73 OE=0.052 is C14-p=0.1479 C18-p=0.1472
 Alpha vir 74 OE=0.054 is H32-s=0.1077
 Alpha vir 75 OE=0.066 is H15-s=0.1417 H10-s=0.1393 H19-s=0.1387 H9-s=0.1369
 Alpha vir 76 OE=0.072 is H31-s=0.2409 H30-s=0.2408 H16-s=0.1504 H20-s=0.1477
 Alpha vir 77 OE=0.078 is H32-s=0.1393 C5-p=0.1044 C4-p=0.1044 C6-p=0.1024 C3-p=0.1022
 Alpha vir 78 OE=0.082 is H32-s=0.3174 H31-s=0.1262 H30-s=0.1233
 Alpha vir 79 OE=0.090 is H8-s=0.2250 H11-s=0.2208 H9-s=0.1328 H10-s=0.1223

 Atomic contributions to Beta  molecular orbitals:
 Beta  occ 40 OE=-0.530 is C22-p=0.1460 C24-p=0.1434 C23-p=0.1433 C29-p=0.1391 C25-p=0.1331 C27-p=0.1330
 Beta  occ 41 OE=-0.527 is C4-p=0.1158 C5-p=0.1158
 Beta  occ 42 OE=-0.523 is C5-p=0.1270 C4-p=0.1270 C1-p=0.1041 C2-p=0.1039
 Beta  occ 43 OE=-0.522 is C3-p=0.1720 H8-s=0.1717 H11-s=0.1714 C6-p=0.1713
 Beta  occ 44 OE=-0.507 is C22-p=0.0958
 Beta  occ 45 OE=-0.503 is C23-p=0.1549 C24-p=0.1549 C25-p=0.1219 C27-p=0.1219
 Beta  occ 46 OE=-0.481 is C14-p=0.1892 C18-p=0.1576 H17-s=0.1104
 Beta  occ 47 OE=-0.480 is C18-p=0.1598 C14-p=0.1280
 Beta  occ 48 OE=-0.474 is C18-p=0.1648 C14-p=0.1642 H20-s=0.1026 H16-s=0.1024
 Beta  occ 49 OE=-0.455 is C22-p=0.1691 C23-p=0.1123 C24-p=0.1123
 Beta  occ 50 OE=-0.444 is H9-s=0.1522 H10-s=0.1521 C5-p=0.1419 C4-p=0.1419 C6-p=0.1040 C3-p=0.1040
 Beta  occ 51 OE=-0.440 is H32-s=0.1646 C29-p=0.1357 C24-p=0.1072 C23-p=0.1072 C27-p=0.1037 C25-p=0.1037
 Beta  occ 52 OE=-0.432 is C5-p=0.1341 C4-p=0.1341 H11-s=0.1094 H8-s=0.1093
 Beta  occ 53 OE=-0.426 is C4-p=0.0843
 Beta  occ 54 OE=-0.417 is C29-p=0.0934
 Beta  occ 55 OE=-0.393 is N13-p=0.2035 N12-p=0.2033
 Beta  occ 56 OE=-0.359 is C29-p=0.2045 C22-p=0.1944
 Beta  occ 57 OE=-0.341 is C23-p=0.2530 C24-p=0.2530 C25-p=0.2294 C27-p=0.2294
 Beta  occ 58 OE=-0.318 is C3-p=0.2718 C6-p=0.2717
 Beta  occ 59 OE=-0.310 is C4-p=0.1321 C5-p=0.1314 C1-p=0.1288 C2-p=0.1285 C29-p=0.1019
 Beta  vir 60 OE=-0.158 is C7-p=0.2155 C29-p=0.1437
 Beta  vir 61 OE=-0.090 is C25-p=0.2467 C27-p=0.2465 C24-p=0.2138 C23-p=0.2136
 Beta  vir 62 OE=-0.085 is C6-p=0.2172 C3-p=0.2172
 Beta  vir 63 OE=-0.073 is C5-p=0.2427 C4-p=0.2421 C2-p=0.1899 C1-p=0.1894
 Beta  vir 64 OE=-0.053 is C7-p=0.2198 C22-p=0.1242 C29-p=0.1097
 Beta  vir 65 OE=-0.009 is H26-s=0.1923 H28-s=0.1921 H16-s=0.1357 H20-s=0.1353
 Beta  vir 66 OE=0.009 is H16-s=0.2136 H20-s=0.1985 H28-s=0.1223 H15-s=0.1167 H26-s=0.1020 H8-s=0.1010
 Beta  vir 67 OE=0.009 is H11-s=0.1941 H9-s=0.1791 H10-s=0.1786 H8-s=0.1514
 Beta  vir 68 OE=0.027 is H32-s=0.2242 H30-s=0.1357 H31-s=0.1341 H10-s=0.1153 H9-s=0.1150
 Beta  vir 69 OE=0.038 is H11-s=0.1893 H8-s=0.1852 H28-s=0.1172 H26-s=0.1165
 Beta  vir 70 OE=0.039 is H17-s=0.2458 H21-s=0.2390
 Beta  vir 71 OE=0.041 is H30-s=0.1430 H31-s=0.1429 C7-p=0.1281
 Beta  vir 72 OE=0.050 is H17-s=0.2199 H21-s=0.2179
 Beta  vir 73 OE=0.052 is C14-p=0.1479 C18-p=0.1472
 Beta  vir 74 OE=0.054 is H32-s=0.1077
 Beta  vir 75 OE=0.066 is H15-s=0.1417 H10-s=0.1393 H19-s=0.1387 H9-s=0.1369
 Beta  vir 76 OE=0.072 is H31-s=0.2409 H30-s=0.2408 H16-s=0.1504 H20-s=0.1477
 Beta  vir 77 OE=0.078 is H32-s=0.1393 C5-p=0.1044 C4-p=0.1044 C6-p=0.1024 C3-p=0.1022
 Beta  vir 78 OE=0.082 is H32-s=0.3174 H31-s=0.1262 H30-s=0.1233
 Beta  vir 79 OE=0.090 is H8-s=0.2250 H11-s=0.2208 H9-s=0.1328 H10-s=0.1223
 
                          Isotropic Fermi Contact Couplings
        Atom                 a.u.       MegaHertz       Gauss      10(-4) cm-1
     1  C(13)             -0.00000      -0.00008      -0.00003      -0.00003
     2  C(13)             -0.00000      -0.00009      -0.00003      -0.00003
     3  C(13)              0.00000       0.00017       0.00006       0.00006
     4  C(13)             -0.00000      -0.00006      -0.00002      -0.00002
     5  C(13)             -0.00000      -0.00005      -0.00002      -0.00002
     6  C(13)              0.00000       0.00015       0.00006       0.00005
     7  C(13)             -0.00000      -0.00021      -0.00007      -0.00007
     8  H(1)              -0.00000      -0.00010      -0.00004      -0.00003
     9  H(1)               0.00000       0.00003       0.00001       0.00001
    10  H(1)               0.00000       0.00002       0.00001       0.00001
    11  H(1)              -0.00000      -0.00010      -0.00003      -0.00003
    12  N(14)              0.00000       0.00004       0.00001       0.00001
    13  N(14)              0.00000       0.00004       0.00001       0.00001
    14  C(13)             -0.00000      -0.00009      -0.00003      -0.00003
    15  H(1)               0.00000       0.00007       0.00003       0.00002
    16  H(1)               0.00000       0.00008       0.00003       0.00003
    17  H(1)               0.00000       0.00008       0.00003       0.00003
    18  C(13)             -0.00000      -0.00009      -0.00003      -0.00003
    19  H(1)               0.00000       0.00007       0.00003       0.00002
    20  H(1)               0.00000       0.00008       0.00003       0.00003
    21  H(1)               0.00000       0.00008       0.00003       0.00003
    22  C(13)              0.00000       0.00006       0.00002       0.00002
    23  C(13)              0.00000       0.00002       0.00001       0.00001
    24  C(13)              0.00000       0.00002       0.00001       0.00001
    25  C(13)             -0.00000      -0.00007      -0.00002      -0.00002
    26  H(1)               0.00000       0.00000       0.00000       0.00000
    27  C(13)             -0.00000      -0.00007      -0.00002      -0.00002
    28  H(1)               0.00000       0.00000       0.00000       0.00000
    29  C(13)              0.00000       0.00008       0.00003       0.00003
    30  H(1)               0.00000       0.00007       0.00002       0.00002
    31  H(1)               0.00000       0.00007       0.00002       0.00002
    32  H(1)              -0.00000      -0.00005      -0.00002      -0.00002
 --------------------------------------------------------
       Center         ----  Spin Dipole Couplings  ----
                      3XX-RR        3YY-RR        3ZZ-RR
 --------------------------------------------------------
     1   Atom        0.000000      0.000000     -0.000000
     2   Atom        0.000000      0.000000     -0.000000
     3   Atom       -0.000000     -0.000000      0.000000
     4   Atom        0.000000      0.000000     -0.000000
     5   Atom        0.000000      0.000000     -0.000000
     6   Atom       -0.000000     -0.000000      0.000000
     7   Atom        0.000000      0.000000     -0.000001
     8   Atom        0.000000     -0.000000     -0.000000
     9   Atom       -0.000000     -0.000000      0.000000
    10   Atom        0.000000     -0.000000      0.000000
    11   Atom        0.000000     -0.000000     -0.000000
    12   Atom       -0.000000     -0.000000      0.000000
    13   Atom       -0.000000     -0.000000      0.000000
    14   Atom        0.000000     -0.000000     -0.000000
    15   Atom       -0.000000     -0.000000      0.000000
    16   Atom        0.000000      0.000000     -0.000000
    17   Atom        0.000000     -0.000000      0.000000
    18   Atom        0.000000     -0.000000     -0.000000
    19   Atom        0.000000     -0.000000      0.000000
    20   Atom        0.000000      0.000000     -0.000000
    21   Atom        0.000000     -0.000000      0.000000
    22   Atom       -0.000000      0.000000      0.000000
    23   Atom        0.000000     -0.000000      0.000000
    24   Atom        0.000000     -0.000000      0.000000
    25   Atom       -0.000000      0.000000     -0.000000
    26   Atom        0.000000     -0.000000      0.000000
    27   Atom       -0.000000      0.000000     -0.000000
    28   Atom        0.000000     -0.000000      0.000000
    29   Atom        0.000000     -0.000000      0.000000
    30   Atom       -0.000000      0.000000     -0.000000
    31   Atom       -0.000000      0.000000     -0.000000
    32   Atom       -0.000000      0.000000     -0.000000
 --------------------------------------------------------
                        XY            XZ            YZ
 --------------------------------------------------------
     1   Atom        0.000000      0.000000      0.000000
     2   Atom       -0.000000      0.000000     -0.000000
     3   Atom        0.000000     -0.000000      0.000000
     4   Atom        0.000000      0.000000     -0.000000
     5   Atom       -0.000000      0.000000     -0.000000
     6   Atom       -0.000000     -0.000000     -0.000000
     7   Atom        0.000000      0.000000     -0.000000
     8   Atom       -0.000000      0.000000     -0.000000
     9   Atom       -0.000000     -0.000000     -0.000000
    10   Atom        0.000000     -0.000000      0.000000
    11   Atom       -0.000000      0.000000     -0.000000
    12   Atom        0.000000     -0.000000     -0.000000
    13   Atom       -0.000000     -0.000000      0.000000
    14   Atom       -0.000000     -0.000000      0.000000
    15   Atom       -0.000000      0.000000      0.000000
    16   Atom        0.000000     -0.000000      0.000000
    17   Atom        0.000000      0.000000     -0.000000
    18   Atom        0.000000     -0.000000     -0.000000
    19   Atom        0.000000      0.000000     -0.000000
    20   Atom        0.000000     -0.000000     -0.000000
    21   Atom       -0.000000      0.000000      0.000000
    22   Atom        0.000000      0.000000     -0.000000
    23   Atom        0.000000     -0.000000      0.000000
    24   Atom       -0.000000     -0.000000      0.000000
    25   Atom        0.000000      0.000000      0.000000
    26   Atom        0.000000     -0.000000      0.000000
    27   Atom       -0.000000      0.000000     -0.000000
    28   Atom       -0.000000     -0.000000     -0.000000
    29   Atom       -0.000000     -0.000000      0.000000
    30   Atom        0.000000     -0.000000      0.000000
    31   Atom       -0.000000     -0.000000     -0.000000
    32   Atom        0.000000     -0.000000      0.000000
 --------------------------------------------------------


 ---------------------------------------------------------------------------------
              Anisotropic Spin Dipole Couplings in Principal Axis System
 ---------------------------------------------------------------------------------

       Atom             a.u.   MegaHertz   Gauss  10(-4) cm-1        Axes

              Baa    -0.0000    -0.000    -0.000    -0.000 -0.3015 -0.0595  0.9516
     1 C(13)  Bbb     0.0000     0.000     0.000     0.000 -0.5047  0.8567 -0.1064
              Bcc     0.0000     0.000     0.000     0.000  0.8089  0.5123  0.2883
 
              Baa    -0.0000    -0.000    -0.000    -0.000 -0.2625  0.0677  0.9626
     2 C(13)  Bbb     0.0000     0.000     0.000     0.000  0.6976  0.7025  0.1408
              Bcc     0.0000     0.000     0.000     0.000 -0.6666  0.7085 -0.2317
 
              Baa    -0.0000    -0.000    -0.000    -0.000 -0.2537  0.9647 -0.0702
     3 C(13)  Bbb    -0.0000    -0.000    -0.000    -0.000  0.9436  0.2628  0.2014
              Bcc     0.0000     0.000     0.000     0.000 -0.2128  0.0152  0.9770
 
              Baa    -0.0000    -0.000    -0.000    -0.000 -0.1950  0.0120  0.9807
     4 C(13)  Bbb     0.0000     0.000     0.000     0.000 -0.1075  0.9936 -0.0335
              Bcc     0.0000     0.000     0.000     0.000  0.9749  0.1119  0.1925
 
              Baa    -0.0000    -0.000    -0.000    -0.000 -0.1996 -0.0096  0.9798
     5 C(13)  Bbb    -0.0000    -0.000    -0.000    -0.000  0.3317  0.9402  0.0768
              Bcc     0.0000     0.000     0.000     0.000  0.9220 -0.3404  0.1844
 
              Baa    -0.0000    -0.000    -0.000    -0.000  0.4558  0.8841  0.1030
     6 C(13)  Bbb    -0.0000    -0.000    -0.000    -0.000  0.8635 -0.4673  0.1897
              Bcc     0.0000     0.000     0.000     0.000 -0.2159 -0.0025  0.9764
 
              Baa    -0.0000    -0.000    -0.000    -0.000 -0.2114  0.0064  0.9774
     7 C(13)  Bbb     0.0000     0.000     0.000     0.000  0.9729 -0.0940  0.2110
              Bcc     0.0000     0.000     0.000     0.000  0.0932  0.9956  0.0136
 
              Baa    -0.0000    -0.000    -0.000    -0.000  0.1166  0.9932 -0.0052
     8 H(1)   Bbb    -0.0000    -0.000    -0.000    -0.000 -0.2196  0.0309  0.9751
              Bcc     0.0000     0.000     0.000     0.000  0.9686 -0.1125  0.2218
 
              Baa    -0.0000    -0.000    -0.000    -0.000  0.7065  0.6962  0.1267
     9 H(1)   Bbb     0.0000     0.000     0.000     0.000 -0.1851  0.0090  0.9827
              Bcc     0.0000     0.000     0.000     0.000 -0.6830  0.7178 -0.1353
 
              Baa    -0.0000    -0.000    -0.000    -0.000 -0.5907  0.7994 -0.1099
    10 H(1)   Bbb     0.0000     0.000     0.000     0.000 -0.1808  0.0016  0.9835
              Bcc     0.0000     0.000     0.000     0.000  0.7864  0.6008  0.1436
 
              Baa    -0.0000    -0.000    -0.000    -0.000  0.0817  0.9959  0.0399
    11 H(1)   Bbb    -0.0000    -0.000    -0.000    -0.000 -0.2257 -0.0205  0.9740
              Bcc     0.0000     0.000     0.000     0.000  0.9708 -0.0886  0.2231
 
              Baa    -0.0000    -0.000    -0.000    -0.000  0.8182 -0.5745  0.0213
    12 N(14)  Bbb    -0.0000    -0.000    -0.000    -0.000  0.5683  0.8139  0.1210
              Bcc     0.0000     0.000     0.000     0.000 -0.0868 -0.0869  0.9924
 
              Baa    -0.0000    -0.000    -0.000    -0.000  0.9091  0.4151  0.0347
    13 N(14)  Bbb    -0.0000    -0.000    -0.000    -0.000 -0.4103  0.9067 -0.0980
              Bcc     0.0000     0.000     0.000     0.000 -0.0721  0.0748  0.9946
 
              Baa    -0.0000    -0.000    -0.000    -0.000  0.3897  0.9155 -0.0999
    14 C(13)  Bbb    -0.0000    -0.000    -0.000    -0.000  0.2848 -0.0166  0.9585
              Bcc     0.0000     0.000     0.000     0.000  0.8758 -0.4020 -0.2672
 
              Baa    -0.0000    -0.000    -0.000    -0.000  0.6244  0.6257 -0.4676
    15 H(1)   Bbb     0.0000     0.000     0.000     0.000  0.4795  0.1655  0.8618
              Bcc     0.0000     0.000     0.000     0.000 -0.6166  0.7623  0.1967
 
              Baa    -0.0000    -0.000    -0.000    -0.000  0.4260 -0.1262  0.8959
    16 H(1)   Bbb     0.0000     0.000     0.000     0.000  0.6600  0.7206 -0.2124
              Bcc     0.0000     0.000     0.000     0.000 -0.6188  0.6818  0.3903
 
              Baa    -0.0000    -0.000    -0.000    -0.000 -0.0701  0.8296  0.5539
    17 H(1)   Bbb     0.0000     0.000     0.000     0.000  0.9708 -0.0710  0.2291
              Bcc     0.0000     0.000     0.000     0.000 -0.2294 -0.5538  0.8004
 
              Baa    -0.0000    -0.000    -0.000    -0.000 -0.1987  0.9720  0.1254
    18 C(13)  Bbb    -0.0000    -0.000    -0.000    -0.000  0.2698 -0.0688  0.9605
              Bcc     0.0000     0.000     0.000     0.000  0.9422  0.2247 -0.2486
 
              Baa    -0.0000    -0.000    -0.000    -0.000 -0.4861  0.7296  0.4811
    19 H(1)   Bbb     0.0000     0.000     0.000     0.000  0.4118 -0.2943  0.8624
              Bcc     0.0000     0.000     0.000     0.000  0.7708  0.6173 -0.1574
 
              Baa    -0.0000    -0.000    -0.000    -0.000  0.4394  0.0187  0.8981
    20 H(1)   Bbb     0.0000     0.000     0.000     0.000 -0.4925  0.8412  0.2235
              Bcc     0.0000     0.000     0.000     0.000  0.7513  0.5405 -0.3788
 
              Baa    -0.0000    -0.000    -0.000    -0.000  0.2388  0.8113 -0.5337
    21 H(1)   Bbb     0.0000     0.000     0.000     0.000  0.9653 -0.1385  0.2213
              Bcc     0.0000     0.000     0.000     0.000 -0.1056  0.5680  0.8162
 
              Baa    -0.0000    -0.000    -0.000    -0.000  0.9797 -0.0987 -0.1743
    22 C(13)  Bbb     0.0000     0.000     0.000     0.000  0.1721 -0.0308  0.9846
              Bcc     0.0000     0.000     0.000     0.000  0.1026  0.9946  0.0132
 
              Baa    -0.0000    -0.000    -0.000    -0.000  0.6125 -0.5924  0.5234
    23 C(13)  Bbb    -0.0000    -0.000    -0.000    -0.000  0.4459  0.8057  0.3900
              Bcc     0.0000     0.000     0.000     0.000 -0.6527 -0.0055  0.7576
 
              Baa    -0.0000    -0.000    -0.000    -0.000  0.7201  0.4362  0.5396
    24 C(13)  Bbb    -0.0000    -0.000    -0.000    -0.000 -0.2697  0.8925 -0.3616
              Bcc     0.0000     0.000     0.000     0.000 -0.6393  0.1148  0.7603
 
              Baa    -0.0000    -0.000    -0.000    -0.000 -0.6352  0.0346  0.7715
    25 C(13)  Bbb     0.0000     0.000     0.000     0.000  0.6590 -0.4967  0.5648
              Bcc     0.0000     0.000     0.000     0.000  0.4027  0.8672  0.2928
 
              Baa    -0.0000    -0.000    -0.000    -0.000 -0.2960  0.9261 -0.2337
    26 H(1)   Bbb     0.0000     0.000     0.000     0.000  0.9135  0.2029 -0.3527
              Bcc     0.0000     0.000     0.000     0.000  0.2792  0.3179  0.9061
 
              Baa    -0.0000    -0.000    -0.000    -0.000 -0.6312  0.0726  0.7722
    27 C(13)  Bbb     0.0000     0.000     0.000     0.000  0.7445  0.3357  0.5770
              Bcc     0.0000     0.000     0.000     0.000 -0.2173  0.9392 -0.2660
 
              Baa    -0.0000    -0.000    -0.000    -0.000  0.4744  0.8414  0.2589
    28 H(1)   Bbb     0.0000     0.000     0.000     0.000  0.8564 -0.3731 -0.3569
              Bcc     0.0000     0.000     0.000     0.000  0.2037 -0.3910  0.8976
 
              Baa    -0.0000    -0.000    -0.000    -0.000  0.7491 -0.0872  0.6567
    29 C(13)  Bbb    -0.0000    -0.000    -0.000    -0.000  0.1026  0.9946  0.0151
              Bcc     0.0000     0.000     0.000     0.000 -0.6545  0.0561  0.7540
 
              Baa    -0.0000    -0.000    -0.000    -0.000 -0.5838  0.6012 -0.5456
    30 H(1)   Bbb     0.0000     0.000     0.000     0.000 -0.6526  0.0524  0.7559
              Bcc     0.0000     0.000     0.000     0.000  0.4831  0.7974  0.3618
 
              Baa    -0.0000    -0.000    -0.000    -0.000  0.6918  0.4548  0.5609
    31 H(1)   Bbb     0.0000     0.000     0.000     0.000 -0.6519  0.0592  0.7560
              Bcc     0.0000     0.000     0.000     0.000 -0.3106  0.8886 -0.3375
 
              Baa    -0.0000    -0.000    -0.000    -0.000  0.7486 -0.0862  0.6574
    32 H(1)   Bbb    -0.0000    -0.000    -0.000    -0.000 -0.6551  0.0561  0.7534
              Bcc     0.0000     0.000     0.000     0.000  0.1018  0.9947  0.0145
 

 ---------------------------------------------------------------------------------

 No NMR shielding tensors so no spin-rotation constants.
 Leave Link  601 at Tue Mar 24 18:24:02 2026, MaxMem=  2684354560 cpu:               5.0 elap:               0.2
 (Enter /home/programes/qq/gaussian/g16.A03/g16/l9999.exe)
 1\1\GINC-MAGINET229\SP\UB3LYP\Gen\C15H15N2(1+)\SOLE\24-Mar-2026\0\\#p 
 b3lyp/gen EmpiricalDispersion=GD3BJ pseudo=read scrf=(solvent=n,n-DiMe
 thylFormamide,pcm,read) nosymm pop=(Orbitals=20) geom=checkpoint guess
 =read\\Title Card Required\\1,1\C,0,-8.9519779629,2.9260539517,-0.0373
 104221\C,0,-7.5755672677,2.7811099889,0.2474619144\C,0,-6.7480231559,3
 .8914104655,0.4063532407\C,0,-7.3382949798,5.1643272514,0.2762952559\C
 ,0,-8.7017925425,5.3077984234,0.0045763599\C,0,-9.5371429935,4.1851247
 28,-0.1610514826\C,0,-8.4838496099,0.6983354276,0.0724928555\H,0,-5.68
 78618798,3.7820583082,0.6357733376\H,0,-6.71503687,6.052569038,0.39563
 86382\H,0,-9.1320203056,6.3069125531,-0.0867743499\H,0,-10.5967562516,
 4.2995232242,-0.3905361794\N,0,-7.3051128386,1.4202977785,0.3066635588
 \N,0,-9.4916237178,1.6503136839,-0.1361656501\C,0,-5.9560169551,0.8883
 81977,0.2134240845\H,0,-5.3220493669,1.6156308907,-0.3137878803\H,0,-5
 .5194906189,0.694565384,1.2060264134\H,0,-5.9684319386,-0.0472702919,-
 0.3582728122\C,0,-10.9205606067,1.3984786491,-0.0569632848\H,0,-11.398
 4092427,2.2261160604,0.4864175306\H,0,-11.3814339824,1.3188066645,-1.0
 542493213\H,0,-11.0997509223,0.4666693169,0.492773124\C,0,-8.628207657
 6,-0.7124921201,0.0517154456\C,0,-7.7852768834,-1.5696198658,0.8365408
 102\C,0,-9.6249233867,-1.3578036156,-0.7553272673\C,0,-7.9336535887,-2
 .9486320167,0.805492196\H,0,-7.0440280095,-1.1321115469,1.5049485178\C
 ,0,-9.7590868421,-2.7385684816,-0.7649679103\H,0,-10.2602861394,-0.759
 8684594,-1.4083198821\C,0,-8.9197420674,-3.5601837798,0.00967017\H,0,-
 7.2795897579,-3.564559982,1.428419128\H,0,-10.5225636801,-3.1907708286
 ,-1.4035756859\H,0,-9.0308588878,-4.6454921466,-0.0063594229\\Version=
 ES64L-G16RevA.03\HF=-690.0771705\S2=0.\S2-1=0.\S2A=0.\RMSD=4.926e-09\D
 ipole=-0.0177288,-0.1449095,-0.0029662\Quadrupole=172.1200024,-68.1500
 71,-103.9699314,-27.2391509,3.2626933,0.1709163\PG=C01 [X(C15H15N2)]\\
 @


 MY DESCRIPTION OF EXPERIENCE IS NOT WHAT HAPPENS
 TO A MAN.  EXPERIENCE IS WHAT A MAN DOES WITH WHAT
 HAPPENS TO HIM.
                         - CHUCK KNOX, SEATTLE SEAHAWKS, 1985
 Job cpu time:       0 days  0 hours 20 minutes 53.6 seconds.
 Elapsed time:       0 days  0 hours  0 minutes 41.2 seconds.
 File lengths (MBytes):  RWF=    422 Int=      0 D2E=      0 Chk=     23 Scr=      1
 Normal termination of Gaussian 16 at Tue Mar 24 18:24:02 2026.
