 Set GAUSS_PDEF to "48".
 Set GAUSS_WDEF to "maginet239".
 Entering Gaussian System, Link 0=g16
 Initial command:
 /home/programes/qq/gaussian/g16.A03/g16/l1.exe "/scratch/108205/Gau-3544.inp" -scrdir="/scratch/108205/"
 Default linda workers: maginet239
 Default is to use  48 SMP processors on each worker.
 Entering Link 1 = /home/programes/qq/gaussian/g16.A03/g16/l1.exe PID=      3545.
  
 Copyright (c) 1988,1990,1992,1993,1995,1998,2003,2009,2016,
            Gaussian, Inc.  All Rights Reserved.
  
 This is part of the Gaussian(R) 16 program.  It is based on
 the Gaussian(R) 09 system (copyright 2009, Gaussian, Inc.),
 the Gaussian(R) 03 system (copyright 2003, Gaussian, Inc.),
 the Gaussian(R) 98 system (copyright 1998, Gaussian, Inc.),
 the Gaussian(R) 94 system (copyright 1995, Gaussian, Inc.),
 the Gaussian 92(TM) system (copyright 1992, Gaussian, Inc.),
 the Gaussian 90(TM) system (copyright 1990, Gaussian, Inc.),
 the Gaussian 88(TM) system (copyright 1988, Gaussian, Inc.),
 the Gaussian 86(TM) system (copyright 1986, Carnegie Mellon
 University), and the Gaussian 82(TM) system (copyright 1983,
 Carnegie Mellon University). Gaussian is a federally registered
 trademark of Gaussian, Inc.
  
 This software contains proprietary and confidential information,
 including trade secrets, belonging to Gaussian, Inc.
  
 This software is provided under written license and may be
 used, copied, transmitted, or stored only in accord with that
 written license.
  
 The following legend is applicable only to US Government
 contracts under FAR:
  
                    RESTRICTED RIGHTS LEGEND
  
 Use, reproduction and disclosure by the US Government is
 subject to restrictions as set forth in subparagraphs (a)
 and (c) of the Commercial Computer Software - Restricted
 Rights clause in FAR 52.227-19.
  
 Gaussian, Inc.
 340 Quinnipiac St., Bldg. 40, Wallingford CT 06492
  
  
 ---------------------------------------------------------------
 Warning -- This program may not be used in any manner that
 competes with the business of Gaussian, Inc. or will provide
 assistance to any competitor of Gaussian, Inc.  The licensee
 of this program is prohibited from giving any competitor of
 Gaussian, Inc. access to this program.  By using this program,
 the user acknowledges that Gaussian, Inc. is engaged in the
 business of creating and licensing software in the field of
 computational chemistry and represents and warrants to the
 licensee that it is not a competitor of Gaussian, Inc. and that
 it will not use this program in any manner prohibited above.
 ---------------------------------------------------------------
  

 Cite this work as:
 Gaussian 16, Revision A.03,
 M. J. Frisch, G. W. Trucks, H. B. Schlegel, G. E. Scuseria, 
 M. A. Robb, J. R. Cheeseman, G. Scalmani, V. Barone, 
 G. A. Petersson, H. Nakatsuji, X. Li, M. Caricato, A. V. Marenich, 
 J. Bloino, B. G. Janesko, R. Gomperts, B. Mennucci, H. P. Hratchian, 
 J. V. Ortiz, A. F. Izmaylov, J. L. Sonnenberg, D. Williams-Young, 
 F. Ding, F. Lipparini, F. Egidi, J. Goings, B. Peng, A. Petrone, 
 T. Henderson, D. Ranasinghe, V. G. Zakrzewski, J. Gao, N. Rega, 
 G. Zheng, W. Liang, M. Hada, M. Ehara, K. Toyota, R. Fukuda, 
 J. Hasegawa, M. Ishida, T. Nakajima, Y. Honda, O. Kitao, H. Nakai, 
 T. Vreven, K. Throssell, J. A. Montgomery, Jr., J. E. Peralta, 
 F. Ogliaro, M. J. Bearpark, J. J. Heyd, E. N. Brothers, K. N. Kudin, 
 V. N. Staroverov, T. A. Keith, R. Kobayashi, J. Normand, 
 K. Raghavachari, A. P. Rendell, J. C. Burant, S. S. Iyengar, 
 J. Tomasi, M. Cossi, J. M. Millam, M. Klene, C. Adamo, R. Cammi, 
 J. W. Ochterski, R. L. Martin, K. Morokuma, O. Farkas, 
 J. B. Foresman, and D. J. Fox, Gaussian, Inc., Wallingford CT, 2016.
 
 ******************************************
 Gaussian 16:  ES64L-G16RevA.03 25-Dec-2016
                24-Mar-2026 
 ******************************************
 %mem=20GB
 %chk=bi_cat_eq.chk
 SetLPE:    new flags="-opt 'Tsnet.Node.lindarsharg: ssh'  -nodelist 'maginet239' -env GAUSS_MDEF=2684354560 -env GAUSS_EXEDIR="/home/programes/qq/gaussian/g16.A03/g16/bsd:/home/programes/qq/gaussian/g16.A03/g16""
 Will use up to    1 processors via Linda.
 ----------------------------------------------------------------------
 #p b3lyp/gen EmpiricalDispersion=GD3BJ pseudo=read scrf=(solvent=n,n-D
 iMethylFormamide,pcm,read) nosymm pop=(Orbitals=20) geom=checkpoint gu
 ess=read
 ----------------------------------------------------------------------
 1/29=2,38=1,40=2,172=1/1;
 2/12=2,15=1,40=1/2;
 3/5=7,11=2,14=-4,16=1,17=8,25=1,30=1,70=2203,72=148,74=-5,116=-2,124=41/1,2,3;
 4/5=1/1;
 5/5=2,38=6,53=148/2;
 6/7=2,8=2,9=2,10=2,28=1,96=20/1;
 99/5=1,9=1/99;
 Leave Link    1 at Tue Mar 24 18:20:55 2026, MaxMem=  2684354560 cpu:               1.7 elap:               0.0
 (Enter /home/programes/qq/gaussian/g16.A03/g16/l101.exe)
 -------------------
 Title Card Required
 -------------------
 Structure from the checkpoint file:  "bi_cat_eq.chk"
 Charge =  1 Multiplicity = 1
 Redundant internal coordinates found in file.  (old form).
 C,0,-8.9632962202,2.926586,0.0819658684
 C,0,-7.5658067676,2.7844898648,0.1246662269
 C,0,-6.714343982,3.8914340256,0.162933649
 C,0,-7.323877553,5.1449484776,0.1565753046
 C,0,-8.7272663072,5.287602867,0.1144640214
 C,0,-9.5755780734,4.1822914931,0.076015462
 C,0,-8.4779767845,0.7451794627,0.073751281
 H,0,-5.6311675441,3.7821229287,0.1995619291
 H,0,-6.6996048811,6.0388382203,0.1861287348
 H,0,-9.1596006942,6.2889323243,0.110530076
 H,0,-10.6586224451,4.2928372478,0.0392747691
 N,0,-7.3043685071,1.4149895925,0.1131366564
 N,0,-9.4935524594,1.6373373601,0.0568572411
 C,0,-5.96317964,0.8361914374,0.0713458408
 H,0,-5.3761071179,1.3649707077,-0.6905405343
 H,0,-5.4791242352,0.9425831058,1.0515721855
 H,0,-6.0353329637,-0.2225224278,-0.1948418381
 C,0,-10.9233790016,1.3367310328,0.0854684229
 H,0,-11.3987210553,1.9672303318,0.8475618843
 H,0,-11.369910548,1.5430410761,-0.8965733359
 H,0,-11.0651835561,0.283044525,0.3436879745
 C,0,-8.6264283482,-0.7138765731,0.0528355307
 C,0,-8.0615263429,-1.491212321,1.0785623289
 C,0,-9.334004331,-1.3318527503,-0.9926871992
 C,0,-8.209087048,-2.877957837,1.0560381495
 H,0,-7.5267655685,-1.0093794387,1.8980248308
 C,0,-9.4716711822,-2.719690718,-1.0082338843
 H,0,-9.756549924,-0.7297415378,-1.7980310852
 C,0,-8.911919542,-3.4921454047,0.0145052916
 H,0,-7.7769116614,-3.4795595417,1.8568704229
 H,0,-10.0147727275,-3.1986677167,-1.8241209897
 H,0,-9.0237838979,-4.5776651843,-0.0002841858
 Recover connectivity data from disk.
 ITRead=  0  0  0  0  0  0  0  0  0  0  0  0  0  0  0  0  0  0  0  0
 ITRead=  0  0  0  0  0  0  0  0  0  0  0  0
 MicOpt= -1 -1 -1 -1 -1 -1 -1 -1 -1 -1 -1 -1 -1 -1 -1 -1 -1 -1 -1 -1
 MicOpt= -1 -1 -1 -1 -1 -1 -1 -1 -1 -1 -1 -1
                           ----------------------------
                           !    Current Parameters    !
                           ! (Angstroms and Degrees)  !
 --------------------------                            --------------------------
 ! Name  Definition              Value                                          !
 --------------------------------------------------------------------------------
 ! R1    R(1,2)                  1.4053                                         !
 ! R2    R(1,6)                  1.397                                          !
 ! R3    R(1,13)                 1.3943                                         !
 ! R4    R(2,3)                  1.3971                                         !
 ! R5    R(2,12)                 1.3943                                         !
 ! R6    R(3,4)                  1.3939                                         !
 ! R7    R(3,8)                  1.0893                                         !
 ! R8    R(4,5)                  1.4112                                         !
 ! R9    R(4,9)                  1.0907                                         !
 ! R10   R(5,6)                  1.3939                                         !
 ! R11   R(5,10)                 1.0907                                         !
 ! R12   R(6,11)                 1.0893                                         !
 ! R13   R(7,12)                 1.3519                                         !
 ! R14   R(7,13)                 1.3519                                         !
 ! R15   R(7,22)                 1.4667                                         !
 ! R16   R(12,14)                1.4613                                         !
 ! R17   R(13,18)                1.4614                                         !
 ! R18   R(14,15)                1.0976                                         !
 ! R19   R(14,16)                1.0984                                         !
 ! R20   R(14,17)                1.094                                          !
 ! R21   R(18,19)                1.0974                                         !
 ! R22   R(18,20)                1.0983                                         !
 ! R23   R(18,21)                1.0941                                         !
 ! R24   R(22,23)                1.4055                                         !
 ! R25   R(22,24)                1.4056                                         !
 ! R26   R(23,25)                1.3948                                         !
 ! R27   R(23,26)                1.0907                                         !
 ! R28   R(24,27)                1.3947                                         !
 ! R29   R(24,28)                1.0907                                         !
 ! R30   R(25,29)                1.3986                                         !
 ! R31   R(25,30)                1.0909                                         !
 ! R32   R(27,29)                1.3986                                         !
 ! R33   R(27,31)                1.0909                                         !
 ! R34   R(29,32)                1.0914                                         !
 ! A1    A(2,1,6)              121.7917                                         !
 ! A2    A(2,1,13)             106.5731                                         !
 ! A3    A(6,1,13)             131.6346                                         !
 ! A4    A(1,2,3)              121.7881                                         !
 ! A5    A(1,2,12)             106.5901                                         !
 ! A6    A(3,2,12)             131.6212                                         !
 ! A7    A(2,3,4)              116.4817                                         !
 ! A8    A(2,3,8)              121.8336                                         !
 ! A9    A(4,3,8)              121.6844                                         !
 ! A10   A(3,4,5)              121.729                                          !
 ! A11   A(3,4,9)              119.1185                                         !
 ! A12   A(5,4,9)              119.1525                                         !
 ! A13   A(4,5,6)              121.7278                                         !
 ! A14   A(4,5,10)             119.1496                                         !
 ! A15   A(6,5,10)             119.1226                                         !
 ! A16   A(1,6,5)              116.4817                                         !
 ! A17   A(1,6,11)             121.811                                          !
 ! A18   A(5,6,11)             121.7069                                         !
 ! A19   A(12,7,13)            108.9991                                         !
 ! A20   A(12,7,22)            125.5319                                         !
 ! A21   A(13,7,22)            125.4691                                         !
 ! A22   A(2,12,7)             108.9124                                         !
 ! A23   A(2,12,14)            124.1498                                         !
 ! A24   A(7,12,14)            126.8469                                         !
 ! A25   A(1,13,7)             108.9232                                         !
 ! A26   A(1,13,18)            124.1916                                         !
 ! A27   A(7,13,18)            126.7995                                         !
 ! A28   A(12,14,15)           108.6586                                         !
 ! A29   A(12,14,16)           109.9117                                         !
 ! A30   A(12,14,17)           109.2512                                         !
 ! A31   A(15,14,16)           109.6992                                         !
 ! A32   A(15,14,17)           109.4259                                         !
 ! A33   A(16,14,17)           109.8724                                         !
 ! A34   A(13,18,19)           108.6158                                         !
 ! A35   A(13,18,20)           109.9763                                         !
 ! A36   A(13,18,21)           109.2407                                         !
 ! A37   A(19,18,20)           109.6883                                         !
 ! A38   A(19,18,21)           109.4682                                         !
 ! A39   A(20,18,21)           109.8299                                         !
 ! A40   A(7,22,23)            119.939                                          !
 ! A41   A(7,22,24)            119.928                                          !
 ! A42   A(23,22,24)           120.133                                          !
 ! A43   A(22,23,25)           119.7078                                         !
 ! A44   A(22,23,26)           120.0682                                         !
 ! A45   A(25,23,26)           120.2137                                         !
 ! A46   A(22,24,27)           119.7002                                         !
 ! A47   A(22,24,28)           120.1015                                         !
 ! A48   A(27,24,28)           120.1877                                         !
 ! A49   A(23,25,29)           120.1209                                         !
 ! A50   A(23,25,30)           119.6397                                         !
 ! A51   A(29,25,30)           120.239                                          !
 ! A52   A(24,27,29)           120.1277                                         !
 ! A53   A(24,27,31)           119.6284                                         !
 ! A54   A(29,27,31)           120.2434                                         !
 ! A55   A(25,29,27)           120.2098                                         !
 ! A56   A(25,29,32)           119.8944                                         !
 ! A57   A(27,29,32)           119.8958                                         !
 ! D1    D(6,1,2,3)             -0.0245                                         !
 ! D2    D(6,1,2,12)          -179.7788                                         !
 ! D3    D(13,1,2,3)          -179.7909                                         !
 ! D4    D(13,1,2,12)            0.4548                                         !
 ! D5    D(2,1,6,5)              0.0096                                         !
 ! D6    D(2,1,6,11)           179.774                                          !
 ! D7    D(13,1,6,5)           179.71                                           !
 ! D8    D(13,1,6,11)           -0.5256                                         !
 ! D9    D(2,1,13,7)            -0.3988                                         !
 ! D10   D(2,1,13,18)          176.4324                                         !
 ! D11   D(6,1,13,7)           179.8669                                         !
 ! D12   D(6,1,13,18)           -3.302                                          !
 ! D13   D(1,2,3,4)              0.0016                                         !
 ! D14   D(1,2,3,8)            179.782                                          !
 ! D15   D(12,2,3,4)           179.6866                                         !
 ! D16   D(12,2,3,8)            -0.533                                          !
 ! D17   D(1,2,12,7)            -0.3557                                         !
 ! D18   D(1,2,12,14)          176.3831                                         !
 ! D19   D(3,2,12,7)           179.9237                                         !
 ! D20   D(3,2,12,14)           -3.3375                                         !
 ! D21   D(2,3,4,5)              0.0351                                         !
 ! D22   D(2,3,4,9)            179.9609                                         !
 ! D23   D(8,3,4,5)           -179.7456                                         !
 ! D24   D(8,3,4,9)              0.1802                                         !
 ! D25   D(3,4,5,6)             -0.0513                                         !
 ! D26   D(3,4,5,10)          -179.9671                                         !
 ! D27   D(9,4,5,6)           -179.9771                                         !
 ! D28   D(9,4,5,10)             0.1071                                         !
 ! D29   D(4,5,6,1)              0.0271                                         !
 ! D30   D(4,5,6,11)          -179.7376                                         !
 ! D31   D(10,5,6,1)           179.9429                                         !
 ! D32   D(10,5,6,11)            0.1782                                         !
 ! D33   D(13,7,12,2)            0.1115                                         !
 ! D34   D(13,7,12,14)        -176.5158                                         !
 ! D35   D(22,7,12,2)         -179.883                                          !
 ! D36   D(22,7,12,14)           3.4898                                         !
 ! D37   D(12,7,13,1)            0.1827                                         !
 ! D38   D(12,7,13,18)        -176.5437                                         !
 ! D39   D(22,7,13,1)         -179.8228                                         !
 ! D40   D(22,7,13,18)           3.4507                                         !
 ! D41   D(12,7,22,23)          56.7944                                         !
 ! D42   D(12,7,22,24)        -123.2389                                         !
 ! D43   D(13,7,22,23)        -123.1992                                         !
 ! D44   D(13,7,22,24)          56.7675                                         !
 ! D45   D(2,12,14,15)         -45.787                                          !
 ! D46   D(2,12,14,16)          74.2606                                         !
 ! D47   D(2,12,14,17)        -165.1117                                         !
 ! D48   D(7,12,14,15)         130.3569                                         !
 ! D49   D(7,12,14,16)        -109.5956                                         !
 ! D50   D(7,12,14,17)          11.0322                                         !
 ! D51   D(1,13,18,19)         -44.5704                                         !
 ! D52   D(1,13,18,20)          75.4762                                         !
 ! D53   D(1,13,18,21)        -163.9149                                         !
 ! D54   D(7,13,18,19)         131.6853                                         !
 ! D55   D(7,13,18,20)        -108.268                                          !
 ! D56   D(7,13,18,21)          12.3409                                         !
 ! D57   D(7,22,23,25)         179.8068                                         !
 ! D58   D(7,22,23,26)           0.9734                                         !
 ! D59   D(24,22,23,25)         -0.1598                                         !
 ! D60   D(24,22,23,26)       -178.9933                                         !
 ! D61   D(7,22,24,27)         179.9666                                         !
 ! D62   D(7,22,24,28)           1.1516                                         !
 ! D63   D(23,22,24,27)         -0.0668                                         !
 ! D64   D(23,22,24,28)       -178.8817                                         !
 ! D65   D(22,23,25,29)          0.2363                                         !
 ! D66   D(22,23,25,30)       -179.5206                                         !
 ! D67   D(26,23,25,29)        179.068                                          !
 ! D68   D(26,23,25,30)         -0.6889                                         !
 ! D69   D(22,24,27,29)          0.2171                                         !
 ! D70   D(22,24,27,31)       -179.5518                                         !
 ! D71   D(28,24,27,29)        179.031                                          !
 ! D72   D(28,24,27,31)         -0.7379                                         !
 ! D73   D(23,25,29,27)         -0.087                                          !
 ! D74   D(23,25,29,32)        179.9031                                         !
 ! D75   D(30,25,29,27)        179.6685                                         !
 ! D76   D(30,25,29,32)         -0.3414                                         !
 ! D77   D(24,27,29,25)         -0.1416                                         !
 ! D78   D(24,27,29,32)        179.8683                                         !
 ! D79   D(31,27,29,25)        179.6259                                         !
 ! D80   D(31,27,29,32)         -0.3642                                         !
 --------------------------------------------------------------------------------
 NAtoms=     32 NQM=       32 NQMF=       0 NMMI=      0 NMMIF=      0
                NMic=       0 NMicF=      0.
                    Isotopes and Nuclear Properties:
 (Nuclear quadrupole moments (NQMom) in fm**2, nuclear magnetic moments (NMagM)
  in nuclear magnetons)

  Atom         1           2           3           4           5           6           7           8           9          10
 IAtWgt=          12          12          12          12          12          12          12           1           1           1
 AtmWgt=  12.0000000  12.0000000  12.0000000  12.0000000  12.0000000  12.0000000  12.0000000   1.0078250   1.0078250   1.0078250
 NucSpn=           0           0           0           0           0           0           0           1           1           1
 AtZEff=   3.6000000   3.6000000   3.6000000   3.6000000   3.6000000   3.6000000   3.6000000   1.0000000   1.0000000   1.0000000
 NQMom=    0.0000000   0.0000000   0.0000000   0.0000000   0.0000000   0.0000000   0.0000000   0.0000000   0.0000000   0.0000000
 NMagM=    0.0000000   0.0000000   0.0000000   0.0000000   0.0000000   0.0000000   0.0000000   2.7928460   2.7928460   2.7928460
 AtZNuc=   6.0000000   6.0000000   6.0000000   6.0000000   6.0000000   6.0000000   6.0000000   1.0000000   1.0000000   1.0000000

  Atom        11          12          13          14          15          16          17          18          19          20
 IAtWgt=           1          14          14          12           1           1           1          12           1           1
 AtmWgt=   1.0078250  14.0030740  14.0030740  12.0000000   1.0078250   1.0078250   1.0078250  12.0000000   1.0078250   1.0078250
 NucSpn=           1           2           2           0           1           1           1           0           1           1
 AtZEff=   1.0000000   4.5500000   4.5500000   3.6000000   1.0000000   1.0000000   1.0000000   3.6000000   1.0000000   1.0000000
 NQMom=    0.0000000   2.0440000   2.0440000   0.0000000   0.0000000   0.0000000   0.0000000   0.0000000   0.0000000   0.0000000
 NMagM=    2.7928460   0.4037610   0.4037610   0.0000000   2.7928460   2.7928460   2.7928460   0.0000000   2.7928460   2.7928460
 AtZNuc=   1.0000000   7.0000000   7.0000000   6.0000000   1.0000000   1.0000000   1.0000000   6.0000000   1.0000000   1.0000000

  Atom        21          22          23          24          25          26          27          28          29          30
 IAtWgt=           1          12          12          12          12           1          12           1          12           1
 AtmWgt=   1.0078250  12.0000000  12.0000000  12.0000000  12.0000000   1.0078250  12.0000000   1.0078250  12.0000000   1.0078250
 NucSpn=           1           0           0           0           0           1           0           1           0           1
 AtZEff=   1.0000000   3.6000000   3.6000000   3.6000000   3.6000000   1.0000000   3.6000000   1.0000000   3.6000000   1.0000000
 NQMom=    0.0000000   0.0000000   0.0000000   0.0000000   0.0000000   0.0000000   0.0000000   0.0000000   0.0000000   0.0000000
 NMagM=    2.7928460   0.0000000   0.0000000   0.0000000   0.0000000   2.7928460   0.0000000   2.7928460   0.0000000   2.7928460
 AtZNuc=   1.0000000   6.0000000   6.0000000   6.0000000   6.0000000   1.0000000   6.0000000   1.0000000   6.0000000   1.0000000

  Atom        31          32
 IAtWgt=           1           1
 AtmWgt=   1.0078250   1.0078250
 NucSpn=           1           1
 AtZEff=   1.0000000   1.0000000
 NQMom=    0.0000000   0.0000000
 NMagM=    2.7928460   2.7928460
 AtZNuc=   1.0000000   1.0000000
 Leave Link  101 at Tue Mar 24 18:20:55 2026, MaxMem=  2684354560 cpu:               5.4 elap:               0.1
 (Enter /home/programes/qq/gaussian/g16.A03/g16/l202.exe)
                          Input orientation:                          
 ---------------------------------------------------------------------
 Center     Atomic      Atomic             Coordinates (Angstroms)
 Number     Number       Type             X           Y           Z
 ---------------------------------------------------------------------
      1          6           0       -8.963296    2.926586    0.081966
      2          6           0       -7.565807    2.784490    0.124666
      3          6           0       -6.714344    3.891434    0.162934
      4          6           0       -7.323878    5.144948    0.156575
      5          6           0       -8.727266    5.287603    0.114464
      6          6           0       -9.575578    4.182291    0.076015
      7          6           0       -8.477977    0.745179    0.073751
      8          1           0       -5.631168    3.782123    0.199562
      9          1           0       -6.699605    6.038838    0.186129
     10          1           0       -9.159601    6.288932    0.110530
     11          1           0      -10.658622    4.292837    0.039275
     12          7           0       -7.304369    1.414990    0.113137
     13          7           0       -9.493552    1.637337    0.056857
     14          6           0       -5.963180    0.836191    0.071346
     15          1           0       -5.376107    1.364971   -0.690541
     16          1           0       -5.479124    0.942583    1.051572
     17          1           0       -6.035333   -0.222522   -0.194842
     18          6           0      -10.923379    1.336731    0.085468
     19          1           0      -11.398721    1.967230    0.847562
     20          1           0      -11.369911    1.543041   -0.896573
     21          1           0      -11.065184    0.283045    0.343688
     22          6           0       -8.626428   -0.713877    0.052836
     23          6           0       -8.061526   -1.491212    1.078562
     24          6           0       -9.334004   -1.331853   -0.992687
     25          6           0       -8.209087   -2.877958    1.056038
     26          1           0       -7.526766   -1.009379    1.898025
     27          6           0       -9.471671   -2.719691   -1.008234
     28          1           0       -9.756550   -0.729742   -1.798031
     29          6           0       -8.911920   -3.492145    0.014505
     30          1           0       -7.776912   -3.479560    1.856870
     31          1           0      -10.014773   -3.198668   -1.824121
     32          1           0       -9.023784   -4.577665   -0.000284
 ---------------------------------------------------------------------
                    Distance matrix (angstroms):
                    1          2          3          4          5
     1  C    0.000000
     2  C    1.405344   0.000000
     3  C    2.448525   1.397061   0.000000
     4  C    2.759419   2.373039   1.393869   0.000000
     5  C    2.373008   2.759469   2.450203   1.411249   0.000000
     6  C    1.397040   2.448550   2.877293   2.450174   1.393852
     7  C    2.234757   2.234599   3.607946   4.549371   4.549441
     8  H    3.442216   2.178006   1.089294   2.173570   3.443768
     9  H    3.849839   3.368214   2.147580   1.090701   2.163539
    10  H    3.368193   3.849870   3.424912   2.163492   1.090683
    11  H    2.177750   3.442080   3.966579   3.443890   2.173787
    12  N    2.244535   1.394279   2.546249   3.730263   4.125745
    13  N    1.394261   2.244273   3.579973   4.125623   3.730275
    14  C    3.656578   2.523316   3.147562   4.519309   5.239952
    15  H    3.987898   2.733931   2.983674   4.335856   5.221623
    16  H    4.125028   2.933602   3.318308   4.675897   5.505252
    17  H    4.308883   3.389183   4.184937   5.531147   6.140330
    18  C    2.523802   3.656615   4.924275   5.240609   4.520303
    19  H    2.727232   3.985188   5.110251   5.213416   4.324231
    20  H    2.943387   4.129810   5.320884   5.518446   4.693347
    21  H    3.387439   4.307068   5.655347   6.137629   5.528472
    22  C    3.656131   3.656316   4.987692   6.002769   6.002643
    23  C    4.617720   4.408774   5.623714   6.740387   6.879319
    24  C    4.407562   4.617280   5.956577   6.878253   6.738776
    25  C    5.933833   5.774476   6.989747   8.121555   8.235985
    26  H    4.566565   4.188051   5.261990   6.399184   6.653892
    27  C    5.772991   5.933952   7.258199   8.235432   8.119812
    28  H    4.187167   4.565736   5.869895   6.652095   6.397304
    29  C    6.419291   6.420304   7.705103   8.783021   8.782259
    30  H    6.752518   6.502570   7.637409   8.802181   8.989009
    31  H    6.500577   6.752287   8.069124   8.987770   8.799578
    32  H    7.504946   7.506173   8.779852   9.871348   9.870390
                    6          7          8          9         10
     6  C    0.000000
     7  C    3.608112   0.000000
     8  H    3.966582   4.164514   0.000000
     9  H    3.424925   5.585522   2.496899   0.000000
    10  H    2.147595   5.585621   4.329187   2.473831   0.000000
    11  H    1.089291   4.164406   5.055870   4.329423   2.497306
    12  N    3.580186   1.351870   2.900067   4.663801   5.215095
    13  N    2.546348   1.351897   4.420236   5.214985   4.663876
    14  C    4.924005   2.516445   2.967353   5.255762   6.320682
    15  H    5.114730   3.254209   2.588429   4.936115   6.261145
    16  H    5.313036   3.160414   2.968506   5.311345   6.558576
    17  H    5.657657   2.641041   4.044266   6.308013   7.228647
    18  C    3.148630   2.515962   5.830991   6.321409   5.256980
    19  H    2.970796   3.259285   6.080988   6.252774   4.922802
    20  H    3.336345   3.152998   6.256850   6.572381   5.331342
    21  H    4.182667   2.641983   6.464739   7.225805   6.305259
    22  C    4.987372   1.466738   5.404362   7.023501   7.023314
    23  C    5.957021   2.486870   5.872593   7.704085   7.916660
    24  C    5.621945   2.486793   6.425356   7.915602   7.702199
    25  C    7.257745   3.763551   7.192767   9.085402   9.264412
    26  H    5.871184   2.703933   5.425547   7.300148   7.689385
    27  C    6.987399   3.763435   7.647341   9.264053   9.083188
    28  H    5.260501   2.704387   6.431647   7.687358   7.297995
    29  C    7.703324   4.259899   7.982015   9.785880   9.784684
    30  H    8.069114   4.638904   7.751317   9.723778  10.019230
    31  H    7.634263   4.638706   8.487799  10.018131   9.720532
    32  H    8.777650   5.351267   9.024181  10.869531  10.868011
                   11         12         13         14         15
    11  H    0.000000
    12  N    4.420236   0.000000
    13  N    2.899893   2.201166   0.000000
    14  C    5.830661   1.461349   3.620163   0.000000
    15  H    6.083585   2.089639   4.193584   1.097603   0.000000
    16  H    6.251092   2.106026   4.193778   1.098395   1.795545
    17  H    6.466691   2.094456   3.934681   1.094046   1.788975
    18  C    2.968298   3.619962   1.461365   4.985410   5.601358
    19  H    2.570899   4.196197   2.088950   5.605967   6.245026
    20  H    2.990505   4.191007   2.106808   5.537982   5.999987
    21  H    4.041831   3.934232   2.094375   5.139123   5.882668
    22  C    5.403441   2.506701   2.506018   3.081549   3.929224
    23  C    6.424971   3.154575   3.589206   3.291558   4.301044
    24  C    5.869983   3.589904   3.153266   4.146690   4.798864
    25  C    7.645543   4.487424   4.799594   4.450688   5.392472
    26  H    6.432494   3.018750   3.776673   3.031120   4.118682
    27  C    7.188997   4.801068   4.485375   5.110705   5.793016
    28  H    5.423627   3.776987   3.018748   4.509587   4.980224
    29  C    7.978568   5.164680   5.162527   5.237633   6.049019
    30  H    8.486346   5.217328   5.689423   5.010332   5.976842
    31  H    7.746576   5.690790   5.215045   6.023976   6.605227
    32  H    9.019982   6.235476   6.232993   6.219507   7.006920
                   16         17         18         19         20
    16  H    0.000000
    17  H    1.794544   0.000000
    18  C    5.543340   5.138369   0.000000
    19  H    6.011085   5.886217   1.097390   0.000000
    20  H    6.233553   5.662805   1.098344   1.795209   0.000000
    21  H    5.669228   5.083799   1.094094   1.789307   1.794073
    22  C    3.694165   2.648877   3.079292   3.937706   3.677193
    23  C    3.548646   2.708614   4.144116   4.811554   4.904412
    24  C    4.920585   3.570491   3.287837   4.305058   3.524084
    25  C    4.695663   3.652567   5.106172   5.804574   5.774836
    26  H    2.952876   2.687677   4.508501   4.995570   5.393922
    27  C    5.796161   4.325029   4.445019   5.396733   4.667619
    28  H    5.404931   4.083496   3.029747   4.119411   2.929351
    29  C    5.703193   4.359932   5.231544   6.056645   5.676697
    30  H    5.048136   4.225034   6.019533   6.618438   6.761480
    31  H    6.781716   5.229525   5.004192   5.978269   5.018022
    32  H    6.644107   5.285448   6.212560   7.013902   6.615942
                   21         22         23         24         25
    21  H    0.000000
    22  C    2.650655   0.000000
    23  C    3.565106   1.405518   0.000000
    24  C    2.718598   1.405587   2.436118   0.000000
    25  C    4.319336   2.421536   1.394756   2.802348   0.000000
    26  H    4.075135   2.168249   1.090711   3.424371   2.160113
    27  C    3.658332   2.421486   2.802211   1.394736   2.424951
    28  H    2.706514   2.168671   3.424578   1.090716   3.892966
    29  C    4.358551   2.793162   2.420562   2.420631   1.398567
    30  H    5.221077   3.409578   2.154134   3.893220   1.090886
    31  H    4.233802   3.409495   3.893089   2.154002   3.414480
    32  H    5.283193   3.884530   3.408231   3.408284   2.160683
                   26         27         28         29         30
    26  H    0.000000
    27  C    3.892835   0.000000
    28  H    4.325617   2.159823   0.000000
    29  C    3.410341   1.398572   3.410215   0.000000
    30  H    2.483155   3.414445   4.983851   2.163957   0.000000
    31  H    4.983727   1.090894   2.482530   2.164015   4.317015
    32  H    4.310140   2.160702   4.309914   1.091369   2.491897
                   31         32
    31  H    0.000000
    32  H    2.492002   0.000000
 Symmetry turned off by external request.
 Stoichiometry    C15H15N2(1+)
 Framework group  C1[X(C15H15N2)]
 Deg. of freedom    90
 Full point group                 C1      NOp   1
 Rotational constants (GHZ):           1.2193850           0.2915633           0.2496917
 Leave Link  202 at Tue Mar 24 18:20:55 2026, MaxMem=  2684354560 cpu:               1.0 elap:               0.0
 (Enter /home/programes/qq/gaussian/g16.A03/g16/l301.exe)
 General basis read from cards:  (5D, 7F)
 Centers:       1      2      3      4      5      6      7     14     18     22
 Centers:      23     24     25     27     29     12     13      8      9     10
 Centers:      11     15     16     17     19     20     21     26     28     30
 Centers:      31     32
 cc-pVDZ
 ****
 ======================================================================================================
                                       Pseudopotential Parameters
 ======================================================================================================
  Center     Atomic      Valence      Angular      Power
  Number     Number     Electrons     Momentum     of R      Exponent        Coefficient   SO-Coeffient
 ======================================================================================================
    1          6
                                   No pseudopotential on this center.
    2          6
                                   No pseudopotential on this center.
    3          6
                                   No pseudopotential on this center.
    4          6
                                   No pseudopotential on this center.
    5          6
                                   No pseudopotential on this center.
    6          6
                                   No pseudopotential on this center.
    7          6
                                   No pseudopotential on this center.
    8          1
                                   No pseudopotential on this center.
    9          1
                                   No pseudopotential on this center.
   10          1
                                   No pseudopotential on this center.
   11          1
                                   No pseudopotential on this center.
   12          7
                                   No pseudopotential on this center.
   13          7
                                   No pseudopotential on this center.
   14          6
                                   No pseudopotential on this center.
   15          1
                                   No pseudopotential on this center.
   16          1
                                   No pseudopotential on this center.
   17          1
                                   No pseudopotential on this center.
   18          6
                                   No pseudopotential on this center.
   19          1
                                   No pseudopotential on this center.
   20          1
                                   No pseudopotential on this center.
   21          1
                                   No pseudopotential on this center.
   22          6
                                   No pseudopotential on this center.
   23          6
                                   No pseudopotential on this center.
   24          6
                                   No pseudopotential on this center.
   25          6
                                   No pseudopotential on this center.
   26          1
                                   No pseudopotential on this center.
   27          6
                                   No pseudopotential on this center.
   28          1
                                   No pseudopotential on this center.
   29          6
                                   No pseudopotential on this center.
   30          1
                                   No pseudopotential on this center.
   31          1
                                   No pseudopotential on this center.
   32          1
                                   No pseudopotential on this center.
 ======================================================================================================
 Ernie: Thresh=  0.10000D-02 Tol=  0.10000D-05 Strict=F.
 Ernie:  34 primitive shells out of 449 were deleted.
   313 basis functions,   666 primitive gaussians,   330 cartesian basis functions
    59 alpha electrons       59 beta electrons
       nuclear repulsion energy      1137.9338910034 Hartrees.
 IExCor=  402 DFT=T Ex+Corr=B3LYP ExCW=0 ScaHFX=  0.200000
 ScaDFX=  0.800000  0.720000  1.000000  0.810000 ScalE2=  1.000000  1.000000
 IRadAn=      5 IRanWt=     -1 IRanGd=            0 ICorTp=0 IEmpDi=141
 NAtoms=   32 NActive=   32 NUniq=   32 SFac= 1.00D+00 NAtFMM=   60 NAOKFM=F Big=F
 Integral buffers will be    131072 words long.
 Raffenetti 2 integral format.
 Two-electron integral symmetry is turned off.
 R6Disp:  Grimme-D3(BJ) Dispersion energy=       -0.0691887780 Hartrees.
 Nuclear repulsion after empirical dispersion term =     1137.8647022254 Hartrees.
 Using the following non-standard input for PCM:
 NonEq=write
 --- end of non-standard input.
 ------------------------------------------------------------------------------
 Polarizable Continuum Model (PCM)
 =================================
 Model                : PCM.
 Atomic radii         : UFF (Universal Force Field).
 Polarization charges : Total charges.
 Charge compensation  : None.
 Solution method      : On-the-fly selection.
 Cavity type          : Scaled VdW (van der Waals Surface) (Alpha=1.100).
 Cavity algorithm     : GePol (No added spheres)
                        Default sphere list used, NSphG=   32.
                        Lebedev-Laikov grids with approx.  5.0 points / Ang**2.
                        Smoothing algorithm: York/Karplus (Gamma=1.0000).
                        Polarization charges: spherical gaussians, with
                                              point-specific exponents (IZeta= 3).
                        Self-potential: point-specific (ISelfS= 7).
                        Self-field    : sphere-specific E.n sum rule (ISelfD= 2).
 Solvent              : n,n-DiMethylFormamide, Eps=  37.219000 Eps(inf)=   2.046330
 ------------------------------------------------------------------------------
 GePol: Number of generator spheres                  =      32
 GePol: Total number of spheres                      =      32
 GePol: Number of exposed spheres                    =      32 (100.00%)
 GePol: Number of points                             =    2392
 GePol: Average weight of points                     =       0.13
 GePol: Minimum weight of points                     =   0.22D-11
 GePol: Maximum weight of points                     =    0.20577
 GePol: Number of points with low weight             =     174
 GePol: Fraction of low-weight points (<1% of avg)   =       7.27%
 GePol: Cavity surface area                          =    305.738 Ang**2
 GePol: Cavity volume                                =    329.374 Ang**3
 Leave Link  301 at Tue Mar 24 18:20:55 2026, MaxMem=  2684354560 cpu:               3.5 elap:               0.1
 (Enter /home/programes/qq/gaussian/g16.A03/g16/l302.exe)
 NPDir=0 NMtPBC=     1 NCelOv=     1 NCel=       1 NClECP=     1 NCelD=      1
         NCelK=      1 NCelE2=     1 NClLst=     1 CellRange=     0.0.
 One-electron integrals computed using PRISM.
   1 Symmetry operations used in ECPInt.
 ECPInt:  NShTT=   10878 NPrTT=   87130 LenC2=   10239 LenP2D=   46416.
 LDataN:  DoStor=T MaxTD1= 4 Len=   56
 NBasis=   313 RedAO= T EigKep=  3.24D-04  NBF=   313
 NBsUse=   313 1.00D-06 EigRej= -1.00D+00 NBFU=   313
 Precomputing XC quadrature grid using
 IXCGrd= 4 IRadAn=           5 IRanWt=          -1 IRanGd=           0 AccXCQ= 0.00D+00.
 Generated NRdTot=       0 NPtTot=           0 NUsed=           0 NTot=          32
 NSgBfM=   329   329   329   329   329 MxSgAt=    32 MxSgA2=    32.
 Leave Link  302 at Tue Mar 24 18:20:55 2026, MaxMem=  2684354560 cpu:              13.0 elap:               0.3
 (Enter /home/programes/qq/gaussian/g16.A03/g16/l303.exe)
 DipDrv:  MaxL=1.
 Leave Link  303 at Tue Mar 24 18:20:56 2026, MaxMem=  2684354560 cpu:               2.1 elap:               0.1
 (Enter /home/programes/qq/gaussian/g16.A03/g16/l401.exe)
 Initial guess from the checkpoint file:  "bi_cat_eq.chk"
 B after Tr=     0.000000    0.000000    0.000000
         Rot=    1.000000    0.000000    0.000000    0.000000 Ang=   0.00 deg.
 Guess basis will be translated and rotated to current coordinates.
 JPrj=2 DoOrth=T DoCkMO=T.
 Leave Link  401 at Tue Mar 24 18:20:56 2026, MaxMem=  2684354560 cpu:               9.1 elap:               0.2
 (Enter /home/programes/qq/gaussian/g16.A03/g16/l502.exe)
 Two-electron integral symmetry not used.
 Closed shell SCF:
 Using DIIS extrapolation, IDIIS=  1040.
 NGot=  2684354560 LenX=  2684118106 LenY=  2684008765
 Requested convergence on RMS density matrix=1.00D-08 within 128 cycles.
 Requested convergence on MAX density matrix=1.00D-06.
 Requested convergence on             energy=1.00D-06.
 No special actions if energy rises.
 Fock matrices will be formed incrementally for  20 cycles.

 Cycle   1  Pass 1  IDiag  1:
 FoFJK:  IHMeth= 1 ICntrl=       0 DoSepK=F KAlg= 0 I1Cent=           0 FoldK=F
 IRaf= 890000000 NMat=       1 IRICut=       1 DoRegI=T DoRafI=F ISym2E= 0 IDoP0=0 IntGTp=1.
 FoFCou: FMM=F IPFlag=           0 FMFlag=      100000 FMFlg1=           0
         NFxFlg=           0 DoJE=F BraDBF=F KetDBF=F FulRan=T
         wScrn=  0.000000 ICntrl=         0 IOpCl=  0 I1Cent=           0 NGrid=           0
         NMat0=    1 NMatS0=      1 NMatT0=    0 NMatD0=    1 NMtDS0=    0 NMtDT0=    0
 Symmetry not used in FoFCou.
 Inv3:  Mode=1 IEnd=    17164992.
 Iteration    1 A*A^-1 deviation from unit magnitude is 9.33D-15 for    413.
 Iteration    1 A*A^-1 deviation from orthogonality  is 4.35D-15 for   2102    411.
 Iteration    1 A^-1*A deviation from unit magnitude is 7.99D-15 for    413.
 Iteration    1 A^-1*A deviation from orthogonality  is 3.15D-15 for   2030    527.
 E= -690.116303034764    
 DIIS: error= 4.62D-08 at cycle   1 NSaved=   1.
 NSaved= 1 IEnMin= 1 EnMin= -690.116303034764     IErMin= 1 ErrMin= 4.62D-08
 ErrMax= 4.62D-08  0.00D+00 EMaxC= 1.00D-01 BMatC= 1.31D-12 BMatP= 1.31D-12
 IDIUse=1 WtCom= 1.00D+00 WtEn= 0.00D+00
 Coeff-Com:  0.100D+01
 Coeff:      0.100D+01
 Gap=     0.186 Goal=   None    Shift=    0.000
 RMSDP=9.70D-09 MaxDP=4.97D-07              OVMax= 1.13D-06

 NEqSol: Computing the fast-slow partition of the PCM polarization charges.
 Error on total polarization charges =  0.01214
 SCF Done:  E(RB3LYP) =  -690.116303035     A.U. after    1 cycles
            NFock=  1  Conv=0.97D-08     -V/T= 2.0074
 KE= 6.850718339367D+02 PE=-3.857134593991D+03 EE= 1.344081754794D+03
 Leave Link  502 at Tue Mar 24 18:21:00 2026, MaxMem=  2684354560 cpu:             153.1 elap:               4.2
 (Enter /home/programes/qq/gaussian/g16.A03/g16/l601.exe)
 Copying SCF densities to generalized density rwf, IOpCl= 0 IROHF=0.

 **********************************************************************

            Population analysis using the SCF density.

 **********************************************************************

 Alpha  occ. eigenvalues --  -14.44081 -14.44075 -10.32510 -10.26236 -10.26190
 Alpha  occ. eigenvalues --  -10.25285 -10.25281 -10.23973 -10.22380 -10.22378
 Alpha  occ. eigenvalues --  -10.22322 -10.22318 -10.21652 -10.21610 -10.21599
 Alpha  occ. eigenvalues --  -10.21425 -10.21418  -1.09201  -0.97988  -0.89762
 Alpha  occ. eigenvalues --   -0.87903  -0.81180  -0.80106  -0.78422  -0.77415
 Alpha  occ. eigenvalues --   -0.75953  -0.72219  -0.67928  -0.65890  -0.63093
 Alpha  occ. eigenvalues --   -0.62559  -0.60923  -0.56050  -0.55648  -0.54392
 Alpha  occ. eigenvalues --   -0.52856  -0.50283  -0.49521  -0.47734  -0.47625
 Alpha  occ. eigenvalues --   -0.47347  -0.47098  -0.47072  -0.45071  -0.44544
 Alpha  occ. eigenvalues --   -0.42920  -0.42754  -0.42397  -0.39706  -0.39264
 Alpha  occ. eigenvalues --   -0.37971  -0.37748  -0.37634  -0.36553  -0.33916
 Alpha  occ. eigenvalues --   -0.29300  -0.28075  -0.26740  -0.26407
 Alpha virt. eigenvalues --   -0.07782  -0.03474  -0.03403  -0.02032  -0.00137
 Alpha virt. eigenvalues --    0.04236   0.05635   0.06164   0.07446   0.09139
 Alpha virt. eigenvalues --    0.09970   0.10163   0.10178   0.10889   0.11079
 Alpha virt. eigenvalues --    0.11744   0.12422   0.12627   0.13448   0.13840
 Alpha virt. eigenvalues --    0.14433   0.14968   0.15116   0.16104   0.17550
 Alpha virt. eigenvalues --    0.19717   0.20778   0.23314   0.25790   0.26465
 Alpha virt. eigenvalues --    0.26479   0.27883   0.28457   0.29523   0.31461
 Alpha virt. eigenvalues --    0.31935   0.35549   0.36049   0.36451   0.37241
 Alpha virt. eigenvalues --    0.40164   0.40579   0.42288   0.42893   0.44012
 Alpha virt. eigenvalues --    0.44388   0.45276   0.45604   0.46422   0.46623
 Alpha virt. eigenvalues --    0.47089   0.47860   0.48456   0.48708   0.48889
 Alpha virt. eigenvalues --    0.49246   0.49611   0.50794   0.50879   0.51400
 Alpha virt. eigenvalues --    0.52318   0.53212   0.54062   0.55309   0.55451
 Alpha virt. eigenvalues --    0.56152   0.57967   0.58738   0.60222   0.60438
 Alpha virt. eigenvalues --    0.61165   0.61781   0.62705   0.62754   0.62979
 Alpha virt. eigenvalues --    0.63308   0.63438   0.64263   0.65126   0.65756
 Alpha virt. eigenvalues --    0.66531   0.67019   0.68470   0.69097   0.70097
 Alpha virt. eigenvalues --    0.70661   0.70966   0.73271   0.75054   0.76303
 Alpha virt. eigenvalues --    0.77668   0.78661   0.80608   0.82808   0.84050
 Alpha virt. eigenvalues --    0.86024   0.86135   0.87110   0.88159   0.88983
 Alpha virt. eigenvalues --    0.89222   0.89315   0.90509   0.92098   0.92854
 Alpha virt. eigenvalues --    0.95512   0.96701   0.97281   0.97448   0.97750
 Alpha virt. eigenvalues --    0.99185   1.00702   1.01022   1.01038   1.02463
 Alpha virt. eigenvalues --    1.03325   1.03862   1.04697   1.05687   1.05795
 Alpha virt. eigenvalues --    1.06933   1.08352   1.10718   1.11106   1.13558
 Alpha virt. eigenvalues --    1.13966   1.21530   1.21853   1.23878   1.27564
 Alpha virt. eigenvalues --    1.29268   1.32245   1.32293   1.33213   1.35245
 Alpha virt. eigenvalues --    1.36187   1.37444   1.37954   1.39043   1.41574
 Alpha virt. eigenvalues --    1.43233   1.43976   1.45782   1.46552   1.47195
 Alpha virt. eigenvalues --    1.47771   1.48381   1.50199   1.50275   1.50793
 Alpha virt. eigenvalues --    1.51512   1.54582   1.55078   1.57242   1.57808
 Alpha virt. eigenvalues --    1.58851   1.60128   1.60562   1.61296   1.61565
 Alpha virt. eigenvalues --    1.61581   1.62652   1.63146   1.63485   1.64334
 Alpha virt. eigenvalues --    1.65380   1.65694   1.65849   1.67006   1.68164
 Alpha virt. eigenvalues --    1.69660   1.70516   1.71956   1.72016   1.72667
 Alpha virt. eigenvalues --    1.74279   1.75341   1.75480   1.75884   1.76633
 Alpha virt. eigenvalues --    1.77295   1.78571   1.79733   1.80691   1.82182
 Alpha virt. eigenvalues --    1.82533   1.82964   1.83187   1.83815   1.84074
 Alpha virt. eigenvalues --    1.85868   1.86815   1.87530   1.88735   1.89757
 Alpha virt. eigenvalues --    1.90338   1.91607   1.94813   1.96285   1.97609
 Alpha virt. eigenvalues --    1.98140   1.98545   1.98914   1.98942   1.99846
 Alpha virt. eigenvalues --    2.02112   2.04701   2.06367   2.08293   2.09280
 Alpha virt. eigenvalues --    2.12532   2.12979   2.13610   2.14958   2.18840
 Alpha virt. eigenvalues --    2.20325   2.24726   2.27362   2.27882   2.30686
 Alpha virt. eigenvalues --    2.34804   2.36339   2.37847   2.38201   2.38597
 Alpha virt. eigenvalues --    2.40237   2.40447   2.41004   2.42223   2.44069
 Alpha virt. eigenvalues --    2.44218   2.47163   2.47456   2.50548   2.52403
 Alpha virt. eigenvalues --    2.55773   2.57285   2.59830   2.62661   2.63190
 Alpha virt. eigenvalues --    2.68038   2.70202   2.70227   2.74523   2.75573
 Alpha virt. eigenvalues --    2.77357   2.78835   2.85659   2.95221   2.96077
 Alpha virt. eigenvalues --    3.01769   3.04680   3.52105   3.55265
          Condensed to atoms (all electrons):
               1          2          3          4          5          6
     1  C    4.940263   0.345857  -0.036672  -0.069742   0.009848   0.489764
     2  C    0.345857   4.939574   0.489801   0.009827  -0.069743  -0.036668
     3  C   -0.036672   0.489801   4.763214   0.509342  -0.004072  -0.050116
     4  C   -0.069742   0.009827   0.509342   4.710202   0.482970  -0.004062
     5  C    0.009848  -0.069743  -0.004072   0.482970   4.709989   0.509331
     6  C    0.489764  -0.036668  -0.050116  -0.004062   0.509331   4.763130
     7  C   -0.110248  -0.110325   0.003368   0.000646   0.000644   0.003352
     8  H    0.010765  -0.031528   0.382202  -0.041490   0.008403  -0.000259
     9  H   -0.000363   0.009514  -0.043738   0.395000  -0.046397   0.010421
    10  H    0.009515  -0.000362   0.010420  -0.046370   0.395006  -0.043768
    11  H   -0.031461   0.010770  -0.000257   0.008395  -0.041456   0.382122
    12  N   -0.051263   0.411332  -0.047333   0.002300   0.000534   0.003731
    13  N    0.411133  -0.051215   0.003730   0.000534   0.002301  -0.047328
    14  C    0.011530  -0.052988  -0.005521  -0.000105  -0.000002   0.000052
    15  H    0.000534  -0.007256   0.004021   0.000291  -0.000016  -0.000030
    16  H   -0.000116  -0.001752   0.001943   0.000075  -0.000003  -0.000019
    17  H   -0.000639   0.005246   0.000057  -0.000001  -0.000000   0.000012
    18  C   -0.053000   0.011517   0.000053  -0.000003  -0.000096  -0.005540
    19  H   -0.007502   0.000560  -0.000029  -0.000017   0.000302   0.004086
    20  H   -0.001485  -0.000136  -0.000019  -0.000002   0.000066   0.001863
    21  H    0.005237  -0.000638   0.000012  -0.000000  -0.000001   0.000057
    22  C    0.001501   0.001492  -0.000484   0.000011   0.000011  -0.000484
    23  C   -0.000046  -0.000369  -0.000012  -0.000000  -0.000000   0.000009
    24  C   -0.000372  -0.000042   0.000009  -0.000000  -0.000000  -0.000012
    25  C    0.000001   0.000019  -0.000000   0.000000   0.000000  -0.000000
    26  H   -0.000073  -0.000319   0.000003  -0.000000   0.000000  -0.000001
    27  C    0.000020   0.000001  -0.000000   0.000000   0.000000  -0.000000
    28  H   -0.000323  -0.000071  -0.000001   0.000000  -0.000000   0.000003
    29  C    0.000001   0.000001   0.000000  -0.000000  -0.000000   0.000000
    30  H   -0.000000  -0.000001  -0.000000  -0.000000  -0.000000   0.000000
    31  H   -0.000001  -0.000000   0.000000  -0.000000  -0.000000  -0.000000
    32  H    0.000000   0.000000  -0.000000   0.000000   0.000000  -0.000000
               7          8          9         10         11         12
     1  C   -0.110248   0.010765  -0.000363   0.009515  -0.031461  -0.051263
     2  C   -0.110325  -0.031528   0.009514  -0.000362   0.010770   0.411332
     3  C    0.003368   0.382202  -0.043738   0.010420  -0.000257  -0.047333
     4  C    0.000646  -0.041490   0.395000  -0.046370   0.008395   0.002300
     5  C    0.000644   0.008403  -0.046397   0.395006  -0.041456   0.000534
     6  C    0.003352  -0.000259   0.010421  -0.043768   0.382122   0.003731
     7  C    4.967273  -0.000699   0.000008   0.000008  -0.000701   0.469336
     8  H   -0.000699   0.679727  -0.013559  -0.000165   0.000037  -0.006589
     9  H    0.000008  -0.013559   0.700455  -0.014871  -0.000165  -0.000116
    10  H    0.000008  -0.000165  -0.014871   0.700449  -0.013553   0.000007
    11  H   -0.000701   0.000037  -0.000165  -0.013553   0.679647  -0.000146
    12  N    0.469336  -0.006589  -0.000116   0.000007  -0.000146   6.222297
    13  N    0.469489  -0.000146   0.000007  -0.000116  -0.006573  -0.044586
    14  C   -0.056935   0.004525  -0.000012  -0.000000   0.000009   0.376375
    15  H    0.003867   0.000941   0.000008  -0.000000  -0.000000  -0.017152
    16  H    0.000555   0.000148   0.000000   0.000000  -0.000000  -0.020231
    17  H   -0.010178  -0.000148  -0.000000   0.000000  -0.000000  -0.010332
    18  C   -0.057029   0.000009  -0.000000  -0.000012   0.004418   0.002824
    19  H    0.003965  -0.000000  -0.000000   0.000008   0.000991  -0.000028
    20  H    0.000401  -0.000000   0.000000   0.000000   0.000138   0.000010
    21  H   -0.010202  -0.000000   0.000000  -0.000000  -0.000149   0.000356
    22  C    0.298693  -0.000009  -0.000000  -0.000000  -0.000010  -0.042182
    23  C   -0.084247   0.000000  -0.000000   0.000000  -0.000000  -0.005012
    24  C   -0.084252  -0.000000   0.000000  -0.000000  -0.000000   0.000369
    25  C    0.007300   0.000000  -0.000000  -0.000000  -0.000000   0.000144
    26  H   -0.015188  -0.000001   0.000000   0.000000   0.000000   0.000128
    27  C    0.007298  -0.000000  -0.000000  -0.000000   0.000000  -0.000078
    28  H   -0.015201   0.000000   0.000000   0.000000  -0.000001   0.000199
    29  C    0.000747   0.000000  -0.000000  -0.000000   0.000000   0.000007
    30  H   -0.000449  -0.000000  -0.000000   0.000000  -0.000000  -0.000003
    31  H   -0.000448  -0.000000   0.000000  -0.000000  -0.000000   0.000001
    32  H    0.000018  -0.000000  -0.000000  -0.000000  -0.000000   0.000000
              13         14         15         16         17         18
     1  C    0.411133   0.011530   0.000534  -0.000116  -0.000639  -0.053000
     2  C   -0.051215  -0.052988  -0.007256  -0.001752   0.005246   0.011517
     3  C    0.003730  -0.005521   0.004021   0.001943   0.000057   0.000053
     4  C    0.000534  -0.000105   0.000291   0.000075  -0.000001  -0.000003
     5  C    0.002301  -0.000002  -0.000016  -0.000003  -0.000000  -0.000096
     6  C   -0.047328   0.000052  -0.000030  -0.000019   0.000012  -0.005540
     7  C    0.469489  -0.056935   0.003867   0.000555  -0.010178  -0.057029
     8  H   -0.000146   0.004525   0.000941   0.000148  -0.000148   0.000009
     9  H    0.000007  -0.000012   0.000008   0.000000  -0.000000  -0.000000
    10  H   -0.000116  -0.000000  -0.000000   0.000000   0.000000  -0.000012
    11  H   -0.006573   0.000009  -0.000000  -0.000000  -0.000000   0.004418
    12  N   -0.044586   0.376375  -0.017152  -0.020231  -0.010332   0.002824
    13  N    6.222366   0.002825  -0.000023   0.000005   0.000358   0.376353
    14  C    0.002825   4.465548   0.391328   0.396955   0.391425  -0.000140
    15  H   -0.000023   0.391328   0.587986  -0.027969  -0.017089   0.000007
    16  H    0.000005   0.396955  -0.027969   0.590425  -0.021056   0.000008
    17  H    0.000358   0.391425  -0.017089  -0.021056   0.575000  -0.000019
    18  C    0.376353  -0.000140   0.000007   0.000008  -0.000019   4.465241
    19  H   -0.016866   0.000007   0.000001  -0.000002   0.000000   0.391218
    20  H   -0.020353   0.000008  -0.000003   0.000001  -0.000000   0.397057
    21  H   -0.010404  -0.000019   0.000000  -0.000001   0.000006   0.391567
    22  C   -0.042239  -0.002913  -0.000008   0.000258   0.004963  -0.002870
    23  C    0.000355  -0.001793   0.000395  -0.000441   0.003417   0.000598
    24  C   -0.005077   0.000598   0.000049  -0.000053  -0.000062  -0.001553
    25  C   -0.000078  -0.000193   0.000002   0.000021   0.000249   0.000007
    26  H    0.000198   0.002344   0.000134  -0.000114  -0.000363   0.000056
    27  C    0.000145   0.000011  -0.000001  -0.000001  -0.000039  -0.000187
    28  H    0.000102   0.000056  -0.000004  -0.000001  -0.000003   0.002416
    29  C    0.000007   0.000024  -0.000001   0.000001  -0.000066   0.000025
    30  H    0.000001  -0.000002  -0.000001   0.000007   0.000005   0.000000
    31  H   -0.000003   0.000000   0.000000  -0.000000  -0.000000  -0.000002
    32  H    0.000000  -0.000000  -0.000000  -0.000000   0.000002  -0.000000
              19         20         21         22         23         24
     1  C   -0.007502  -0.001485   0.005237   0.001501  -0.000046  -0.000372
     2  C    0.000560  -0.000136  -0.000638   0.001492  -0.000369  -0.000042
     3  C   -0.000029  -0.000019   0.000012  -0.000484  -0.000012   0.000009
     4  C   -0.000017  -0.000002  -0.000000   0.000011  -0.000000  -0.000000
     5  C    0.000302   0.000066  -0.000001   0.000011  -0.000000  -0.000000
     6  C    0.004086   0.001863   0.000057  -0.000484   0.000009  -0.000012
     7  C    0.003965   0.000401  -0.010202   0.298693  -0.084247  -0.084252
     8  H   -0.000000  -0.000000  -0.000000  -0.000009   0.000000  -0.000000
     9  H   -0.000000   0.000000   0.000000  -0.000000  -0.000000   0.000000
    10  H    0.000008   0.000000  -0.000000  -0.000000   0.000000  -0.000000
    11  H    0.000991   0.000138  -0.000149  -0.000010  -0.000000  -0.000000
    12  N   -0.000028   0.000010   0.000356  -0.042182  -0.005012   0.000369
    13  N   -0.016866  -0.020353  -0.010404  -0.042239   0.000355  -0.005077
    14  C    0.000007   0.000008  -0.000019  -0.002913  -0.001793   0.000598
    15  H    0.000001  -0.000003   0.000000  -0.000008   0.000395   0.000049
    16  H   -0.000002   0.000001  -0.000001   0.000258  -0.000441  -0.000053
    17  H    0.000000  -0.000000   0.000006   0.004963   0.003417  -0.000062
    18  C    0.391218   0.397057   0.391567  -0.002870   0.000598  -0.001553
    19  H    0.587588  -0.027862  -0.017016  -0.000005   0.000047   0.000393
    20  H   -0.027862   0.590471  -0.021221   0.000250  -0.000055  -0.000429
    21  H   -0.017016  -0.021221   0.575259   0.004933  -0.000031   0.003224
    22  C   -0.000005   0.000250   0.004933   5.079658   0.462929   0.463022
    23  C    0.000047  -0.000055  -0.000031   0.462929   4.779031   0.003141
    24  C    0.000393  -0.000429   0.003224   0.463022   0.003141   4.778709
    25  C   -0.000002  -0.000001  -0.000031   0.011188   0.485896  -0.075185
    26  H   -0.000004  -0.000001  -0.000003  -0.049857   0.403404   0.010818
    27  C    0.000001   0.000027   0.000224   0.011286  -0.075226   0.485744
    28  H    0.000133  -0.000111  -0.000391  -0.049784   0.010815   0.403440
    29  C   -0.000001   0.000001  -0.000067  -0.075603   0.005214   0.005265
    30  H    0.000000  -0.000000  -0.000000   0.009243  -0.041779   0.000203
    31  H   -0.000001   0.000008   0.000004   0.009251   0.000202  -0.041755
    32  H   -0.000000  -0.000000   0.000002  -0.000524   0.010177   0.010174
              25         26         27         28         29         30
     1  C    0.000001  -0.000073   0.000020  -0.000323   0.000001  -0.000000
     2  C    0.000019  -0.000319   0.000001  -0.000071   0.000001  -0.000001
     3  C   -0.000000   0.000003  -0.000000  -0.000001   0.000000  -0.000000
     4  C    0.000000  -0.000000   0.000000   0.000000  -0.000000  -0.000000
     5  C    0.000000   0.000000   0.000000  -0.000000  -0.000000  -0.000000
     6  C   -0.000000  -0.000001  -0.000000   0.000003   0.000000   0.000000
     7  C    0.007300  -0.015188   0.007298  -0.015201   0.000747  -0.000449
     8  H    0.000000  -0.000001  -0.000000   0.000000   0.000000  -0.000000
     9  H   -0.000000   0.000000  -0.000000   0.000000  -0.000000  -0.000000
    10  H   -0.000000   0.000000  -0.000000   0.000000  -0.000000   0.000000
    11  H   -0.000000   0.000000   0.000000  -0.000001   0.000000  -0.000000
    12  N    0.000144   0.000128  -0.000078   0.000199   0.000007  -0.000003
    13  N   -0.000078   0.000198   0.000145   0.000102   0.000007   0.000001
    14  C   -0.000193   0.002344   0.000011   0.000056   0.000024  -0.000002
    15  H    0.000002   0.000134  -0.000001  -0.000004  -0.000001  -0.000001
    16  H    0.000021  -0.000114  -0.000001  -0.000001   0.000001   0.000007
    17  H    0.000249  -0.000363  -0.000039  -0.000003  -0.000066   0.000005
    18  C    0.000007   0.000056  -0.000187   0.002416   0.000025   0.000000
    19  H   -0.000002  -0.000004   0.000001   0.000133  -0.000001   0.000000
    20  H   -0.000001  -0.000001   0.000027  -0.000111   0.000001  -0.000000
    21  H   -0.000031  -0.000003   0.000224  -0.000391  -0.000067  -0.000000
    22  C    0.011188  -0.049857   0.011286  -0.049784  -0.075603   0.009243
    23  C    0.485896   0.403404  -0.075226   0.010815   0.005214  -0.041779
    24  C   -0.075185   0.010818   0.485744   0.403440   0.005265   0.000203
    25  C    4.723713  -0.041644   0.012873  -0.000831   0.476150   0.394569
    26  H   -0.041644   0.698515  -0.000829  -0.000152   0.009811  -0.014019
    27  C    0.012873  -0.000829   4.724144  -0.041736   0.475977   0.009168
    28  H   -0.000831  -0.000152  -0.041736   0.698442   0.009822   0.000056
    29  C    0.476150   0.009811   0.475977   0.009822   4.746423  -0.048310
    30  H    0.394569  -0.014019   0.009168   0.000056  -0.048310   0.702662
    31  H    0.009169   0.000056   0.394574  -0.014039  -0.048358  -0.000231
    32  H   -0.047694  -0.000206  -0.047715  -0.000206   0.398870  -0.014204
              31         32
     1  C   -0.000001   0.000000
     2  C   -0.000000   0.000000
     3  C    0.000000  -0.000000
     4  C   -0.000000   0.000000
     5  C   -0.000000   0.000000
     6  C   -0.000000  -0.000000
     7  C   -0.000448   0.000018
     8  H   -0.000000  -0.000000
     9  H    0.000000  -0.000000
    10  H   -0.000000  -0.000000
    11  H   -0.000000  -0.000000
    12  N    0.000001   0.000000
    13  N   -0.000003   0.000000
    14  C    0.000000  -0.000000
    15  H    0.000000  -0.000000
    16  H   -0.000000  -0.000000
    17  H   -0.000000   0.000002
    18  C   -0.000002  -0.000000
    19  H   -0.000001  -0.000000
    20  H    0.000008  -0.000000
    21  H    0.000004   0.000002
    22  C    0.009251  -0.000524
    23  C    0.000202   0.010177
    24  C   -0.041755   0.010174
    25  C    0.009169  -0.047694
    26  H    0.000056  -0.000206
    27  C    0.394574  -0.047715
    28  H   -0.014039  -0.000206
    29  C   -0.048358   0.398870
    30  H   -0.000231  -0.014204
    31  H    0.702705  -0.014203
    32  H   -0.014203   0.702712
 Mulliken charges:
               1
     1  C    0.127337
     2  C    0.127897
     3  C    0.020079
     4  C    0.042197
     5  C    0.042382
     6  C    0.020353
     7  C    0.319132
     8  H    0.007835
     9  H    0.003807
    10  H    0.003805
    11  H    0.007944
    12  N   -0.244899
    13  N   -0.244901
    14  C    0.077004
    15  H    0.079988
    16  H    0.081354
    17  H    0.079255
    18  C    0.077076
    19  H    0.080036
    20  H    0.081378
    21  H    0.079290
    22  C   -0.091716
    23  C    0.043380
    24  C    0.043634
    25  C    0.044354
    26  H   -0.002695
    27  C    0.044319
    28  H   -0.002631
    29  C    0.044060
    30  H    0.003082
    31  H    0.003070
    32  H    0.002796
 Sum of Mulliken charges =   1.00000
 Mulliken charges with hydrogens summed into heavy atoms:
               1
     1  C    0.127337
     2  C    0.127897
     3  C    0.027914
     4  C    0.046004
     5  C    0.046187
     6  C    0.028297
     7  C    0.319132
    12  N   -0.244899
    13  N   -0.244901
    14  C    0.317601
    18  C    0.317780
    22  C   -0.091716
    23  C    0.040684
    24  C    0.041003
    25  C    0.047436
    27  C    0.047389
    29  C    0.046856
 Electronic spatial extent (au):  <R**2>=          34854.3926
 Charge=              1.0000 electrons
 Dipole moment (field-independent basis, Debye):
    X=            -40.5973    Y=              4.8525    Z=              0.3680  Tot=             40.8879
 Quadrupole moment (field-independent basis, Debye-Ang):
   XX=            270.3504   YY=            -56.2350   ZZ=            -94.6864
   XY=            -39.8589   XZ=              1.2967   YZ=              0.3916
 Traceless Quadrupole moment (field-independent basis, Debye-Ang):
   XX=            230.5407   YY=            -96.0447   ZZ=           -134.4961
   XY=            -39.8589   XZ=              1.2967   YZ=              0.3916
 Octapole moment (field-independent basis, Debye-Ang**2):
  XXX=          -1047.2814  YYY=           -190.1604  ZZZ=            -22.9068  XYY=            471.9457
  XXY=            277.2589  XXZ=            -56.0325  XZZ=            798.4057  YZZ=           -117.5750
  YYZ=             -1.2477  XYZ=            -11.1877
 Hexadecapole moment (field-independent basis, Debye-Ang**3):
 XXXX=          -7857.2517 YYYY=          -4003.3138 ZZZZ=           -291.0568 XXXY=          -1581.8398
 XXXZ=            862.5481 YYYX=           1489.8013 YYYZ=            -31.1785 ZZZX=            147.3433
 ZZZY=            -53.4516 XXYY=          -4848.1869 XXZZ=          -6950.6202 YYZZ=           -945.7026
 XXYZ=            158.0554 YYXZ=             18.5497 ZZXY=            931.1074
 N-N= 1.137864702225D+03 E-N=-3.857134611389D+03  KE= 6.850718339367D+02

 Atomic contributions to Alpha molecular orbitals:
 Alpha occ 40 OE=-0.476 is C22-p=0.1495 C24-p=0.1448 C23-p=0.1446 C29-p=0.1441 C25-p=0.1427 C27-p=0.1426
 Alpha occ 41 OE=-0.473 is C5-p=0.1044 C4-p=0.1035
 Alpha occ 42 OE=-0.471 is C3-p=0.1891 H8-s=0.1857 H11-s=0.1766 C6-p=0.1745
 Alpha occ 43 OE=-0.471 is C5-p=0.1238 C4-p=0.1194
 Alpha occ 44 OE=-0.451 is C29-p=0.1136 C22-p=0.1023
 Alpha occ 45 OE=-0.445 is C23-p=0.1630 C24-p=0.1627 C27-p=0.1380 C25-p=0.1376
 Alpha occ 46 OE=-0.429 is C14-p=0.1828 C18-p=0.1755
 Alpha occ 47 OE=-0.428 is C18-p=0.1648 C14-p=0.1573 H21-s=0.1115 H17-s=0.1080
 Alpha occ 48 OE=-0.424 is C18-p=0.1695 C14-p=0.1691
 Alpha occ 49 OE=-0.397 is C22-p=0.1391
 Alpha occ 50 OE=-0.393 is H9-s=0.1155 H10-s=0.1154 C5-p=0.1090 C4-p=0.1090
 Alpha occ 51 OE=-0.380 is C5-p=0.1318 C4-p=0.1317 H8-s=0.1077 H11-s=0.1077
 Alpha occ 52 OE=-0.377 is C4-p=0.0914
 Alpha occ 53 OE=-0.376 is H32-s=0.1601 C29-p=0.1234 C23-p=0.1085 C24-p=0.1080 C25-p=0.1051 C27-p=0.1043
 Alpha occ 54 OE=-0.366 is C29-p=0.0810
 Alpha occ 55 OE=-0.339 is N13-p=0.2083 N12-p=0.2079
 Alpha occ 56 OE=-0.293 is C29-p=0.2409 C22-p=0.2205
 Alpha occ 57 OE=-0.281 is C24-p=0.2513 C23-p=0.2510 C25-p=0.2297 C27-p=0.2293
 Alpha occ 58 OE=-0.267 is C3-p=0.2634 C6-p=0.2633 N12-p=0.1020 N13-p=0.1020
 Alpha occ 59 OE=-0.264 is C4-p=0.1474 C5-p=0.1472 C1-p=0.1437 C2-p=0.1436
 Alpha vir 60 OE=-0.078 is C7-p=0.2431
 Alpha vir 61 OE=-0.035 is C29-p=0.1653 C22-p=0.1641 C6-p=0.1304 C3-p=0.1303
 Alpha vir 62 OE=-0.034 is C25-p=0.2418 C27-p=0.2362 C24-p=0.2140 C23-p=0.2077
 Alpha vir 63 OE=-0.020 is C5-p=0.2344 C4-p=0.2333 C2-p=0.1837 C1-p=0.1827
 Alpha vir 64 OE=-0.001 is C7-p=0.2172
 Alpha vir 65 OE=0.042 is H28-s=0.1849 H26-s=0.1847 H20-s=0.1219 H16-s=0.1210
 Alpha vir 66 OE=0.056 is H9-s=0.2013 H10-s=0.2010 H8-s=0.1578 H11-s=0.1577
 Alpha vir 67 OE=0.062 is H16-s=0.1849 H20-s=0.1828 H15-s=0.1604 H19-s=0.1584 H11-s=0.1248 H8-s=0.1246
 Alpha vir 68 OE=0.074 is H32-s=0.2015 H30-s=0.1409 H31-s=0.1386 H10-s=0.1182 H9-s=0.1182
 Alpha vir 69 OE=0.091 is H28-s=0.1865 H26-s=0.1828 H30-s=0.1686 H31-s=0.1661 H11-s=0.1460 H8-s=0.1431
 Alpha vir 70 OE=0.100 is H21-s=0.2524 H17-s=0.2011 C18-p=0.1415 C14-p=0.1376
 Alpha vir 71 OE=0.102 is H10-s=0.2035 H21-s=0.1501 H30-s=0.1117
 Alpha vir 72 OE=0.102 is H17-s=0.2013 H9-s=0.1751 H26-s=0.1165
 Alpha vir 73 OE=0.109 is H32-s=0.1968 H19-s=0.1254 H15-s=0.1158
 Alpha vir 74 OE=0.111 is H21-s=0.1349 H17-s=0.1341 C29-p=0.1123
 Alpha vir 75 OE=0.117 is H15-s=0.1337 H19-s=0.1187 H17-s=0.1027
 Alpha vir 76 OE=0.124 is H20-s=0.1908 H16-s=0.1864 H31-s=0.1447 H30-s=0.1354
 Alpha vir 77 OE=0.126 is H32-s=0.1817 H16-s=0.1403 H20-s=0.1281
 Alpha vir 78 OE=0.134 is H32-s=0.1871
 Alpha vir 79 OE=0.138 is H8-s=0.1729 H11-s=0.1594 H15-s=0.1064
 
 No NMR shielding tensors so no spin-rotation constants.
 Leave Link  601 at Tue Mar 24 18:21:01 2026, MaxMem=  2684354560 cpu:              10.0 elap:               0.3
 (Enter /home/programes/qq/gaussian/g16.A03/g16/l9999.exe)
 1\1\GINC-MAGINET239\SP\RB3LYP\Gen\C15H15N2(1+)\SOLE\24-Mar-2026\0\\#p 
 b3lyp/gen EmpiricalDispersion=GD3BJ pseudo=read scrf=(solvent=n,n-DiMe
 thylFormamide,pcm,read) nosymm pop=(Orbitals=20) geom=checkpoint guess
 =read\\Title Card Required\\1,1\C,0,-8.9632962202,2.926586,0.081965868
 4\C,0,-7.5658067676,2.7844898648,0.1246662269\C,0,-6.714343982,3.89143
 40256,0.162933649\C,0,-7.323877553,5.1449484776,0.1565753046\C,0,-8.72
 72663072,5.287602867,0.1144640214\C,0,-9.5755780734,4.1822914931,0.076
 015462\C,0,-8.4779767845,0.7451794627,0.073751281\H,0,-5.6311675441,3.
 7821229287,0.1995619291\H,0,-6.6996048811,6.0388382203,0.1861287348\H,
 0,-9.1596006942,6.2889323243,0.110530076\H,0,-10.6586224451,4.29283724
 78,0.0392747691\N,0,-7.3043685071,1.4149895925,0.1131366564\N,0,-9.493
 5524594,1.6373373601,0.0568572411\C,0,-5.96317964,0.8361914374,0.07134
 58408\H,0,-5.3761071179,1.3649707077,-0.6905405343\H,0,-5.4791242352,0
 .9425831058,1.0515721855\H,0,-6.0353329637,-0.2225224278,-0.1948418381
 \C,0,-10.9233790016,1.3367310328,0.0854684229\H,0,-11.3987210553,1.967
 2303318,0.8475618843\H,0,-11.369910548,1.5430410761,-0.8965733359\H,0,
 -11.0651835561,0.283044525,0.3436879745\C,0,-8.6264283482,-0.713876573
 1,0.0528355307\C,0,-8.0615263429,-1.491212321,1.0785623289\C,0,-9.3340
 04331,-1.3318527503,-0.9926871992\C,0,-8.209087048,-2.877957837,1.0560
 381495\H,0,-7.5267655685,-1.0093794387,1.8980248308\C,0,-9.4716711822,
 -2.719690718,-1.0082338843\H,0,-9.756549924,-0.7297415378,-1.798031085
 2\C,0,-8.911919542,-3.4921454047,0.0145052916\H,0,-7.7769116614,-3.479
 5595417,1.8568704229\H,0,-10.0147727275,-3.1986677167,-1.8241209897\H,
 0,-9.0237838979,-4.5776651843,-0.0002841858\\Version=ES64L-G16RevA.03\
 HF=-690.116303\RMSD=9.702e-09\Dipole=-0.0023643,-0.0235712,-0.0014363\
 Quadrupole=171.4013772,-71.4068557,-99.9945215,-29.6341308,0.964051,0.
 2911202\PG=C01 [X(C15H15N2)]\\@


 In the beginning the Universe was created.
 This has made a lot of people very angry
 and been widely regarded as a bad move.
                               -D.Adams
 Job cpu time:       0 days  0 hours  3 minutes 20.6 seconds.
 Elapsed time:       0 days  0 hours  0 minutes  5.6 seconds.
 File lengths (MBytes):  RWF=    153 Int=      0 D2E=      0 Chk=     20 Scr=      1
 Normal termination of Gaussian 16 at Tue Mar 24 18:21:01 2026.
