 Set GAUSS_PDEF to "32".
 Set GAUSS_WDEF to "maginet231".
 Entering Gaussian System, Link 0=g16
 Initial command:
 /home/programes/qq/gaussian/g16.A03/g16/l1.exe "/scratch/108212/Gau-5849.inp" -scrdir="/scratch/108212/"
 Default linda workers: maginet231
 Default is to use  32 SMP processors on each worker.
 Entering Link 1 = /home/programes/qq/gaussian/g16.A03/g16/l1.exe PID=      5850.
  
 Copyright (c) 1988,1990,1992,1993,1995,1998,2003,2009,2016,
            Gaussian, Inc.  All Rights Reserved.
  
 This is part of the Gaussian(R) 16 program.  It is based on
 the Gaussian(R) 09 system (copyright 2009, Gaussian, Inc.),
 the Gaussian(R) 03 system (copyright 2003, Gaussian, Inc.),
 the Gaussian(R) 98 system (copyright 1998, Gaussian, Inc.),
 the Gaussian(R) 94 system (copyright 1995, Gaussian, Inc.),
 the Gaussian 92(TM) system (copyright 1992, Gaussian, Inc.),
 the Gaussian 90(TM) system (copyright 1990, Gaussian, Inc.),
 the Gaussian 88(TM) system (copyright 1988, Gaussian, Inc.),
 the Gaussian 86(TM) system (copyright 1986, Carnegie Mellon
 University), and the Gaussian 82(TM) system (copyright 1983,
 Carnegie Mellon University). Gaussian is a federally registered
 trademark of Gaussian, Inc.
  
 This software contains proprietary and confidential information,
 including trade secrets, belonging to Gaussian, Inc.
  
 This software is provided under written license and may be
 used, copied, transmitted, or stored only in accord with that
 written license.
  
 The following legend is applicable only to US Government
 contracts under FAR:
  
                    RESTRICTED RIGHTS LEGEND
  
 Use, reproduction and disclosure by the US Government is
 subject to restrictions as set forth in subparagraphs (a)
 and (c) of the Commercial Computer Software - Restricted
 Rights clause in FAR 52.227-19.
  
 Gaussian, Inc.
 340 Quinnipiac St., Bldg. 40, Wallingford CT 06492
  
  
 ---------------------------------------------------------------
 Warning -- This program may not be used in any manner that
 competes with the business of Gaussian, Inc. or will provide
 assistance to any competitor of Gaussian, Inc.  The licensee
 of this program is prohibited from giving any competitor of
 Gaussian, Inc. access to this program.  By using this program,
 the user acknowledges that Gaussian, Inc. is engaged in the
 business of creating and licensing software in the field of
 computational chemistry and represents and warrants to the
 licensee that it is not a competitor of Gaussian, Inc. and that
 it will not use this program in any manner prohibited above.
 ---------------------------------------------------------------
  

 Cite this work as:
 Gaussian 16, Revision A.03,
 M. J. Frisch, G. W. Trucks, H. B. Schlegel, G. E. Scuseria, 
 M. A. Robb, J. R. Cheeseman, G. Scalmani, V. Barone, 
 G. A. Petersson, H. Nakatsuji, X. Li, M. Caricato, A. V. Marenich, 
 J. Bloino, B. G. Janesko, R. Gomperts, B. Mennucci, H. P. Hratchian, 
 J. V. Ortiz, A. F. Izmaylov, J. L. Sonnenberg, D. Williams-Young, 
 F. Ding, F. Lipparini, F. Egidi, J. Goings, B. Peng, A. Petrone, 
 T. Henderson, D. Ranasinghe, V. G. Zakrzewski, J. Gao, N. Rega, 
 G. Zheng, W. Liang, M. Hada, M. Ehara, K. Toyota, R. Fukuda, 
 J. Hasegawa, M. Ishida, T. Nakajima, Y. Honda, O. Kitao, H. Nakai, 
 T. Vreven, K. Throssell, J. A. Montgomery, Jr., J. E. Peralta, 
 F. Ogliaro, M. J. Bearpark, J. J. Heyd, E. N. Brothers, K. N. Kudin, 
 V. N. Staroverov, T. A. Keith, R. Kobayashi, J. Normand, 
 K. Raghavachari, A. P. Rendell, J. C. Burant, S. S. Iyengar, 
 J. Tomasi, M. Cossi, J. M. Millam, M. Klene, C. Adamo, R. Cammi, 
 J. W. Ochterski, R. L. Martin, K. Morokuma, O. Farkas, 
 J. B. Foresman, and D. J. Fox, Gaussian, Inc., Wallingford CT, 2016.
 
 ******************************************
 Gaussian 16:  ES64L-G16RevA.03 25-Dec-2016
                24-Mar-2026 
 ******************************************
 %mem=20GB
 %chk=bi_cat_eq.chk
 SetLPE:    new flags="-opt 'Tsnet.Node.lindarsharg: ssh'  -nodelist 'maginet231' -env GAUSS_MDEF=2684354560 -env GAUSS_EXEDIR="/home/programes/qq/gaussian/g16.A03/g16/bsd:/home/programes/qq/gaussian/g16.A03/g16""
 Will use up to    1 processors via Linda.
 ----------------------------------------------------------------------
 #p b3lyp/gen EmpiricalDispersion=GD3BJ pseudo=read scrf=(solvent=n,n-D
 iMethylFormamide,pcm,read) nosymm pop=(Orbitals=20) geom=checkpoint gu
 ess=read
 ----------------------------------------------------------------------
 1/29=2,38=1,40=2,172=1/1;
 2/12=2,15=1,40=1/2;
 3/5=7,11=2,14=-4,16=1,17=8,25=1,30=1,70=2203,72=148,74=-5,116=-2,124=41/1,2,3;
 4/5=1/1;
 5/5=2,38=6,53=148/2;
 6/7=2,8=2,9=2,10=2,28=1,96=20/1;
 99/5=1,9=1/99;
 Leave Link    1 at Tue Mar 24 18:23:27 2026, MaxMem=  2684354560 cpu:               0.9 elap:               0.0
 (Enter /home/programes/qq/gaussian/g16.A03/g16/l101.exe)
 -------------------
 Title Card Required
 -------------------
 Structure from the checkpoint file:  "bi_cat_eq.chk"
 Charge =  0 Multiplicity = 2
 Redundant internal coordinates found in file.  (old form).
 C,0,-8.9632962202,2.926586,0.0819658684
 C,0,-7.5658067676,2.7844898648,0.1246662269
 C,0,-6.714343982,3.8914340256,0.162933649
 C,0,-7.323877553,5.1449484776,0.1565753046
 C,0,-8.7272663072,5.287602867,0.1144640214
 C,0,-9.5755780734,4.1822914931,0.076015462
 C,0,-8.4779767845,0.7451794627,0.073751281
 H,0,-5.6311675441,3.7821229287,0.1995619291
 H,0,-6.6996048811,6.0388382203,0.1861287348
 H,0,-9.1596006942,6.2889323243,0.110530076
 H,0,-10.6586224451,4.2928372478,0.0392747691
 N,0,-7.3043685071,1.4149895925,0.1131366564
 N,0,-9.4935524594,1.6373373601,0.0568572411
 C,0,-5.96317964,0.8361914374,0.0713458408
 H,0,-5.3761071179,1.3649707077,-0.6905405343
 H,0,-5.4791242352,0.9425831058,1.0515721855
 H,0,-6.0353329637,-0.2225224278,-0.1948418381
 C,0,-10.9233790016,1.3367310328,0.0854684229
 H,0,-11.3987210553,1.9672303318,0.8475618843
 H,0,-11.369910548,1.5430410761,-0.8965733359
 H,0,-11.0651835561,0.283044525,0.3436879745
 C,0,-8.6264283482,-0.7138765731,0.0528355307
 C,0,-8.0615263429,-1.491212321,1.0785623289
 C,0,-9.334004331,-1.3318527503,-0.9926871992
 C,0,-8.209087048,-2.877957837,1.0560381495
 H,0,-7.5267655685,-1.0093794387,1.8980248308
 C,0,-9.4716711822,-2.719690718,-1.0082338843
 H,0,-9.756549924,-0.7297415378,-1.7980310852
 C,0,-8.911919542,-3.4921454047,0.0145052916
 H,0,-7.7769116614,-3.4795595417,1.8568704229
 H,0,-10.0147727275,-3.1986677167,-1.8241209897
 H,0,-9.0237838979,-4.5776651843,-0.0002841858
 Recover connectivity data from disk.
 ITRead=  0  0  0  0  0  0  0  0  0  0  0  0  0  0  0  0  0  0  0  0
 ITRead=  0  0  0  0  0  0  0  0  0  0  0  0
 MicOpt= -1 -1 -1 -1 -1 -1 -1 -1 -1 -1 -1 -1 -1 -1 -1 -1 -1 -1 -1 -1
 MicOpt= -1 -1 -1 -1 -1 -1 -1 -1 -1 -1 -1 -1
                           ----------------------------
                           !    Current Parameters    !
                           ! (Angstroms and Degrees)  !
 --------------------------                            --------------------------
 ! Name  Definition              Value                                          !
 --------------------------------------------------------------------------------
 ! R1    R(1,2)                  1.4053                                         !
 ! R2    R(1,6)                  1.397                                          !
 ! R3    R(1,13)                 1.3943                                         !
 ! R4    R(2,3)                  1.3971                                         !
 ! R5    R(2,12)                 1.3943                                         !
 ! R6    R(3,4)                  1.3939                                         !
 ! R7    R(3,8)                  1.0893                                         !
 ! R8    R(4,5)                  1.4112                                         !
 ! R9    R(4,9)                  1.0907                                         !
 ! R10   R(5,6)                  1.3939                                         !
 ! R11   R(5,10)                 1.0907                                         !
 ! R12   R(6,11)                 1.0893                                         !
 ! R13   R(7,12)                 1.3519                                         !
 ! R14   R(7,13)                 1.3519                                         !
 ! R15   R(7,22)                 1.4667                                         !
 ! R16   R(12,14)                1.4613                                         !
 ! R17   R(13,18)                1.4614                                         !
 ! R18   R(14,15)                1.0976                                         !
 ! R19   R(14,16)                1.0984                                         !
 ! R20   R(14,17)                1.094                                          !
 ! R21   R(18,19)                1.0974                                         !
 ! R22   R(18,20)                1.0983                                         !
 ! R23   R(18,21)                1.0941                                         !
 ! R24   R(22,23)                1.4055                                         !
 ! R25   R(22,24)                1.4056                                         !
 ! R26   R(23,25)                1.3948                                         !
 ! R27   R(23,26)                1.0907                                         !
 ! R28   R(24,27)                1.3947                                         !
 ! R29   R(24,28)                1.0907                                         !
 ! R30   R(25,29)                1.3986                                         !
 ! R31   R(25,30)                1.0909                                         !
 ! R32   R(27,29)                1.3986                                         !
 ! R33   R(27,31)                1.0909                                         !
 ! R34   R(29,32)                1.0914                                         !
 ! A1    A(2,1,6)              121.7917                                         !
 ! A2    A(2,1,13)             106.5731                                         !
 ! A3    A(6,1,13)             131.6346                                         !
 ! A4    A(1,2,3)              121.7881                                         !
 ! A5    A(1,2,12)             106.5901                                         !
 ! A6    A(3,2,12)             131.6212                                         !
 ! A7    A(2,3,4)              116.4817                                         !
 ! A8    A(2,3,8)              121.8336                                         !
 ! A9    A(4,3,8)              121.6844                                         !
 ! A10   A(3,4,5)              121.729                                          !
 ! A11   A(3,4,9)              119.1185                                         !
 ! A12   A(5,4,9)              119.1525                                         !
 ! A13   A(4,5,6)              121.7278                                         !
 ! A14   A(4,5,10)             119.1496                                         !
 ! A15   A(6,5,10)             119.1226                                         !
 ! A16   A(1,6,5)              116.4817                                         !
 ! A17   A(1,6,11)             121.811                                          !
 ! A18   A(5,6,11)             121.7069                                         !
 ! A19   A(12,7,13)            108.9991                                         !
 ! A20   A(12,7,22)            125.5319                                         !
 ! A21   A(13,7,22)            125.4691                                         !
 ! A22   A(2,12,7)             108.9124                                         !
 ! A23   A(2,12,14)            124.1498                                         !
 ! A24   A(7,12,14)            126.8469                                         !
 ! A25   A(1,13,7)             108.9232                                         !
 ! A26   A(1,13,18)            124.1916                                         !
 ! A27   A(7,13,18)            126.7995                                         !
 ! A28   A(12,14,15)           108.6586                                         !
 ! A29   A(12,14,16)           109.9117                                         !
 ! A30   A(12,14,17)           109.2512                                         !
 ! A31   A(15,14,16)           109.6992                                         !
 ! A32   A(15,14,17)           109.4259                                         !
 ! A33   A(16,14,17)           109.8724                                         !
 ! A34   A(13,18,19)           108.6158                                         !
 ! A35   A(13,18,20)           109.9763                                         !
 ! A36   A(13,18,21)           109.2407                                         !
 ! A37   A(19,18,20)           109.6883                                         !
 ! A38   A(19,18,21)           109.4682                                         !
 ! A39   A(20,18,21)           109.8299                                         !
 ! A40   A(7,22,23)            119.939                                          !
 ! A41   A(7,22,24)            119.928                                          !
 ! A42   A(23,22,24)           120.133                                          !
 ! A43   A(22,23,25)           119.7078                                         !
 ! A44   A(22,23,26)           120.0682                                         !
 ! A45   A(25,23,26)           120.2137                                         !
 ! A46   A(22,24,27)           119.7002                                         !
 ! A47   A(22,24,28)           120.1015                                         !
 ! A48   A(27,24,28)           120.1877                                         !
 ! A49   A(23,25,29)           120.1209                                         !
 ! A50   A(23,25,30)           119.6397                                         !
 ! A51   A(29,25,30)           120.239                                          !
 ! A52   A(24,27,29)           120.1277                                         !
 ! A53   A(24,27,31)           119.6284                                         !
 ! A54   A(29,27,31)           120.2434                                         !
 ! A55   A(25,29,27)           120.2098                                         !
 ! A56   A(25,29,32)           119.8944                                         !
 ! A57   A(27,29,32)           119.8958                                         !
 ! D1    D(6,1,2,3)             -0.0245                                         !
 ! D2    D(6,1,2,12)          -179.7788                                         !
 ! D3    D(13,1,2,3)          -179.7909                                         !
 ! D4    D(13,1,2,12)            0.4548                                         !
 ! D5    D(2,1,6,5)              0.0096                                         !
 ! D6    D(2,1,6,11)           179.774                                          !
 ! D7    D(13,1,6,5)           179.71                                           !
 ! D8    D(13,1,6,11)           -0.5256                                         !
 ! D9    D(2,1,13,7)            -0.3988                                         !
 ! D10   D(2,1,13,18)          176.4324                                         !
 ! D11   D(6,1,13,7)           179.8669                                         !
 ! D12   D(6,1,13,18)           -3.302                                          !
 ! D13   D(1,2,3,4)              0.0016                                         !
 ! D14   D(1,2,3,8)            179.782                                          !
 ! D15   D(12,2,3,4)           179.6866                                         !
 ! D16   D(12,2,3,8)            -0.533                                          !
 ! D17   D(1,2,12,7)            -0.3557                                         !
 ! D18   D(1,2,12,14)          176.3831                                         !
 ! D19   D(3,2,12,7)           179.9237                                         !
 ! D20   D(3,2,12,14)           -3.3375                                         !
 ! D21   D(2,3,4,5)              0.0351                                         !
 ! D22   D(2,3,4,9)            179.9609                                         !
 ! D23   D(8,3,4,5)           -179.7456                                         !
 ! D24   D(8,3,4,9)              0.1802                                         !
 ! D25   D(3,4,5,6)             -0.0513                                         !
 ! D26   D(3,4,5,10)          -179.9671                                         !
 ! D27   D(9,4,5,6)           -179.9771                                         !
 ! D28   D(9,4,5,10)             0.1071                                         !
 ! D29   D(4,5,6,1)              0.0271                                         !
 ! D30   D(4,5,6,11)          -179.7376                                         !
 ! D31   D(10,5,6,1)           179.9429                                         !
 ! D32   D(10,5,6,11)            0.1782                                         !
 ! D33   D(13,7,12,2)            0.1115                                         !
 ! D34   D(13,7,12,14)        -176.5158                                         !
 ! D35   D(22,7,12,2)         -179.883                                          !
 ! D36   D(22,7,12,14)           3.4898                                         !
 ! D37   D(12,7,13,1)            0.1827                                         !
 ! D38   D(12,7,13,18)        -176.5437                                         !
 ! D39   D(22,7,13,1)         -179.8228                                         !
 ! D40   D(22,7,13,18)           3.4507                                         !
 ! D41   D(12,7,22,23)          56.7944                                         !
 ! D42   D(12,7,22,24)        -123.2389                                         !
 ! D43   D(13,7,22,23)        -123.1992                                         !
 ! D44   D(13,7,22,24)          56.7675                                         !
 ! D45   D(2,12,14,15)         -45.787                                          !
 ! D46   D(2,12,14,16)          74.2606                                         !
 ! D47   D(2,12,14,17)        -165.1117                                         !
 ! D48   D(7,12,14,15)         130.3569                                         !
 ! D49   D(7,12,14,16)        -109.5956                                         !
 ! D50   D(7,12,14,17)          11.0322                                         !
 ! D51   D(1,13,18,19)         -44.5704                                         !
 ! D52   D(1,13,18,20)          75.4762                                         !
 ! D53   D(1,13,18,21)        -163.9149                                         !
 ! D54   D(7,13,18,19)         131.6853                                         !
 ! D55   D(7,13,18,20)        -108.268                                          !
 ! D56   D(7,13,18,21)          12.3409                                         !
 ! D57   D(7,22,23,25)         179.8068                                         !
 ! D58   D(7,22,23,26)           0.9734                                         !
 ! D59   D(24,22,23,25)         -0.1598                                         !
 ! D60   D(24,22,23,26)       -178.9933                                         !
 ! D61   D(7,22,24,27)         179.9666                                         !
 ! D62   D(7,22,24,28)           1.1516                                         !
 ! D63   D(23,22,24,27)         -0.0668                                         !
 ! D64   D(23,22,24,28)       -178.8817                                         !
 ! D65   D(22,23,25,29)          0.2363                                         !
 ! D66   D(22,23,25,30)       -179.5206                                         !
 ! D67   D(26,23,25,29)        179.068                                          !
 ! D68   D(26,23,25,30)         -0.6889                                         !
 ! D69   D(22,24,27,29)          0.2171                                         !
 ! D70   D(22,24,27,31)       -179.5518                                         !
 ! D71   D(28,24,27,29)        179.031                                          !
 ! D72   D(28,24,27,31)         -0.7379                                         !
 ! D73   D(23,25,29,27)         -0.087                                          !
 ! D74   D(23,25,29,32)        179.9031                                         !
 ! D75   D(30,25,29,27)        179.6685                                         !
 ! D76   D(30,25,29,32)         -0.3414                                         !
 ! D77   D(24,27,29,25)         -0.1416                                         !
 ! D78   D(24,27,29,32)        179.8683                                         !
 ! D79   D(31,27,29,25)        179.6259                                         !
 ! D80   D(31,27,29,32)         -0.3642                                         !
 --------------------------------------------------------------------------------
 NAtoms=     32 NQM=       32 NQMF=       0 NMMI=      0 NMMIF=      0
                NMic=       0 NMicF=      0.
                    Isotopes and Nuclear Properties:
 (Nuclear quadrupole moments (NQMom) in fm**2, nuclear magnetic moments (NMagM)
  in nuclear magnetons)

  Atom         1           2           3           4           5           6           7           8           9          10
 IAtWgt=          12          12          12          12          12          12          12           1           1           1
 AtmWgt=  12.0000000  12.0000000  12.0000000  12.0000000  12.0000000  12.0000000  12.0000000   1.0078250   1.0078250   1.0078250
 NucSpn=           0           0           0           0           0           0           0           1           1           1
 AtZEff=   3.6000000   3.6000000   3.6000000   3.6000000   3.6000000   3.6000000   3.6000000   1.0000000   1.0000000   1.0000000
 NQMom=    0.0000000   0.0000000   0.0000000   0.0000000   0.0000000   0.0000000   0.0000000   0.0000000   0.0000000   0.0000000
 NMagM=    0.0000000   0.0000000   0.0000000   0.0000000   0.0000000   0.0000000   0.0000000   2.7928460   2.7928460   2.7928460
 AtZNuc=   6.0000000   6.0000000   6.0000000   6.0000000   6.0000000   6.0000000   6.0000000   1.0000000   1.0000000   1.0000000

  Atom        11          12          13          14          15          16          17          18          19          20
 IAtWgt=           1          14          14          12           1           1           1          12           1           1
 AtmWgt=   1.0078250  14.0030740  14.0030740  12.0000000   1.0078250   1.0078250   1.0078250  12.0000000   1.0078250   1.0078250
 NucSpn=           1           2           2           0           1           1           1           0           1           1
 AtZEff=   1.0000000   4.5500000   4.5500000   3.6000000   1.0000000   1.0000000   1.0000000   3.6000000   1.0000000   1.0000000
 NQMom=    0.0000000   2.0440000   2.0440000   0.0000000   0.0000000   0.0000000   0.0000000   0.0000000   0.0000000   0.0000000
 NMagM=    2.7928460   0.4037610   0.4037610   0.0000000   2.7928460   2.7928460   2.7928460   0.0000000   2.7928460   2.7928460
 AtZNuc=   1.0000000   7.0000000   7.0000000   6.0000000   1.0000000   1.0000000   1.0000000   6.0000000   1.0000000   1.0000000

  Atom        21          22          23          24          25          26          27          28          29          30
 IAtWgt=           1          12          12          12          12           1          12           1          12           1
 AtmWgt=   1.0078250  12.0000000  12.0000000  12.0000000  12.0000000   1.0078250  12.0000000   1.0078250  12.0000000   1.0078250
 NucSpn=           1           0           0           0           0           1           0           1           0           1
 AtZEff=   1.0000000   3.6000000   3.6000000   3.6000000   3.6000000   1.0000000   3.6000000   1.0000000   3.6000000   1.0000000
 NQMom=    0.0000000   0.0000000   0.0000000   0.0000000   0.0000000   0.0000000   0.0000000   0.0000000   0.0000000   0.0000000
 NMagM=    2.7928460   0.0000000   0.0000000   0.0000000   0.0000000   2.7928460   0.0000000   2.7928460   0.0000000   2.7928460
 AtZNuc=   1.0000000   6.0000000   6.0000000   6.0000000   6.0000000   1.0000000   6.0000000   1.0000000   6.0000000   1.0000000

  Atom        31          32
 IAtWgt=           1           1
 AtmWgt=   1.0078250   1.0078250
 NucSpn=           1           1
 AtZEff=   1.0000000   1.0000000
 NQMom=    0.0000000   0.0000000
 NMagM=    2.7928460   2.7928460
 AtZNuc=   1.0000000   1.0000000
 Leave Link  101 at Tue Mar 24 18:23:27 2026, MaxMem=  2684354560 cpu:               3.4 elap:               0.1
 (Enter /home/programes/qq/gaussian/g16.A03/g16/l202.exe)
                          Input orientation:                          
 ---------------------------------------------------------------------
 Center     Atomic      Atomic             Coordinates (Angstroms)
 Number     Number       Type             X           Y           Z
 ---------------------------------------------------------------------
      1          6           0       -8.963296    2.926586    0.081966
      2          6           0       -7.565807    2.784490    0.124666
      3          6           0       -6.714344    3.891434    0.162934
      4          6           0       -7.323878    5.144948    0.156575
      5          6           0       -8.727266    5.287603    0.114464
      6          6           0       -9.575578    4.182291    0.076015
      7          6           0       -8.477977    0.745179    0.073751
      8          1           0       -5.631168    3.782123    0.199562
      9          1           0       -6.699605    6.038838    0.186129
     10          1           0       -9.159601    6.288932    0.110530
     11          1           0      -10.658622    4.292837    0.039275
     12          7           0       -7.304369    1.414990    0.113137
     13          7           0       -9.493552    1.637337    0.056857
     14          6           0       -5.963180    0.836191    0.071346
     15          1           0       -5.376107    1.364971   -0.690541
     16          1           0       -5.479124    0.942583    1.051572
     17          1           0       -6.035333   -0.222522   -0.194842
     18          6           0      -10.923379    1.336731    0.085468
     19          1           0      -11.398721    1.967230    0.847562
     20          1           0      -11.369911    1.543041   -0.896573
     21          1           0      -11.065184    0.283045    0.343688
     22          6           0       -8.626428   -0.713877    0.052836
     23          6           0       -8.061526   -1.491212    1.078562
     24          6           0       -9.334004   -1.331853   -0.992687
     25          6           0       -8.209087   -2.877958    1.056038
     26          1           0       -7.526766   -1.009379    1.898025
     27          6           0       -9.471671   -2.719691   -1.008234
     28          1           0       -9.756550   -0.729742   -1.798031
     29          6           0       -8.911920   -3.492145    0.014505
     30          1           0       -7.776912   -3.479560    1.856870
     31          1           0      -10.014773   -3.198668   -1.824121
     32          1           0       -9.023784   -4.577665   -0.000284
 ---------------------------------------------------------------------
                    Distance matrix (angstroms):
                    1          2          3          4          5
     1  C    0.000000
     2  C    1.405344   0.000000
     3  C    2.448525   1.397061   0.000000
     4  C    2.759419   2.373039   1.393869   0.000000
     5  C    2.373008   2.759469   2.450203   1.411249   0.000000
     6  C    1.397040   2.448550   2.877293   2.450174   1.393852
     7  C    2.234757   2.234599   3.607946   4.549371   4.549441
     8  H    3.442216   2.178006   1.089294   2.173570   3.443768
     9  H    3.849839   3.368214   2.147580   1.090701   2.163539
    10  H    3.368193   3.849870   3.424912   2.163492   1.090683
    11  H    2.177750   3.442080   3.966579   3.443890   2.173787
    12  N    2.244535   1.394279   2.546249   3.730263   4.125745
    13  N    1.394261   2.244273   3.579973   4.125623   3.730275
    14  C    3.656578   2.523316   3.147562   4.519309   5.239952
    15  H    3.987898   2.733931   2.983674   4.335856   5.221623
    16  H    4.125028   2.933602   3.318308   4.675897   5.505252
    17  H    4.308883   3.389183   4.184937   5.531147   6.140330
    18  C    2.523802   3.656615   4.924275   5.240609   4.520303
    19  H    2.727232   3.985188   5.110251   5.213416   4.324231
    20  H    2.943387   4.129810   5.320884   5.518446   4.693347
    21  H    3.387439   4.307068   5.655347   6.137629   5.528472
    22  C    3.656131   3.656316   4.987692   6.002769   6.002643
    23  C    4.617720   4.408774   5.623714   6.740387   6.879319
    24  C    4.407562   4.617280   5.956577   6.878253   6.738776
    25  C    5.933833   5.774476   6.989747   8.121555   8.235985
    26  H    4.566565   4.188051   5.261990   6.399184   6.653892
    27  C    5.772991   5.933952   7.258199   8.235432   8.119812
    28  H    4.187167   4.565736   5.869895   6.652095   6.397304
    29  C    6.419291   6.420304   7.705103   8.783021   8.782259
    30  H    6.752518   6.502570   7.637409   8.802181   8.989009
    31  H    6.500577   6.752287   8.069124   8.987770   8.799578
    32  H    7.504946   7.506173   8.779852   9.871348   9.870390
                    6          7          8          9         10
     6  C    0.000000
     7  C    3.608112   0.000000
     8  H    3.966582   4.164514   0.000000
     9  H    3.424925   5.585522   2.496899   0.000000
    10  H    2.147595   5.585621   4.329187   2.473831   0.000000
    11  H    1.089291   4.164406   5.055870   4.329423   2.497306
    12  N    3.580186   1.351870   2.900067   4.663801   5.215095
    13  N    2.546348   1.351897   4.420236   5.214985   4.663876
    14  C    4.924005   2.516445   2.967353   5.255762   6.320682
    15  H    5.114730   3.254209   2.588429   4.936115   6.261145
    16  H    5.313036   3.160414   2.968506   5.311345   6.558576
    17  H    5.657657   2.641041   4.044266   6.308013   7.228647
    18  C    3.148630   2.515962   5.830991   6.321409   5.256980
    19  H    2.970796   3.259285   6.080988   6.252774   4.922802
    20  H    3.336345   3.152998   6.256850   6.572381   5.331342
    21  H    4.182667   2.641983   6.464739   7.225805   6.305259
    22  C    4.987372   1.466738   5.404362   7.023501   7.023314
    23  C    5.957021   2.486870   5.872593   7.704085   7.916660
    24  C    5.621945   2.486793   6.425356   7.915602   7.702199
    25  C    7.257745   3.763551   7.192767   9.085402   9.264412
    26  H    5.871184   2.703933   5.425547   7.300148   7.689385
    27  C    6.987399   3.763435   7.647341   9.264053   9.083188
    28  H    5.260501   2.704387   6.431647   7.687358   7.297995
    29  C    7.703324   4.259899   7.982015   9.785880   9.784684
    30  H    8.069114   4.638904   7.751317   9.723778  10.019230
    31  H    7.634263   4.638706   8.487799  10.018131   9.720532
    32  H    8.777650   5.351267   9.024181  10.869531  10.868011
                   11         12         13         14         15
    11  H    0.000000
    12  N    4.420236   0.000000
    13  N    2.899893   2.201166   0.000000
    14  C    5.830661   1.461349   3.620163   0.000000
    15  H    6.083585   2.089639   4.193584   1.097603   0.000000
    16  H    6.251092   2.106026   4.193778   1.098395   1.795545
    17  H    6.466691   2.094456   3.934681   1.094046   1.788975
    18  C    2.968298   3.619962   1.461365   4.985410   5.601358
    19  H    2.570899   4.196197   2.088950   5.605967   6.245026
    20  H    2.990505   4.191007   2.106808   5.537982   5.999987
    21  H    4.041831   3.934232   2.094375   5.139123   5.882668
    22  C    5.403441   2.506701   2.506018   3.081549   3.929224
    23  C    6.424971   3.154575   3.589206   3.291558   4.301044
    24  C    5.869983   3.589904   3.153266   4.146690   4.798864
    25  C    7.645543   4.487424   4.799594   4.450688   5.392472
    26  H    6.432494   3.018750   3.776673   3.031120   4.118682
    27  C    7.188997   4.801068   4.485375   5.110705   5.793016
    28  H    5.423627   3.776987   3.018748   4.509587   4.980224
    29  C    7.978568   5.164680   5.162527   5.237633   6.049019
    30  H    8.486346   5.217328   5.689423   5.010332   5.976842
    31  H    7.746576   5.690790   5.215045   6.023976   6.605227
    32  H    9.019982   6.235476   6.232993   6.219507   7.006920
                   16         17         18         19         20
    16  H    0.000000
    17  H    1.794544   0.000000
    18  C    5.543340   5.138369   0.000000
    19  H    6.011085   5.886217   1.097390   0.000000
    20  H    6.233553   5.662805   1.098344   1.795209   0.000000
    21  H    5.669228   5.083799   1.094094   1.789307   1.794073
    22  C    3.694165   2.648877   3.079292   3.937706   3.677193
    23  C    3.548646   2.708614   4.144116   4.811554   4.904412
    24  C    4.920585   3.570491   3.287837   4.305058   3.524084
    25  C    4.695663   3.652567   5.106172   5.804574   5.774836
    26  H    2.952876   2.687677   4.508501   4.995570   5.393922
    27  C    5.796161   4.325029   4.445019   5.396733   4.667619
    28  H    5.404931   4.083496   3.029747   4.119411   2.929351
    29  C    5.703193   4.359932   5.231544   6.056645   5.676697
    30  H    5.048136   4.225034   6.019533   6.618438   6.761480
    31  H    6.781716   5.229525   5.004192   5.978269   5.018022
    32  H    6.644107   5.285448   6.212560   7.013902   6.615942
                   21         22         23         24         25
    21  H    0.000000
    22  C    2.650655   0.000000
    23  C    3.565106   1.405518   0.000000
    24  C    2.718598   1.405587   2.436118   0.000000
    25  C    4.319336   2.421536   1.394756   2.802348   0.000000
    26  H    4.075135   2.168249   1.090711   3.424371   2.160113
    27  C    3.658332   2.421486   2.802211   1.394736   2.424951
    28  H    2.706514   2.168671   3.424578   1.090716   3.892966
    29  C    4.358551   2.793162   2.420562   2.420631   1.398567
    30  H    5.221077   3.409578   2.154134   3.893220   1.090886
    31  H    4.233802   3.409495   3.893089   2.154002   3.414480
    32  H    5.283193   3.884530   3.408231   3.408284   2.160683
                   26         27         28         29         30
    26  H    0.000000
    27  C    3.892835   0.000000
    28  H    4.325617   2.159823   0.000000
    29  C    3.410341   1.398572   3.410215   0.000000
    30  H    2.483155   3.414445   4.983851   2.163957   0.000000
    31  H    4.983727   1.090894   2.482530   2.164015   4.317015
    32  H    4.310140   2.160702   4.309914   1.091369   2.491897
                   31         32
    31  H    0.000000
    32  H    2.492002   0.000000
 Symmetry turned off by external request.
 Stoichiometry    C15H15N2(2)
 Framework group  C1[X(C15H15N2)]
 Deg. of freedom    90
 Full point group                 C1      NOp   1
 Rotational constants (GHZ):           1.2193850           0.2915633           0.2496917
 Leave Link  202 at Tue Mar 24 18:23:27 2026, MaxMem=  2684354560 cpu:               0.1 elap:               0.0
 (Enter /home/programes/qq/gaussian/g16.A03/g16/l301.exe)
 General basis read from cards:  (5D, 7F)
 Centers:       1      2      3      4      5      6      7     14     18     22
 Centers:      23     24     25     27     29     12     13      8      9     10
 Centers:      11     15     16     17     19     20     21     26     28     30
 Centers:      31     32
 cc-pVDZ
 ****
 ======================================================================================================
                                       Pseudopotential Parameters
 ======================================================================================================
  Center     Atomic      Valence      Angular      Power
  Number     Number     Electrons     Momentum     of R      Exponent        Coefficient   SO-Coeffient
 ======================================================================================================
    1          6
                                   No pseudopotential on this center.
    2          6
                                   No pseudopotential on this center.
    3          6
                                   No pseudopotential on this center.
    4          6
                                   No pseudopotential on this center.
    5          6
                                   No pseudopotential on this center.
    6          6
                                   No pseudopotential on this center.
    7          6
                                   No pseudopotential on this center.
    8          1
                                   No pseudopotential on this center.
    9          1
                                   No pseudopotential on this center.
   10          1
                                   No pseudopotential on this center.
   11          1
                                   No pseudopotential on this center.
   12          7
                                   No pseudopotential on this center.
   13          7
                                   No pseudopotential on this center.
   14          6
                                   No pseudopotential on this center.
   15          1
                                   No pseudopotential on this center.
   16          1
                                   No pseudopotential on this center.
   17          1
                                   No pseudopotential on this center.
   18          6
                                   No pseudopotential on this center.
   19          1
                                   No pseudopotential on this center.
   20          1
                                   No pseudopotential on this center.
   21          1
                                   No pseudopotential on this center.
   22          6
                                   No pseudopotential on this center.
   23          6
                                   No pseudopotential on this center.
   24          6
                                   No pseudopotential on this center.
   25          6
                                   No pseudopotential on this center.
   26          1
                                   No pseudopotential on this center.
   27          6
                                   No pseudopotential on this center.
   28          1
                                   No pseudopotential on this center.
   29          6
                                   No pseudopotential on this center.
   30          1
                                   No pseudopotential on this center.
   31          1
                                   No pseudopotential on this center.
   32          1
                                   No pseudopotential on this center.
 ======================================================================================================
 Ernie: Thresh=  0.10000D-02 Tol=  0.10000D-05 Strict=F.
 Ernie:  34 primitive shells out of 449 were deleted.
   313 basis functions,   666 primitive gaussians,   330 cartesian basis functions
    60 alpha electrons       59 beta electrons
       nuclear repulsion energy      1137.9338910034 Hartrees.
 IExCor=  402 DFT=T Ex+Corr=B3LYP ExCW=0 ScaHFX=  0.200000
 ScaDFX=  0.800000  0.720000  1.000000  0.810000 ScalE2=  1.000000  1.000000
 IRadAn=      5 IRanWt=     -1 IRanGd=            0 ICorTp=0 IEmpDi=141
 NAtoms=   32 NActive=   32 NUniq=   32 SFac= 1.00D+00 NAtFMM=   60 NAOKFM=F Big=F
 Integral buffers will be    131072 words long.
 Raffenetti 2 integral format.
 Two-electron integral symmetry is turned off.
 R6Disp:  Grimme-D3(BJ) Dispersion energy=       -0.0691887780 Hartrees.
 Nuclear repulsion after empirical dispersion term =     1137.8647022254 Hartrees.
 Using the following non-standard input for PCM:
 NonEq=read
 --- end of non-standard input.
 ------------------------------------------------------------------------------
 Polarizable Continuum Model (PCM)
 =================================
 Model                : PCM.
 Atomic radii         : UFF (Universal Force Field).
 Polarization charges : Total charges.
 Charge compensation  : None.
 Solution method      : On-the-fly selection.
 Cavity type          : Scaled VdW (van der Waals Surface) (Alpha=1.100).
 Cavity algorithm     : GePol (No added spheres)
                        Default sphere list used, NSphG=   32.
                        Lebedev-Laikov grids with approx.  5.0 points / Ang**2.
                        Smoothing algorithm: York/Karplus (Gamma=1.0000).
                        Polarization charges: spherical gaussians, with
                                              point-specific exponents (IZeta= 3).
                        Self-potential: point-specific (ISelfS= 7).
                        Self-field    : sphere-specific E.n sum rule (ISelfD= 2).
 Solvent              : n,n-DiMethylFormamide, Eps=  37.219000 Eps(inf)=   2.046330
 ------------------------------------------------------------------------------
 GePol: Number of generator spheres                  =      32
 GePol: Total number of spheres                      =      32
 GePol: Number of exposed spheres                    =      32 (100.00%)
 GePol: Number of points                             =    2392
 GePol: Average weight of points                     =       0.13
 GePol: Minimum weight of points                     =   0.22D-11
 GePol: Maximum weight of points                     =    0.20577
 GePol: Number of points with low weight             =     174
 GePol: Fraction of low-weight points (<1% of avg)   =       7.27%
 GePol: Cavity surface area                          =    305.738 Ang**2
 GePol: Cavity volume                                =    329.374 Ang**3
 Leave Link  301 at Tue Mar 24 18:23:27 2026, MaxMem=  2684354560 cpu:               0.7 elap:               0.0
 (Enter /home/programes/qq/gaussian/g16.A03/g16/l302.exe)
 NPDir=0 NMtPBC=     1 NCelOv=     1 NCel=       1 NClECP=     1 NCelD=      1
         NCelK=      1 NCelE2=     1 NClLst=     1 CellRange=     0.0.
 One-electron integrals computed using PRISM.
   1 Symmetry operations used in ECPInt.
 ECPInt:  NShTT=   10878 NPrTT=   87130 LenC2=   10239 LenP2D=   46416.
 LDataN:  DoStor=T MaxTD1= 4 Len=   56
 NBasis=   313 RedAO= T EigKep=  3.24D-04  NBF=   313
 NBsUse=   313 1.00D-06 EigRej= -1.00D+00 NBFU=   313
 Precomputing XC quadrature grid using
 IXCGrd= 4 IRadAn=           5 IRanWt=          -1 IRanGd=           0 AccXCQ= 0.00D+00.
 Generated NRdTot=       0 NPtTot=           0 NUsed=           0 NTot=          32
 NSgBfM=   329   329   329   329   329 MxSgAt=    32 MxSgA2=    32.
 Leave Link  302 at Tue Mar 24 18:23:27 2026, MaxMem=  2684354560 cpu:               6.1 elap:               0.2
 (Enter /home/programes/qq/gaussian/g16.A03/g16/l303.exe)
 DipDrv:  MaxL=1.
 Leave Link  303 at Tue Mar 24 18:23:27 2026, MaxMem=  2684354560 cpu:               0.8 elap:               0.0
 (Enter /home/programes/qq/gaussian/g16.A03/g16/l401.exe)
 Initial guess from the checkpoint file:  "bi_cat_eq.chk"
 B after Tr=     0.000000    0.000000    0.000000
         Rot=    1.000000    0.000000    0.000000    0.000000 Ang=   0.00 deg.
 Guess basis will be translated and rotated to current coordinates.
 JPrj=2 DoOrth=T DoCkMO=T.
 Initial guess <Sx>= 0.0000 <Sy>= 0.0000 <Sz>= 0.5000 <S**2>= 0.7500 S= 0.5000
 Leave Link  401 at Tue Mar 24 18:23:27 2026, MaxMem=  2684354560 cpu:               6.3 elap:               0.2
 (Enter /home/programes/qq/gaussian/g16.A03/g16/l502.exe)
 Two-electron integral symmetry not used.
 UHF open shell SCF:
 Using DIIS extrapolation, IDIIS=  1040.
 NGot=  2684354560 LenX=  2684123386 LenY=  2684014045
 Requested convergence on RMS density matrix=1.00D-08 within 128 cycles.
 Requested convergence on MAX density matrix=1.00D-06.
 Requested convergence on             energy=1.00D-06.
 No special actions if energy rises.
 Fock matrices will be formed incrementally for  20 cycles.

 Cycle   1  Pass 1  IDiag  1:
 FoFJK:  IHMeth= 1 ICntrl=       0 DoSepK=F KAlg= 0 I1Cent=           0 FoldK=F
 IRaf= 890000000 NMat=       1 IRICut=       1 DoRegI=T DoRafI=F ISym2E= 0 IDoP0=0 IntGTp=1.
 FoFCou: FMM=F IPFlag=           0 FMFlag=      100000 FMFlg1=           0
         NFxFlg=           0 DoJE=F BraDBF=F KetDBF=F FulRan=T
         wScrn=  0.000000 ICntrl=         0 IOpCl=  1 I1Cent=           0 NGrid=           0
         NMat0=    1 NMatS0=      1 NMatT0=    0 NMatD0=    1 NMtDS0=    0 NMtDT0=    0
 Symmetry not used in FoFCou.
 Inv3:  Mode=1 IEnd=    17164992.
 Iteration    1 A*A^-1 deviation from unit magnitude is 9.55D-15 for    413.
 Iteration    1 A*A^-1 deviation from orthogonality  is 3.43D-15 for   2102    411.
 Iteration    1 A^-1*A deviation from unit magnitude is 9.10D-15 for    413.
 Iteration    1 A^-1*A deviation from orthogonality  is 2.94D-15 for   2030    527.
 NEqPCM:  Using non-equilibrium solvation (IEInf=1, Eps=  37.2190, EpsInf=   2.0463)
 Inv3:  Mode=1 IEnd=    17164992.
 Iteration    1 A*A^-1 deviation from unit magnitude is 1.31D-14 for    407.
 Iteration    1 A*A^-1 deviation from orthogonality  is 3.02D-15 for   2386   1534.
 Iteration    1 A^-1*A deviation from unit magnitude is 1.27D-14 for    407.
 Iteration    1 A^-1*A deviation from orthogonality  is 2.53D-15 for   1840    245.
 E= -690.146482398804    
 DIIS: error= 6.09D-03 at cycle   1 NSaved=   1.
 NSaved= 1 IEnMin= 1 EnMin= -690.146482398804     IErMin= 1 ErrMin= 6.09D-03
 ErrMax= 6.09D-03  0.00D+00 EMaxC= 1.00D-01 BMatC= 6.86D-02 BMatP= 6.86D-02
 IDIUse=3 WtCom= 9.39D-01 WtEn= 6.09D-02
 Coeff-Com:  0.100D+01
 Coeff-En:   0.100D+01
 Coeff:      0.100D+01
 Gap=     0.053 Goal=   None    Shift=    0.000
 Gap=     0.210 Goal=   None    Shift=    0.000
 GapD=    0.053 DampG=0.500 DampE=1.000 DampFc=0.5000 IDamp=-1.
 Damping current iteration by 5.00D-01
 RMSDP=1.61D-03 MaxDP=9.37D-02              OVMax= 2.05D-01

 Cycle   2  Pass 1  IDiag  1:
 RMSU=  8.04D-04    CP:  9.97D-01
 E= -690.151022503949     Delta-E=       -0.004540105145 Rises=F Damp=T
 DIIS: error= 2.90D-03 at cycle   2 NSaved=   2.
 NSaved= 2 IEnMin= 2 EnMin= -690.151022503949     IErMin= 2 ErrMin= 2.90D-03
 ErrMax= 2.90D-03  0.00D+00 EMaxC= 1.00D-01 BMatC= 1.51D-02 BMatP= 6.86D-02
 IDIUse=3 WtCom= 9.71D-01 WtEn= 2.90D-02
 Coeff-Com:  0.280D+00 0.720D+00
 Coeff-En:   0.401D+00 0.599D+00
 Coeff:      0.284D+00 0.716D+00
 Gap=     0.069 Goal=   None    Shift=    0.000
 Gap=     0.202 Goal=   None    Shift=    0.000
 RMSDP=5.21D-04 MaxDP=3.62D-02 DE=-4.54D-03 OVMax= 2.00D-01

 Cycle   3  Pass 1  IDiag  1:
 RMSU=  4.72D-04    CP:  9.98D-01  7.28D-01
 E= -690.166689386071     Delta-E=       -0.015666882122 Rises=F Damp=F
 DIIS: error= 2.80D-03 at cycle   3 NSaved=   3.
 NSaved= 3 IEnMin= 3 EnMin= -690.166689386071     IErMin= 3 ErrMin= 2.80D-03
 ErrMax= 2.80D-03  0.00D+00 EMaxC= 1.00D-01 BMatC= 1.13D-02 BMatP= 1.51D-02
 IDIUse=3 WtCom= 9.72D-01 WtEn= 2.80D-02
 Coeff-Com:  0.115D+00 0.464D+00 0.421D+00
 Coeff-En:   0.000D+00 0.000D+00 0.100D+01
 Coeff:      0.112D+00 0.451D+00 0.437D+00
 Gap=     0.069 Goal=   None    Shift=    0.000
 Gap=     0.196 Goal=   None    Shift=    0.000
 RMSDP=2.11D-04 MaxDP=9.37D-03 DE=-1.57D-02 OVMax= 3.37D-02

 Cycle   4  Pass 1  IDiag  1:
 RMSU=  1.27D-04    CP:  9.99D-01  8.09D-01  6.69D-01
 E= -690.169814182895     Delta-E=       -0.003124796824 Rises=F Damp=F
 DIIS: error= 4.97D-04 at cycle   4 NSaved=   4.
 NSaved= 4 IEnMin= 4 EnMin= -690.169814182895     IErMin= 4 ErrMin= 4.97D-04
 ErrMax= 4.97D-04  0.00D+00 EMaxC= 1.00D-01 BMatC= 2.40D-04 BMatP= 1.13D-02
 IDIUse=3 WtCom= 9.95D-01 WtEn= 4.97D-03
 Coeff-Com:  0.315D-02 0.340D-01 0.112D+00 0.851D+00
 Coeff-En:   0.000D+00 0.000D+00 0.000D+00 0.100D+01
 Coeff:      0.313D-02 0.338D-01 0.111D+00 0.852D+00
 Gap=     0.070 Goal=   None    Shift=    0.000
 Gap=     0.197 Goal=   None    Shift=    0.000
 RMSDP=6.84D-05 MaxDP=4.68D-03 DE=-3.12D-03 OVMax= 1.38D-02

 Cycle   5  Pass 1  IDiag  1:
 RMSU=  4.33D-05    CP:  9.99D-01  7.72D-01  7.60D-01  1.07D+00
 E= -690.169935360434     Delta-E=       -0.000121177540 Rises=F Damp=F
 DIIS: error= 3.35D-04 at cycle   5 NSaved=   5.
 NSaved= 5 IEnMin= 5 EnMin= -690.169935360434     IErMin= 5 ErrMin= 3.35D-04
 ErrMax= 3.35D-04  0.00D+00 EMaxC= 1.00D-01 BMatC= 1.02D-04 BMatP= 2.40D-04
 IDIUse=3 WtCom= 9.97D-01 WtEn= 3.35D-03
 Coeff-Com: -0.177D-01-0.385D-01-0.156D-01 0.408D+00 0.664D+00
 Coeff-En:   0.000D+00 0.000D+00 0.000D+00 0.000D+00 0.100D+01
 Coeff:     -0.176D-01-0.384D-01-0.155D-01 0.407D+00 0.665D+00
 Gap=     0.071 Goal=   None    Shift=    0.000
 Gap=     0.197 Goal=   None    Shift=    0.000
 RMSDP=3.03D-05 MaxDP=3.23D-03 DE=-1.21D-04 OVMax= 4.64D-03

 Cycle   6  Pass 1  IDiag  1:
 RMSU=  2.32D-05    CP:  9.99D-01  7.72D-01  7.79D-01  1.20D+00  1.08D+00
 E= -690.169979901269     Delta-E=       -0.000044540835 Rises=F Damp=F
 DIIS: error= 1.47D-04 at cycle   6 NSaved=   6.
 NSaved= 6 IEnMin= 6 EnMin= -690.169979901269     IErMin= 6 ErrMin= 1.47D-04
 ErrMax= 1.47D-04  0.00D+00 EMaxC= 1.00D-01 BMatC= 2.26D-05 BMatP= 1.02D-04
 IDIUse=3 WtCom= 9.99D-01 WtEn= 1.47D-03
 Coeff-Com: -0.128D-01-0.213D-01-0.398D-01-0.309D-01 0.285D+00 0.820D+00
 Coeff-En:   0.000D+00 0.000D+00 0.000D+00 0.000D+00 0.000D+00 0.100D+01
 Coeff:     -0.127D-01-0.212D-01-0.397D-01-0.308D-01 0.284D+00 0.820D+00
 Gap=     0.071 Goal=   None    Shift=    0.000
 Gap=     0.197 Goal=   None    Shift=    0.000
 RMSDP=1.88D-05 MaxDP=1.42D-03 DE=-4.45D-05 OVMax= 2.57D-03

 Cycle   7  Pass 1  IDiag  1:
 RMSU=  8.45D-06    CP:  9.99D-01  7.71D-01  7.94D-01  1.25D+00  1.39D+00
                    CP:  1.15D+00
 E= -690.169994739358     Delta-E=       -0.000014838089 Rises=F Damp=F
 DIIS: error= 1.07D-04 at cycle   7 NSaved=   7.
 NSaved= 7 IEnMin= 7 EnMin= -690.169994739358     IErMin= 7 ErrMin= 1.07D-04
 ErrMax= 1.07D-04  0.00D+00 EMaxC= 1.00D-01 BMatC= 3.64D-06 BMatP= 2.26D-05
 IDIUse=3 WtCom= 9.99D-01 WtEn= 1.07D-03
 Coeff-Com: -0.129D-02 0.394D-02-0.985D-02-0.935D-01-0.663D-01 0.245D+00
 Coeff-Com:  0.922D+00
 Coeff-En:   0.000D+00 0.000D+00 0.000D+00 0.000D+00 0.000D+00 0.000D+00
 Coeff-En:   0.100D+01
 Coeff:     -0.128D-02 0.393D-02-0.984D-02-0.934D-01-0.663D-01 0.245D+00
 Coeff:      0.922D+00
 Gap=     0.071 Goal=   None    Shift=    0.000
 Gap=     0.197 Goal=   None    Shift=    0.000
 RMSDP=1.12D-05 MaxDP=9.53D-04 DE=-1.48D-05 OVMax= 1.82D-03

 Cycle   8  Pass 1  IDiag  1:
 RMSU=  5.09D-06    CP:  9.99D-01  7.71D-01  8.00D-01  1.28D+00  1.50D+00
                    CP:  1.45D+00  1.17D+00
 E= -690.169998405556     Delta-E=       -0.000003666198 Rises=F Damp=F
 DIIS: error= 5.35D-05 at cycle   8 NSaved=   8.
 NSaved= 8 IEnMin= 8 EnMin= -690.169998405556     IErMin= 8 ErrMin= 5.35D-05
 ErrMax= 5.35D-05  0.00D+00 EMaxC= 1.00D-01 BMatC= 1.32D-06 BMatP= 3.64D-06
 IDIUse=1 WtCom= 1.00D+00 WtEn= 0.00D+00
 Coeff-Com:  0.191D-02 0.638D-02 0.242D-02-0.441D-01-0.928D-01-0.479D-01
 Coeff-Com:  0.473D+00 0.701D+00
 Coeff:      0.191D-02 0.638D-02 0.242D-02-0.441D-01-0.928D-01-0.479D-01
 Coeff:      0.473D+00 0.701D+00
 Gap=     0.071 Goal=   None    Shift=    0.000
 Gap=     0.197 Goal=   None    Shift=    0.000
 RMSDP=4.53D-06 MaxDP=2.53D-04 DE=-3.67D-06 OVMax= 8.04D-04

 Cycle   9  Pass 1  IDiag  1:
 RMSU=  2.62D-06    CP:  9.99D-01  7.71D-01  8.02D-01  1.29D+00  1.56D+00
                    CP:  1.49D+00  1.48D+00  1.01D+00
 E= -690.169999343638     Delta-E=       -0.000000938082 Rises=F Damp=F
 DIIS: error= 2.54D-05 at cycle   9 NSaved=   9.
 NSaved= 9 IEnMin= 9 EnMin= -690.169999343638     IErMin= 9 ErrMin= 2.54D-05
 ErrMax= 2.54D-05  0.00D+00 EMaxC= 1.00D-01 BMatC= 2.97D-07 BMatP= 1.32D-06
 IDIUse=1 WtCom= 1.00D+00 WtEn= 0.00D+00
 Coeff-Com:  0.127D-02 0.630D-03 0.399D-02 0.171D-01-0.493D-02-0.969D-01
 Coeff-Com: -0.135D+00 0.297D+00 0.917D+00
 Coeff:      0.127D-02 0.630D-03 0.399D-02 0.171D-01-0.493D-02-0.969D-01
 Coeff:     -0.135D+00 0.297D+00 0.917D+00
 Gap=     0.071 Goal=   None    Shift=    0.000
 Gap=     0.197 Goal=   None    Shift=    0.000
 RMSDP=2.51D-06 MaxDP=1.63D-04 DE=-9.38D-07 OVMax= 5.29D-04

 Cycle  10  Pass 1  IDiag  1:
 RMSU=  1.25D-06    CP:  9.99D-01  7.71D-01  8.02D-01  1.29D+00  1.57D+00
                    CP:  1.52D+00  1.59D+00  1.31D+00  1.30D+00
 E= -690.169999619601     Delta-E=       -0.000000275963 Rises=F Damp=F
 DIIS: error= 1.03D-05 at cycle  10 NSaved=  10.
 NSaved=10 IEnMin=10 EnMin= -690.169999619601     IErMin=10 ErrMin= 1.03D-05
 ErrMax= 1.03D-05  0.00D+00 EMaxC= 1.00D-01 BMatC= 8.60D-08 BMatP= 2.97D-07
 IDIUse=1 WtCom= 1.00D+00 WtEn= 0.00D+00
 Coeff-Com:  0.382D-03-0.121D-02 0.169D-02 0.178D-01 0.155D-01-0.429D-01
 Coeff-Com: -0.186D+00 0.386D-01 0.464D+00 0.692D+00
 Coeff:      0.382D-03-0.121D-02 0.169D-02 0.178D-01 0.155D-01-0.429D-01
 Coeff:     -0.186D+00 0.386D-01 0.464D+00 0.692D+00
 Gap=     0.071 Goal=   None    Shift=    0.000
 Gap=     0.197 Goal=   None    Shift=    0.000
 RMSDP=1.31D-06 MaxDP=7.09D-05 DE=-2.76D-07 OVMax= 2.28D-04

 Cycle  11  Pass 1  IDiag  1:
 RMSU=  6.31D-07    CP:  9.99D-01  7.71D-01  8.02D-01  1.29D+00  1.58D+00
                    CP:  1.52D+00  1.66D+00  1.36D+00  1.62D+00  1.23D+00
 E= -690.169999682719     Delta-E=       -0.000000063117 Rises=F Damp=F
 DIIS: error= 4.78D-06 at cycle  11 NSaved=  11.
 NSaved=11 IEnMin=11 EnMin= -690.169999682719     IErMin=11 ErrMin= 4.78D-06
 ErrMax= 4.78D-06  0.00D+00 EMaxC= 1.00D-01 BMatC= 2.08D-08 BMatP= 8.60D-08
 IDIUse=1 WtCom= 1.00D+00 WtEn= 0.00D+00
 Coeff-Com: -0.167D-03-0.564D-03-0.438D-03 0.103D-02 0.467D-02 0.171D-01
 Coeff-Com: -0.261D-01-0.466D-01-0.159D+00 0.271D+00 0.940D+00
 Coeff:     -0.167D-03-0.564D-03-0.438D-03 0.103D-02 0.467D-02 0.171D-01
 Coeff:     -0.261D-01-0.466D-01-0.159D+00 0.271D+00 0.940D+00
 Gap=     0.071 Goal=   None    Shift=    0.000
 Gap=     0.197 Goal=   None    Shift=    0.000
 RMSDP=7.93D-07 MaxDP=5.30D-05 DE=-6.31D-08 OVMax= 1.18D-04

 Cycle  12  Pass 1  IDiag  1:
 RMSU=  3.18D-07    CP:  9.99D-01  7.71D-01  8.02D-01  1.29D+00  1.58D+00
                    CP:  1.51D+00  1.67D+00  1.41D+00  1.79D+00  1.60D+00
                    CP:  1.26D+00
 E= -690.169999697541     Delta-E=       -0.000000014823 Rises=F Damp=F
 DIIS: error= 2.46D-06 at cycle  12 NSaved=  12.
 NSaved=12 IEnMin=12 EnMin= -690.169999697541     IErMin=12 ErrMin= 2.46D-06
 ErrMax= 2.46D-06  0.00D+00 EMaxC= 1.00D-01 BMatC= 5.82D-09 BMatP= 2.08D-08
 IDIUse=1 WtCom= 1.00D+00 WtEn= 0.00D+00
 Coeff-Com: -0.126D-03-0.147D-03-0.445D-03-0.208D-02-0.490D-03 0.165D-01
 Coeff-Com:  0.110D-01-0.244D-01-0.170D+00 0.648D-01 0.530D+00 0.576D+00
 Coeff:     -0.126D-03-0.147D-03-0.445D-03-0.208D-02-0.490D-03 0.165D-01
 Coeff:      0.110D-01-0.244D-01-0.170D+00 0.648D-01 0.530D+00 0.576D+00
 Gap=     0.071 Goal=   None    Shift=    0.000
 Gap=     0.197 Goal=   None    Shift=    0.000
 RMSDP=2.90D-07 MaxDP=1.74D-05 DE=-1.48D-08 OVMax= 5.36D-05

 Cycle  13  Pass 1  IDiag  1:
 RMSU=  1.58D-07    CP:  9.99D-01  7.71D-01  8.02D-01  1.29D+00  1.58D+00
                    CP:  1.51D+00  1.68D+00  1.41D+00  1.84D+00  1.69D+00
                    CP:  1.46D+00  9.39D-01
 E= -690.169999700056     Delta-E=       -0.000000002515 Rises=F Damp=F
 DIIS: error= 9.35D-07 at cycle  13 NSaved=  13.
 NSaved=13 IEnMin=13 EnMin= -690.169999700056     IErMin=13 ErrMin= 9.35D-07
 ErrMax= 9.35D-07  0.00D+00 EMaxC= 1.00D-01 BMatC= 1.37D-09 BMatP= 5.82D-09
 IDIUse=1 WtCom= 1.00D+00 WtEn= 0.00D+00
 Coeff-Com:  0.160D-04 0.554D-04-0.196D-04-0.102D-02-0.204D-02 0.162D-02
 Coeff-Com:  0.104D-01 0.118D-01-0.239D-01-0.499D-01-0.128D+00 0.287D+00
 Coeff-Com:  0.894D+00
 Coeff:      0.160D-04 0.554D-04-0.196D-04-0.102D-02-0.204D-02 0.162D-02
 Coeff:      0.104D-01 0.118D-01-0.239D-01-0.499D-01-0.128D+00 0.287D+00
 Coeff:      0.894D+00
 Gap=     0.071 Goal=   None    Shift=    0.000
 Gap=     0.197 Goal=   None    Shift=    0.000
 RMSDP=2.05D-07 MaxDP=1.16D-05 DE=-2.51D-09 OVMax= 4.22D-05

 Cycle  14  Pass 1  IDiag  1:
 RMSU=  5.53D-08    CP:  9.99D-01  7.71D-01  8.02D-01  1.29D+00  1.58D+00
                    CP:  1.51D+00  1.68D+00  1.41D+00  1.88D+00  1.76D+00
                    CP:  1.59D+00  1.26D+00  1.13D+00
 E= -690.169999700805     Delta-E=       -0.000000000749 Rises=F Damp=F
 DIIS: error= 3.37D-07 at cycle  14 NSaved=  14.
 NSaved=14 IEnMin=14 EnMin= -690.169999700805     IErMin=14 ErrMin= 3.37D-07
 ErrMax= 3.37D-07  0.00D+00 EMaxC= 1.00D-01 BMatC= 1.71D-10 BMatP= 1.37D-09
 IDIUse=1 WtCom= 1.00D+00 WtEn= 0.00D+00
 Coeff-Com:  0.297D-04 0.395D-04 0.587D-04-0.831D-04-0.887D-03-0.157D-02
 Coeff-Com:  0.240D-02 0.103D-01 0.122D-01-0.295D-01-0.145D+00 0.568D-01
 Coeff-Com:  0.406D+00 0.689D+00
 Coeff:      0.297D-04 0.395D-04 0.587D-04-0.831D-04-0.887D-03-0.157D-02
 Coeff:      0.240D-02 0.103D-01 0.122D-01-0.295D-01-0.145D+00 0.568D-01
 Coeff:      0.406D+00 0.689D+00
 Gap=     0.071 Goal=   None    Shift=    0.000
 Gap=     0.197 Goal=   None    Shift=    0.000
 RMSDP=5.66D-08 MaxDP=3.68D-06 DE=-7.49D-10 OVMax= 7.58D-06

 Cycle  15  Pass 1  IDiag  1:
 RMSU=  2.50D-08    CP:  9.99D-01  7.71D-01  8.02D-01  1.29D+00  1.58D+00
                    CP:  1.51D+00  1.68D+00  1.41D+00  1.89D+00  1.78D+00
                    CP:  1.62D+00  1.33D+00  1.23D+00  9.53D-01
 E= -690.169999700890     Delta-E=       -0.000000000085 Rises=F Damp=F
 DIIS: error= 2.10D-07 at cycle  15 NSaved=  15.
 NSaved=15 IEnMin=15 EnMin= -690.169999700890     IErMin=15 ErrMin= 2.10D-07
 ErrMax= 2.10D-07  0.00D+00 EMaxC= 1.00D-01 BMatC= 2.93D-11 BMatP= 1.71D-10
 IDIUse=1 WtCom= 1.00D+00 WtEn= 0.00D+00
 Coeff-Com:  0.122D-04 0.810D-05 0.285D-04 0.171D-03-0.197D-04-0.108D-02
 Coeff-Com: -0.117D-02 0.287D-02 0.106D-01-0.200D-02-0.446D-01-0.337D-01
 Coeff-Com:  0.856D-03 0.341D+00 0.727D+00
 Coeff:      0.122D-04 0.810D-05 0.285D-04 0.171D-03-0.197D-04-0.108D-02
 Coeff:     -0.117D-02 0.287D-02 0.106D-01-0.200D-02-0.446D-01-0.337D-01
 Coeff:      0.856D-03 0.341D+00 0.727D+00
 Gap=     0.071 Goal=   None    Shift=    0.000
 Gap=     0.197 Goal=   None    Shift=    0.000
 RMSDP=2.58D-08 MaxDP=1.25D-06 DE=-8.46D-11 OVMax= 6.02D-06

 Cycle  16  Pass 1  IDiag  1:
 RMSU=  9.54D-09    CP:  9.99D-01  7.71D-01  8.02D-01  1.29D+00  1.58D+00
                    CP:  1.51D+00  1.68D+00  1.41D+00  1.89D+00  1.79D+00
                    CP:  1.63D+00  1.37D+00  1.28D+00  1.13D+00  8.94D-01
 E= -690.169999700869     Delta-E=        0.000000000020 Rises=F Damp=F
 DIIS: error= 4.85D-08 at cycle  16 NSaved=  16.
 NSaved=16 IEnMin=15 EnMin= -690.169999700890     IErMin=16 ErrMin= 4.85D-08
 ErrMax= 4.85D-08  0.00D+00 EMaxC= 1.00D-01 BMatC= 3.33D-12 BMatP= 2.93D-11
 IDIUse=1 WtCom= 1.00D+00 WtEn= 0.00D+00
 Coeff-Com:  0.124D-05-0.200D-05 0.311D-05 0.841D-04 0.111D-03-0.287D-03
 Coeff-Com: -0.829D-03-0.877D-04 0.318D-02 0.305D-02-0.883D-03-0.218D-01
 Coeff-Com: -0.512D-01 0.410D-01 0.289D+00 0.739D+00
 Coeff:      0.124D-05-0.200D-05 0.311D-05 0.841D-04 0.111D-03-0.287D-03
 Coeff:     -0.829D-03-0.877D-04 0.318D-02 0.305D-02-0.883D-03-0.218D-01
 Coeff:     -0.512D-01 0.410D-01 0.289D+00 0.739D+00
 Gap=     0.071 Goal=   None    Shift=    0.000
 Gap=     0.197 Goal=   None    Shift=    0.000
 RMSDP=5.94D-09 MaxDP=4.08D-07 DE= 2.05D-11 OVMax= 7.10D-07

 Error on total polarization charges = -0.49745
 SCF Done:  E(UB3LYP) =  -690.169999701     A.U. after   16 cycles
            NFock= 16  Conv=0.59D-08     -V/T= 2.0068
 <Sx>= 0.0000 <Sy>= 0.0000 <Sz>= 0.5000 <S**2>= 0.7600 S= 0.5050
 <L.S>= 0.000000000000E+00
 KE= 6.854931593274D+02 PE=-3.875881263909D+03 EE= 1.362353402656D+03
 Annihilation of the first spin contaminant:
 S**2 before annihilation     0.7600,   after     0.7501
 Leave Link  502 at Tue Mar 24 18:24:05 2026, MaxMem=  2684354560 cpu:            1150.9 elap:              37.9
 (Enter /home/programes/qq/gaussian/g16.A03/g16/l601.exe)
 Copying SCF densities to generalized density rwf, IOpCl= 1 IROHF=0.

 **********************************************************************

            Population analysis using the SCF density.

 **********************************************************************

 Alpha  occ. eigenvalues --  -14.32825 -14.32821 -10.18993 -10.17559 -10.17555
 Alpha  occ. eigenvalues --  -10.17036 -10.16990 -10.13773 -10.13076 -10.13075
 Alpha  occ. eigenvalues --  -10.12933 -10.12930 -10.12880 -10.12879 -10.12873
 Alpha  occ. eigenvalues --  -10.12835 -10.12337  -0.98687  -0.87945  -0.80460
 Alpha  occ. eigenvalues --   -0.78954  -0.71906  -0.71192  -0.69577  -0.68787
 Alpha  occ. eigenvalues --   -0.66836  -0.63761  -0.58826  -0.56314  -0.54360
 Alpha  occ. eigenvalues --   -0.53854  -0.52157  -0.47365  -0.46601  -0.45743
 Alpha  occ. eigenvalues --   -0.43722  -0.41647  -0.40583  -0.39668  -0.38989
 Alpha  occ. eigenvalues --   -0.38743  -0.38657  -0.38478  -0.36378  -0.36238
 Alpha  occ. eigenvalues --   -0.34869  -0.34497  -0.34347  -0.31334  -0.30881
 Alpha  occ. eigenvalues --   -0.29476  -0.29348  -0.28977  -0.28145  -0.25089
 Alpha  occ. eigenvalues --   -0.20988  -0.20016  -0.18442  -0.17824  -0.02941
 Alpha virt. eigenvalues --    0.04206   0.04815   0.06472   0.08228   0.10771
 Alpha virt. eigenvalues --    0.12012   0.12500   0.13593   0.15399   0.16581
 Alpha virt. eigenvalues --    0.16783   0.17219   0.18223   0.18399   0.18514
 Alpha virt. eigenvalues --    0.19012   0.19626   0.20066   0.20806   0.20881
 Alpha virt. eigenvalues --    0.21864   0.22237   0.23472   0.26566   0.28644
 Alpha virt. eigenvalues --    0.29480   0.31146   0.34134   0.34295   0.34802
 Alpha virt. eigenvalues --    0.35619   0.36646   0.37235   0.39775   0.40279
 Alpha virt. eigenvalues --    0.44004   0.44076   0.45018   0.45300   0.48125
 Alpha virt. eigenvalues --    0.49069   0.50374   0.51011   0.51944   0.52313
 Alpha virt. eigenvalues --    0.53035   0.53508   0.54159   0.54696   0.54837
 Alpha virt. eigenvalues --    0.56129   0.56472   0.56613   0.56647   0.57121
 Alpha virt. eigenvalues --    0.57610   0.58812   0.58885   0.59199   0.60427
 Alpha virt. eigenvalues --    0.61810   0.61901   0.63165   0.63443   0.64392
 Alpha virt. eigenvalues --    0.65627   0.66501   0.67688   0.67827   0.68666
 Alpha virt. eigenvalues --    0.69203   0.70030   0.70274   0.70567   0.70622
 Alpha virt. eigenvalues --    0.71604   0.72214   0.72929   0.73535   0.74613
 Alpha virt. eigenvalues --    0.74733   0.76754   0.77135   0.77502   0.78559
 Alpha virt. eigenvalues --    0.78624   0.80451   0.82730   0.83913   0.86043
 Alpha virt. eigenvalues --    0.87079   0.89182   0.91699   0.91884   0.93823
 Alpha virt. eigenvalues --    0.94319   0.95008   0.96413   0.96917   0.97202
 Alpha virt. eigenvalues --    0.97674   0.99049   1.00164   1.00814   1.03535
 Alpha virt. eigenvalues --    1.05307   1.05704   1.05717   1.06019   1.07011
 Alpha virt. eigenvalues --    1.08751   1.08915   1.09082   1.10734   1.11742
 Alpha virt. eigenvalues --    1.12316   1.13319   1.13853   1.14297   1.15203
 Alpha virt. eigenvalues --    1.16709   1.19547   1.19583   1.22082   1.22609
 Alpha virt. eigenvalues --    1.29644   1.30265   1.32325   1.35566   1.37752
 Alpha virt. eigenvalues --    1.40795   1.40877   1.41602   1.44011   1.44255
 Alpha virt. eigenvalues --    1.45328   1.45929   1.46776   1.50007   1.51258
 Alpha virt. eigenvalues --    1.52312   1.54050   1.54372   1.55015   1.56245
 Alpha virt. eigenvalues --    1.56650   1.58250   1.58296   1.59118   1.59986
 Alpha virt. eigenvalues --    1.62925   1.63465   1.65194   1.66002   1.67311
 Alpha virt. eigenvalues --    1.68236   1.68762   1.69254   1.69338   1.69439
 Alpha virt. eigenvalues --    1.70695   1.70829   1.71473   1.72295   1.73030
 Alpha virt. eigenvalues --    1.73773   1.74016   1.75132   1.76163   1.77792
 Alpha virt. eigenvalues --    1.78700   1.80412   1.80458   1.81108   1.82617
 Alpha virt. eigenvalues --    1.83527   1.83865   1.84259   1.85049   1.85833
 Alpha virt. eigenvalues --    1.86848   1.87904   1.88787   1.90475   1.90798
 Alpha virt. eigenvalues --    1.90901   1.91384   1.91926   1.92524   1.94121
 Alpha virt. eigenvalues --    1.94999   1.95969   1.97010   1.97767   1.98652
 Alpha virt. eigenvalues --    2.00130   2.03035   2.04386   2.05387   2.05799
 Alpha virt. eigenvalues --    2.06752   2.06975   2.07539   2.08377   2.10701
 Alpha virt. eigenvalues --    2.13119   2.15661   2.16459   2.17585   2.20750
 Alpha virt. eigenvalues --    2.21543   2.22299   2.23286   2.27543   2.28670
 Alpha virt. eigenvalues --    2.33549   2.36024   2.36871   2.39321   2.42838
 Alpha virt. eigenvalues --    2.44093   2.45497   2.46621   2.46925   2.47898
 Alpha virt. eigenvalues --    2.47996   2.48591   2.50207   2.52184   2.52962
 Alpha virt. eigenvalues --    2.55142   2.55714   2.59242   2.60938   2.64649
 Alpha virt. eigenvalues --    2.66622   2.68980   2.71018   2.71778   2.76498
 Alpha virt. eigenvalues --    2.78240   2.78431   2.83423   2.84146   2.86755
 Alpha virt. eigenvalues --    2.87552   2.94299   3.04507   3.05623   3.11369
 Alpha virt. eigenvalues --    3.14891   3.60856   3.63948
  Beta  occ. eigenvalues --  -14.32656 -14.32652 -10.18410 -10.17569 -10.17565
  Beta  occ. eigenvalues --  -10.17088 -10.17043 -10.13753 -10.13136 -10.13135
  Beta  occ. eigenvalues --  -10.12848 -10.12810 -10.12741 -10.12739 -10.12714
  Beta  occ. eigenvalues --  -10.12713 -10.12091  -0.98248  -0.87593  -0.80151
  Beta  occ. eigenvalues --   -0.78730  -0.71673  -0.70786  -0.69283  -0.68541
  Beta  occ. eigenvalues --   -0.66564  -0.63676  -0.58186  -0.56203  -0.54206
  Beta  occ. eigenvalues --   -0.53569  -0.51940  -0.47210  -0.46369  -0.45611
  Beta  occ. eigenvalues --   -0.42933  -0.41345  -0.40459  -0.39448  -0.38915
  Beta  occ. eigenvalues --   -0.38576  -0.38501  -0.38369  -0.36213  -0.36171
  Beta  occ. eigenvalues --   -0.34796  -0.34419  -0.34083  -0.31026  -0.30440
  Beta  occ. eigenvalues --   -0.29401  -0.28796  -0.28754  -0.27551  -0.24355
  Beta  occ. eigenvalues --   -0.19865  -0.19408  -0.17270  -0.16925
  Beta virt. eigenvalues --    0.02806   0.05091   0.05880   0.06620   0.10428
  Beta virt. eigenvalues --    0.10824   0.12070   0.12554   0.13620   0.15429
  Beta virt. eigenvalues --    0.16627   0.16874   0.17277   0.18344   0.18622
  Beta virt. eigenvalues --    0.18668   0.19130   0.20173   0.20239   0.20924
  Beta virt. eigenvalues --    0.21107   0.22048   0.22632   0.23600   0.26893
  Beta virt. eigenvalues --    0.28955   0.29899   0.31174   0.34217   0.34444
  Beta virt. eigenvalues --    0.35340   0.35743   0.36837   0.37387   0.39920
  Beta virt. eigenvalues --    0.40484   0.44208   0.44316   0.45285   0.45435
  Beta virt. eigenvalues --    0.48534   0.49214   0.50605   0.51227   0.52246
  Beta virt. eigenvalues --    0.52513   0.53414   0.53763   0.54311   0.54993
  Beta virt. eigenvalues --    0.55327   0.56440   0.56697   0.56707   0.57056
  Beta virt. eigenvalues --    0.57262   0.57876   0.58908   0.59149   0.59184
  Beta virt. eigenvalues --    0.60613   0.62072   0.62431   0.63495   0.63628
  Beta virt. eigenvalues --    0.64758   0.66130   0.66655   0.67758   0.68030
  Beta virt. eigenvalues --    0.68808   0.69266   0.70066   0.70376   0.70680
  Beta virt. eigenvalues --    0.70695   0.71836   0.72360   0.73217   0.73617
  Beta virt. eigenvalues --    0.74933   0.74966   0.77071   0.77549   0.77609
  Beta virt. eigenvalues --    0.78694   0.78769   0.80559   0.83050   0.84041
  Beta virt. eigenvalues --    0.86311   0.87412   0.89442   0.91988   0.92026
  Beta virt. eigenvalues --    0.93940   0.94416   0.95202   0.96586   0.97015
  Beta virt. eigenvalues --    0.97319   0.97978   0.99352   1.00380   1.01170
  Beta virt. eigenvalues --    1.03887   1.05614   1.05887   1.06029   1.06290
  Beta virt. eigenvalues --    1.07155   1.08952   1.09104   1.09252   1.11019
  Beta virt. eigenvalues --    1.11929   1.12580   1.13614   1.14072   1.14583
  Beta virt. eigenvalues --    1.15343   1.16967   1.19869   1.19991   1.22302
  Beta virt. eigenvalues --    1.22790   1.29816   1.30604   1.32569   1.35692
  Beta virt. eigenvalues --    1.38093   1.41191   1.41264   1.41752   1.44309
  Beta virt. eigenvalues --    1.44468   1.45392   1.46096   1.47007   1.50161
  Beta virt. eigenvalues --    1.51399   1.52515   1.54378   1.54589   1.55231
  Beta virt. eigenvalues --    1.56406   1.56809   1.58399   1.58456   1.59324
  Beta virt. eigenvalues --    1.60178   1.63081   1.63644   1.65268   1.66223
  Beta virt. eigenvalues --    1.67566   1.68317   1.68942   1.69353   1.69397
  Beta virt. eigenvalues --    1.69665   1.70805   1.70954   1.71579   1.72395
  Beta virt. eigenvalues --    1.73124   1.74020   1.74172   1.75235   1.76281
  Beta virt. eigenvalues --    1.77988   1.78826   1.80662   1.80702   1.81523
  Beta virt. eigenvalues --    1.82877   1.83700   1.84084   1.84433   1.85236
  Beta virt. eigenvalues --    1.85985   1.87041   1.88107   1.88896   1.90680
  Beta virt. eigenvalues --    1.90955   1.91013   1.91474   1.92143   1.92700
  Beta virt. eigenvalues --    1.94233   1.95149   1.96307   1.97306   1.97893
  Beta virt. eigenvalues --    1.98868   2.00426   2.03085   2.04520   2.05517
  Beta virt. eigenvalues --    2.05980   2.07043   2.07259   2.07742   2.08739
  Beta virt. eigenvalues --    2.10935   2.13419   2.16239   2.16535   2.17805
  Beta virt. eigenvalues --    2.21090   2.21739   2.22555   2.23516   2.27983
  Beta virt. eigenvalues --    2.28828   2.33927   2.36069   2.37209   2.39522
  Beta virt. eigenvalues --    2.42989   2.44201   2.45549   2.46783   2.47122
  Beta virt. eigenvalues --    2.47984   2.48036   2.48627   2.50341   2.52236
  Beta virt. eigenvalues --    2.53325   2.55210   2.55959   2.59396   2.61114
  Beta virt. eigenvalues --    2.64979   2.67076   2.69352   2.71163   2.72019
  Beta virt. eigenvalues --    2.76643   2.78334   2.78649   2.83561   2.84330
  Beta virt. eigenvalues --    2.87142   2.87695   2.94370   3.04636   3.05817
  Beta virt. eigenvalues --    3.11469   3.15128   3.60962   3.64080
          Condensed to atoms (all electrons):
               1          2          3          4          5          6
     1  C    4.924558   0.351234  -0.040413  -0.070256   0.012831   0.493925
     2  C    0.351234   4.924043   0.493908   0.012844  -0.070270  -0.040412
     3  C   -0.040413   0.493908   4.868240   0.478982  -0.010992  -0.043401
     4  C   -0.070256   0.012844   0.478982   4.760830   0.516683  -0.011023
     5  C    0.012831  -0.070270  -0.010992   0.516683   4.760533   0.479118
     6  C    0.493925  -0.040412  -0.043401  -0.011023   0.479118   4.868149
     7  C   -0.107445  -0.107506   0.005695   0.000522   0.000519   0.005681
     8  H    0.011884  -0.033590   0.373886  -0.049791   0.009278  -0.000084
     9  H   -0.000200   0.010151  -0.050094   0.384563  -0.051573   0.011356
    10  H    0.010150  -0.000199   0.011354  -0.051581   0.384556  -0.050087
    11  H   -0.033476   0.011887  -0.000082   0.009267  -0.049733   0.373796
    12  N   -0.055097   0.434613  -0.056324   0.002641   0.000764   0.002894
    13  N    0.434387  -0.055058   0.002895   0.000764   0.002640  -0.056298
    14  C    0.012823  -0.057843  -0.008056  -0.000157  -0.000005   0.000074
    15  H    0.000534  -0.007897   0.006076   0.000257  -0.000033  -0.000006
    16  H   -0.000302  -0.002445   0.003817   0.000036  -0.000007  -0.000016
    17  H   -0.000580   0.005575  -0.000004  -0.000001  -0.000000   0.000016
    18  C   -0.057845   0.012813   0.000074  -0.000006  -0.000148  -0.008085
    19  H   -0.008139   0.000553  -0.000006  -0.000033   0.000267   0.006110
    20  H   -0.002168  -0.000318  -0.000015  -0.000006   0.000028   0.003711
    21  H    0.005557  -0.000574   0.000016  -0.000000  -0.000000  -0.000002
    22  C    0.001437   0.001438  -0.000505   0.000011   0.000011  -0.000506
    23  C    0.000009  -0.000432  -0.000016   0.000000  -0.000000   0.000007
    24  C   -0.000436   0.000011   0.000007  -0.000000   0.000000  -0.000016
    25  C   -0.000000   0.000023  -0.000000  -0.000000   0.000000  -0.000000
    26  H   -0.000113  -0.000379   0.000008  -0.000000   0.000000  -0.000000
    27  C    0.000023  -0.000001  -0.000000   0.000000  -0.000000  -0.000000
    28  H   -0.000386  -0.000111  -0.000000   0.000000  -0.000000   0.000007
    29  C    0.000001   0.000001   0.000000  -0.000000  -0.000000   0.000000
    30  H   -0.000000  -0.000001  -0.000000   0.000000  -0.000000  -0.000000
    31  H   -0.000001  -0.000000  -0.000000  -0.000000   0.000000  -0.000000
    32  H    0.000000   0.000000  -0.000000   0.000000   0.000000  -0.000000
               7          8          9         10         11         12
     1  C   -0.107445   0.011884  -0.000200   0.010150  -0.033476  -0.055097
     2  C   -0.107506  -0.033590   0.010151  -0.000199   0.011887   0.434613
     3  C    0.005695   0.373886  -0.050094   0.011354  -0.000082  -0.056324
     4  C    0.000522  -0.049791   0.384563  -0.051581   0.009267   0.002641
     5  C    0.000519   0.009278  -0.051573   0.384556  -0.049733   0.000764
     6  C    0.005681  -0.000084   0.011356  -0.050087   0.373796   0.002894
     7  C    5.151928  -0.000806   0.000009   0.000009  -0.000808   0.409304
     8  H   -0.000806   0.743942  -0.015614  -0.000246   0.000052  -0.007230
     9  H    0.000009  -0.015614   0.772423  -0.017160  -0.000246  -0.000140
    10  H    0.000009  -0.000246  -0.017160   0.772458  -0.015605   0.000008
    11  H   -0.000808   0.000052  -0.000246  -0.015605   0.743694  -0.000169
    12  N    0.409304  -0.007230  -0.000140   0.000008  -0.000169   6.266236
    13  N    0.409638  -0.000168   0.000008  -0.000140  -0.007211  -0.033169
    14  C   -0.060868   0.004688  -0.000013   0.000000   0.000012   0.398556
    15  H    0.005997   0.000975   0.000008  -0.000000   0.000000  -0.023851
    16  H    0.001693   0.000310   0.000002  -0.000000  -0.000001  -0.026376
    17  H   -0.009518  -0.000196  -0.000000   0.000000  -0.000000  -0.011921
    18  C   -0.061033   0.000012   0.000000  -0.000013   0.004574   0.002996
    19  H    0.006023   0.000000  -0.000000   0.000009   0.001013  -0.000041
    20  H    0.001577  -0.000001  -0.000000   0.000001   0.000299  -0.000108
    21  H   -0.009365  -0.000000   0.000000  -0.000000  -0.000196   0.000350
    22  C    0.356574  -0.000011  -0.000000  -0.000000  -0.000011  -0.049784
    23  C   -0.096052   0.000000  -0.000000   0.000000  -0.000000  -0.004267
    24  C   -0.096011  -0.000000   0.000000  -0.000000  -0.000000   0.002134
    25  C    0.008507   0.000000  -0.000000  -0.000000  -0.000000   0.000165
    26  H   -0.016364  -0.000001   0.000000   0.000000   0.000000   0.000325
    27  C    0.008502  -0.000000  -0.000000  -0.000000   0.000000  -0.000094
    28  H   -0.016348   0.000000   0.000000   0.000000  -0.000001   0.000141
    29  C    0.001200   0.000000  -0.000000  -0.000000   0.000000  -0.000003
    30  H   -0.000562  -0.000000  -0.000000   0.000000  -0.000000  -0.000003
    31  H   -0.000562  -0.000000   0.000000  -0.000000  -0.000000   0.000002
    32  H    0.000021  -0.000000  -0.000000  -0.000000  -0.000000   0.000000
              13         14         15         16         17         18
     1  C    0.434387   0.012823   0.000534  -0.000302  -0.000580  -0.057845
     2  C   -0.055058  -0.057843  -0.007897  -0.002445   0.005575   0.012813
     3  C    0.002895  -0.008056   0.006076   0.003817  -0.000004   0.000074
     4  C    0.000764  -0.000157   0.000257   0.000036  -0.000001  -0.000006
     5  C    0.002640  -0.000005  -0.000033  -0.000007  -0.000000  -0.000148
     6  C   -0.056298   0.000074  -0.000006  -0.000016   0.000016  -0.008085
     7  C    0.409638  -0.060868   0.005997   0.001693  -0.009518  -0.061033
     8  H   -0.000168   0.004688   0.000975   0.000310  -0.000196   0.000012
     9  H    0.000008  -0.000013   0.000008   0.000002  -0.000000   0.000000
    10  H   -0.000140   0.000000  -0.000000  -0.000000   0.000000  -0.000013
    11  H   -0.007211   0.000012   0.000000  -0.000001  -0.000000   0.004574
    12  N   -0.033169   0.398556  -0.023851  -0.026376  -0.011921   0.002996
    13  N    6.266120   0.002993  -0.000037  -0.000108   0.000350   0.398624
    14  C    0.002993   4.457114   0.384830   0.391430   0.388880  -0.000180
    15  H   -0.000037   0.384830   0.644425  -0.040891  -0.018609   0.000006
    16  H   -0.000108   0.391430  -0.040891   0.652017  -0.026250   0.000012
    17  H    0.000350   0.388880  -0.018609  -0.026250   0.601134  -0.000026
    18  C    0.398624  -0.000180   0.000006   0.000012  -0.000026   4.457087
    19  H   -0.023401   0.000007  -0.000000  -0.000000  -0.000000   0.384768
    20  H   -0.026613   0.000012  -0.000000  -0.000000   0.000001   0.391451
    21  H   -0.012145  -0.000026  -0.000001   0.000001   0.000002   0.389049
    22  C   -0.049846  -0.004375   0.000715  -0.000280   0.007138  -0.004396
    23  C    0.002124  -0.002663   0.000224   0.000189   0.004867   0.000505
    24  C   -0.004333   0.000493  -0.000091   0.000057  -0.000296  -0.002356
    25  C   -0.000093  -0.000294  -0.000017   0.000111   0.000367   0.000011
    26  H    0.000140   0.002338   0.000138  -0.000024  -0.000492   0.000052
    27  C    0.000166   0.000015  -0.000002  -0.000002  -0.000056  -0.000283
    28  H    0.000292   0.000052   0.000002  -0.000004  -0.000007   0.002428
    29  C   -0.000003   0.000027   0.000003  -0.000009  -0.000048   0.000027
    30  H    0.000002   0.000002  -0.000000   0.000000   0.000009   0.000000
    31  H   -0.000003   0.000000   0.000000   0.000000  -0.000001   0.000002
    32  H    0.000000  -0.000000  -0.000000  -0.000000   0.000003  -0.000000
              19         20         21         22         23         24
     1  C   -0.008139  -0.002168   0.005557   0.001437   0.000009  -0.000436
     2  C    0.000553  -0.000318  -0.000574   0.001438  -0.000432   0.000011
     3  C   -0.000006  -0.000015   0.000016  -0.000505  -0.000016   0.000007
     4  C   -0.000033  -0.000006  -0.000000   0.000011   0.000000  -0.000000
     5  C    0.000267   0.000028  -0.000000   0.000011  -0.000000   0.000000
     6  C    0.006110   0.003711  -0.000002  -0.000506   0.000007  -0.000016
     7  C    0.006023   0.001577  -0.009365   0.356574  -0.096052  -0.096011
     8  H    0.000000  -0.000001  -0.000000  -0.000011   0.000000  -0.000000
     9  H   -0.000000  -0.000000   0.000000  -0.000000  -0.000000   0.000000
    10  H    0.000009   0.000001  -0.000000  -0.000000   0.000000  -0.000000
    11  H    0.001013   0.000299  -0.000196  -0.000011  -0.000000  -0.000000
    12  N   -0.000041  -0.000108   0.000350  -0.049784  -0.004267   0.002134
    13  N   -0.023401  -0.026613  -0.012145  -0.049846   0.002124  -0.004333
    14  C    0.000007   0.000012  -0.000026  -0.004375  -0.002663   0.000493
    15  H   -0.000000  -0.000000  -0.000001   0.000715   0.000224  -0.000091
    16  H   -0.000000  -0.000000   0.000001  -0.000280   0.000189   0.000057
    17  H   -0.000000   0.000001   0.000002   0.007138   0.004867  -0.000296
    18  C    0.384768   0.391451   0.389049  -0.004396   0.000505  -0.002356
    19  H    0.643351  -0.040738  -0.018275   0.000692  -0.000086   0.000225
    20  H   -0.040738   0.652799  -0.026742  -0.000309   0.000061   0.000244
    21  H   -0.018275  -0.026742   0.601329   0.007274  -0.000343   0.004510
    22  C    0.000692  -0.000309   0.007274   5.059329   0.443742   0.443523
    23  C   -0.000086   0.000061  -0.000343   0.443742   4.851648   0.002124
    24  C    0.000225   0.000244   0.004510   0.443523   0.002124   4.851937
    25  C   -0.000002  -0.000002  -0.000046   0.010775   0.490061  -0.073817
    26  H    0.000002  -0.000004  -0.000005  -0.046956   0.393574   0.012494
    27  C   -0.000017   0.000125   0.000303   0.010883  -0.073810   0.489899
    28  H    0.000137  -0.000011  -0.000535  -0.047081   0.012487   0.393537
    29  C    0.000003  -0.000010  -0.000035  -0.069947  -0.003833  -0.003813
    30  H    0.000000   0.000000  -0.000001   0.009655  -0.045494   0.000309
    31  H   -0.000000   0.000000   0.000010   0.009666   0.000307  -0.045454
    32  H   -0.000000  -0.000000   0.000003  -0.000370   0.011038   0.011036
              25         26         27         28         29         30
     1  C   -0.000000  -0.000113   0.000023  -0.000386   0.000001  -0.000000
     2  C    0.000023  -0.000379  -0.000001  -0.000111   0.000001  -0.000001
     3  C   -0.000000   0.000008  -0.000000  -0.000000   0.000000  -0.000000
     4  C   -0.000000  -0.000000   0.000000   0.000000  -0.000000   0.000000
     5  C    0.000000   0.000000  -0.000000  -0.000000  -0.000000  -0.000000
     6  C   -0.000000  -0.000000  -0.000000   0.000007   0.000000  -0.000000
     7  C    0.008507  -0.016364   0.008502  -0.016348   0.001200  -0.000562
     8  H    0.000000  -0.000001  -0.000000   0.000000   0.000000  -0.000000
     9  H   -0.000000   0.000000  -0.000000   0.000000  -0.000000  -0.000000
    10  H   -0.000000   0.000000  -0.000000   0.000000  -0.000000   0.000000
    11  H   -0.000000   0.000000   0.000000  -0.000001   0.000000  -0.000000
    12  N    0.000165   0.000325  -0.000094   0.000141  -0.000003  -0.000003
    13  N   -0.000093   0.000140   0.000166   0.000292  -0.000003   0.000002
    14  C   -0.000294   0.002338   0.000015   0.000052   0.000027   0.000002
    15  H   -0.000017   0.000138  -0.000002   0.000002   0.000003  -0.000000
    16  H    0.000111  -0.000024  -0.000002  -0.000004  -0.000009   0.000000
    17  H    0.000367  -0.000492  -0.000056  -0.000007  -0.000048   0.000009
    18  C    0.000011   0.000052  -0.000283   0.002428   0.000027   0.000000
    19  H   -0.000002   0.000002  -0.000017   0.000137   0.000003   0.000000
    20  H   -0.000002  -0.000004   0.000125  -0.000011  -0.000010   0.000000
    21  H   -0.000046  -0.000005   0.000303  -0.000535  -0.000035  -0.000001
    22  C    0.010775  -0.046956   0.010883  -0.047081  -0.069947   0.009655
    23  C    0.490061   0.393574  -0.073810   0.012487  -0.003833  -0.045494
    24  C   -0.073817   0.012494   0.489899   0.393537  -0.003813   0.000309
    25  C    4.770066  -0.052031   0.015861  -0.000763   0.465444   0.383167
    26  H   -0.052031   0.756494  -0.000763  -0.000218   0.010639  -0.016034
    27  C    0.015861  -0.000763   4.770155  -0.052051   0.465433   0.010104
    28  H   -0.000763  -0.000218  -0.052051   0.757012   0.010654   0.000076
    29  C    0.465444   0.010639   0.465433   0.010654   4.851169  -0.055109
    30  H    0.383167  -0.016034   0.010104   0.000076  -0.055109   0.770889
    31  H    0.010104   0.000076   0.383134  -0.016066  -0.055142  -0.000334
    32  H   -0.054139  -0.000293  -0.054132  -0.000293   0.389466  -0.016438
              31         32
     1  C   -0.000001   0.000000
     2  C   -0.000000   0.000000
     3  C   -0.000000  -0.000000
     4  C   -0.000000   0.000000
     5  C    0.000000   0.000000
     6  C   -0.000000  -0.000000
     7  C   -0.000562   0.000021
     8  H   -0.000000  -0.000000
     9  H    0.000000  -0.000000
    10  H   -0.000000  -0.000000
    11  H   -0.000000  -0.000000
    12  N    0.000002   0.000000
    13  N   -0.000003   0.000000
    14  C    0.000000  -0.000000
    15  H    0.000000  -0.000000
    16  H    0.000000  -0.000000
    17  H   -0.000001   0.000003
    18  C    0.000002  -0.000000
    19  H   -0.000000  -0.000000
    20  H    0.000000  -0.000000
    21  H    0.000010   0.000003
    22  C    0.009666  -0.000370
    23  C    0.000307   0.011038
    24  C   -0.045454   0.011036
    25  C    0.010104  -0.054139
    26  H    0.000076  -0.000293
    27  C    0.383134  -0.054132
    28  H   -0.016066  -0.000293
    29  C   -0.055142   0.389466
    30  H   -0.000334  -0.016438
    31  H    0.770956  -0.016438
    32  H   -0.016438   0.779238
          Atomic-Atomic Spin Densities.
               1          2          3          4          5          6
     1  C   -0.036105  -0.001737  -0.000796   0.001267   0.001354  -0.005268
     2  C   -0.001737  -0.036129  -0.005249   0.001353   0.001268  -0.000802
     3  C   -0.000796  -0.005249   0.172493  -0.038717  -0.008207   0.005886
     4  C    0.001267   0.001353  -0.038717   0.045055   0.026517  -0.008209
     5  C    0.001354   0.001268  -0.008207   0.026517   0.044994  -0.038705
     6  C   -0.005268  -0.000802   0.005886  -0.008209  -0.038705   0.172545
     7  C   -0.006285  -0.006307   0.002317  -0.000155  -0.000155   0.002321
     8  H   -0.000115  -0.000546   0.002809   0.000054  -0.000067  -0.000034
     9  H   -0.000016  -0.000005  -0.000092   0.001126  -0.000257   0.000007
    10  H   -0.000005  -0.000016   0.000007  -0.000257   0.001126  -0.000093
    11  H   -0.000548  -0.000116  -0.000034  -0.000067   0.000052   0.002813
    12  N    0.002981   0.014863  -0.006558   0.000348   0.000096  -0.000902
    13  N    0.014846   0.002991  -0.000899   0.000096   0.000348  -0.006547
    14  C   -0.000052   0.000679  -0.000574   0.000025   0.000002  -0.000013
    15  H    0.000075  -0.000211   0.001090  -0.000042  -0.000011   0.000030
    16  H   -0.000158  -0.000658   0.001185  -0.000056  -0.000002   0.000006
    17  H    0.000006  -0.000036   0.000006   0.000000  -0.000000   0.000001
    18  C    0.000696  -0.000048  -0.000013   0.000002   0.000025  -0.000596
    19  H   -0.000196   0.000075   0.000029  -0.000011  -0.000040   0.001060
    20  H   -0.000657  -0.000160   0.000006  -0.000002  -0.000055   0.001181
    21  H   -0.000040   0.000009   0.000001  -0.000000   0.000000   0.000007
    22  C   -0.000283  -0.000282   0.000034  -0.000001  -0.000001   0.000033
    23  C    0.000080   0.000000   0.000000   0.000000   0.000000  -0.000003
    24  C    0.000001   0.000079  -0.000003   0.000000   0.000000   0.000000
    25  C   -0.000001   0.000001   0.000000  -0.000000  -0.000000   0.000000
    26  H   -0.000009   0.000009   0.000006  -0.000000  -0.000000   0.000001
    27  C    0.000001  -0.000001   0.000000  -0.000000  -0.000000   0.000000
    28  H    0.000009  -0.000009   0.000001  -0.000000  -0.000000   0.000006
    29  C   -0.000000  -0.000000   0.000000  -0.000000  -0.000000   0.000000
    30  H    0.000000  -0.000000  -0.000000   0.000000   0.000000  -0.000000
    31  H   -0.000000   0.000000  -0.000000   0.000000   0.000000  -0.000000
    32  H    0.000000   0.000000   0.000000  -0.000000  -0.000000   0.000000
               7          8          9         10         11         12
     1  C   -0.006285  -0.000115  -0.000016  -0.000005  -0.000548   0.002981
     2  C   -0.006307  -0.000546  -0.000005  -0.000016  -0.000116   0.014863
     3  C    0.002317   0.002809  -0.000092   0.000007  -0.000034  -0.006558
     4  C   -0.000155   0.000054   0.001126  -0.000257  -0.000067   0.000348
     5  C   -0.000155  -0.000067  -0.000257   0.001126   0.000052   0.000096
     6  C    0.002321  -0.000034   0.000007  -0.000093   0.002813  -0.000902
     7  C    0.490529   0.000001   0.000000   0.000000   0.000001  -0.076772
     8  H    0.000001  -0.008233   0.000146   0.000002  -0.000001   0.000048
     9  H    0.000000   0.000146  -0.002843   0.000123   0.000002   0.000001
    10  H    0.000000   0.000002   0.000123  -0.002841   0.000146  -0.000000
    11  H    0.000001  -0.000001   0.000002   0.000146  -0.008231   0.000002
    12  N   -0.076772   0.000048   0.000001  -0.000000   0.000002   0.122756
    13  N   -0.076585   0.000002  -0.000000   0.000001   0.000048   0.006640
    14  C   -0.003009  -0.000041   0.000000   0.000000  -0.000000   0.004748
    15  H    0.002048  -0.000042  -0.000002   0.000000   0.000000  -0.003829
    16  H    0.001141   0.000065   0.000001  -0.000000  -0.000000  -0.002377
    17  H    0.000533  -0.000004  -0.000000   0.000000   0.000000  -0.000519
    18  C   -0.003106  -0.000000   0.000000   0.000000  -0.000040   0.000167
    19  H    0.001961   0.000000   0.000000  -0.000002  -0.000041  -0.000017
    20  H    0.001199  -0.000000  -0.000000   0.000001   0.000063  -0.000129
    21  H    0.000685   0.000000   0.000000  -0.000000  -0.000005   0.000010
    22  C    0.058853  -0.000000  -0.000000  -0.000000  -0.000000  -0.005806
    23  C   -0.019840   0.000000   0.000000   0.000000   0.000000   0.000265
    24  C   -0.019760   0.000000   0.000000   0.000000   0.000000   0.001422
    25  C    0.000241   0.000000   0.000000  -0.000000  -0.000000  -0.000022
    26  H    0.000970   0.000000   0.000000  -0.000000  -0.000000  -0.000302
    27  C    0.000245  -0.000000  -0.000000   0.000000   0.000000  -0.000016
    28  H    0.000977  -0.000000  -0.000000   0.000000   0.000000  -0.000113
    29  C    0.000448  -0.000000  -0.000000  -0.000000  -0.000000  -0.000010
    30  H   -0.000063  -0.000000  -0.000000   0.000000   0.000000   0.000002
    31  H   -0.000062   0.000000   0.000000  -0.000000  -0.000000   0.000001
    32  H    0.000002   0.000000   0.000000   0.000000   0.000000  -0.000000
              13         14         15         16         17         18
     1  C    0.014846  -0.000052   0.000075  -0.000158   0.000006   0.000696
     2  C    0.002991   0.000679  -0.000211  -0.000658  -0.000036  -0.000048
     3  C   -0.000899  -0.000574   0.001090   0.001185   0.000006  -0.000013
     4  C    0.000096   0.000025  -0.000042  -0.000056   0.000000   0.000002
     5  C    0.000348   0.000002  -0.000011  -0.000002  -0.000000   0.000025
     6  C   -0.006547  -0.000013   0.000030   0.000006   0.000001  -0.000596
     7  C   -0.076585  -0.003009   0.002048   0.001141   0.000533  -0.003106
     8  H    0.000002  -0.000041  -0.000042   0.000065  -0.000004  -0.000000
     9  H   -0.000000   0.000000  -0.000002   0.000001  -0.000000   0.000000
    10  H    0.000001   0.000000   0.000000  -0.000000   0.000000   0.000000
    11  H    0.000048  -0.000000   0.000000  -0.000000   0.000000  -0.000040
    12  N    0.006640   0.004748  -0.003829  -0.002377  -0.000519   0.000167
    13  N    0.122211   0.000162  -0.000019  -0.000124   0.000008   0.004926
    14  C    0.000162  -0.004695  -0.001334  -0.002153   0.000177   0.000001
    15  H   -0.000019  -0.001334   0.009323  -0.004408   0.000803  -0.000002
    16  H   -0.000124  -0.002153  -0.004408   0.013035  -0.000966   0.000001
    17  H    0.000008   0.000177   0.000803  -0.000966   0.000421  -0.000001
    18  C    0.004926   0.000001  -0.000002   0.000001  -0.000001  -0.004597
    19  H   -0.003703  -0.000002  -0.000001   0.000003  -0.000001  -0.001299
    20  H   -0.002416   0.000001   0.000003  -0.000002   0.000001  -0.002262
    21  H   -0.000677  -0.000001  -0.000001   0.000001  -0.000000   0.000099
    22  C   -0.005795   0.000526   0.000749  -0.000941   0.000792   0.000471
    23  C    0.001424  -0.000274  -0.000246   0.000811  -0.000778   0.000073
    24  C    0.000266   0.000057  -0.000141   0.000094  -0.000322  -0.000257
    25  C   -0.000015  -0.000049  -0.000023   0.000126  -0.000184   0.000000
    26  H   -0.000112  -0.000114  -0.000041   0.000304  -0.000020  -0.000003
    27  C   -0.000022   0.000000  -0.000000  -0.000001   0.000012  -0.000046
    28  H   -0.000303  -0.000003   0.000007  -0.000003   0.000009  -0.000113
    29  C   -0.000010   0.000001   0.000005  -0.000010   0.000053   0.000000
    30  H    0.000001   0.000003   0.000001  -0.000009   0.000007   0.000000
    31  H    0.000002   0.000000  -0.000000   0.000000  -0.000001   0.000003
    32  H   -0.000000  -0.000000  -0.000000  -0.000000   0.000000  -0.000000
              19         20         21         22         23         24
     1  C   -0.000196  -0.000657  -0.000040  -0.000283   0.000080   0.000001
     2  C    0.000075  -0.000160   0.000009  -0.000282   0.000000   0.000079
     3  C    0.000029   0.000006   0.000001   0.000034   0.000000  -0.000003
     4  C   -0.000011  -0.000002  -0.000000  -0.000001   0.000000   0.000000
     5  C   -0.000040  -0.000055   0.000000  -0.000001   0.000000   0.000000
     6  C    0.001060   0.001181   0.000007   0.000033  -0.000003   0.000000
     7  C    0.001961   0.001199   0.000685   0.058853  -0.019840  -0.019760
     8  H    0.000000  -0.000000   0.000000  -0.000000   0.000000   0.000000
     9  H    0.000000  -0.000000   0.000000  -0.000000   0.000000   0.000000
    10  H   -0.000002   0.000001  -0.000000  -0.000000   0.000000   0.000000
    11  H   -0.000041   0.000063  -0.000005  -0.000000   0.000000   0.000000
    12  N   -0.000017  -0.000129   0.000010  -0.005806   0.000265   0.001422
    13  N   -0.003703  -0.002416  -0.000677  -0.005795   0.001424   0.000266
    14  C   -0.000002   0.000001  -0.000001   0.000526  -0.000274   0.000057
    15  H   -0.000001   0.000003  -0.000001   0.000749  -0.000246  -0.000141
    16  H    0.000003  -0.000002   0.000001  -0.000941   0.000811   0.000094
    17  H   -0.000001   0.000001  -0.000000   0.000792  -0.000778  -0.000322
    18  C   -0.001299  -0.002262   0.000099   0.000471   0.000073  -0.000257
    19  H    0.008955  -0.004402   0.000968   0.000720  -0.000134  -0.000242
    20  H   -0.004402   0.013466  -0.001203  -0.000980   0.000100   0.000863
    21  H    0.000968  -0.001203   0.000700   0.001042  -0.000403  -0.000908
    22  C    0.000720  -0.000980   0.001042   0.036987  -0.036410  -0.036478
    23  C   -0.000134   0.000100  -0.000403  -0.036410   0.157323   0.000765
    24  C   -0.000242   0.000863  -0.000908  -0.036478   0.000765   0.157710
    25  C   -0.000000  -0.000001   0.000011  -0.002605   0.010493   0.004954
    26  H    0.000006  -0.000003   0.000010   0.000916   0.000752   0.000046
    27  C   -0.000022   0.000137  -0.000220  -0.002605   0.004956   0.010355
    28  H   -0.000041   0.000319  -0.000036   0.000917   0.000046   0.000757
    29  C    0.000005  -0.000011   0.000068   0.006533  -0.012869  -0.012887
    30  H   -0.000000   0.000000  -0.000001  -0.000056   0.000761  -0.000115
    31  H    0.000001  -0.000010   0.000009  -0.000055  -0.000116   0.000775
    32  H   -0.000000  -0.000000   0.000000  -0.000005  -0.000112  -0.000112
              25         26         27         28         29         30
     1  C   -0.000001  -0.000009   0.000001   0.000009  -0.000000   0.000000
     2  C    0.000001   0.000009  -0.000001  -0.000009  -0.000000  -0.000000
     3  C    0.000000   0.000006   0.000000   0.000001   0.000000  -0.000000
     4  C   -0.000000  -0.000000  -0.000000  -0.000000  -0.000000   0.000000
     5  C   -0.000000  -0.000000  -0.000000  -0.000000  -0.000000   0.000000
     6  C    0.000000   0.000001   0.000000   0.000006   0.000000  -0.000000
     7  C    0.000241   0.000970   0.000245   0.000977   0.000448  -0.000063
     8  H    0.000000   0.000000  -0.000000  -0.000000  -0.000000  -0.000000
     9  H    0.000000   0.000000  -0.000000  -0.000000  -0.000000  -0.000000
    10  H   -0.000000  -0.000000   0.000000   0.000000  -0.000000   0.000000
    11  H   -0.000000  -0.000000   0.000000   0.000000  -0.000000   0.000000
    12  N   -0.000022  -0.000302  -0.000016  -0.000113  -0.000010   0.000002
    13  N   -0.000015  -0.000112  -0.000022  -0.000303  -0.000010   0.000001
    14  C   -0.000049  -0.000114   0.000000  -0.000003   0.000001   0.000003
    15  H   -0.000023  -0.000041  -0.000000   0.000007   0.000005   0.000001
    16  H    0.000126   0.000304  -0.000001  -0.000003  -0.000010  -0.000009
    17  H   -0.000184  -0.000020   0.000012   0.000009   0.000053   0.000007
    18  C    0.000000  -0.000003  -0.000046  -0.000113   0.000000   0.000000
    19  H   -0.000000   0.000006  -0.000022  -0.000041   0.000005  -0.000000
    20  H   -0.000001  -0.000003   0.000137   0.000319  -0.000011   0.000000
    21  H    0.000011   0.000010  -0.000220  -0.000036   0.000068  -0.000001
    22  C   -0.002605   0.000916  -0.002605   0.000917   0.006533  -0.000056
    23  C    0.010493   0.000752   0.004956   0.000046  -0.012869   0.000761
    24  C    0.004954   0.000046   0.010355   0.000757  -0.012887  -0.000115
    25  C   -0.039061   0.000522   0.000788  -0.000028  -0.019529  -0.001296
    26  H    0.000522  -0.007685  -0.000028  -0.000005  -0.000048  -0.000004
    27  C    0.000788  -0.000028  -0.039068   0.000528  -0.019452   0.000050
    28  H   -0.000028  -0.000005   0.000528  -0.007710  -0.000049   0.000001
    29  C   -0.019529  -0.000048  -0.019452  -0.000049   0.230329  -0.000319
    30  H   -0.001296  -0.000004   0.000050   0.000001  -0.000319   0.002971
    31  H    0.000051   0.000001  -0.001317  -0.000005  -0.000321  -0.000012
    32  H    0.000134   0.000004   0.000134   0.000004   0.003084   0.000165
              31         32
     1  C   -0.000000   0.000000
     2  C    0.000000   0.000000
     3  C   -0.000000   0.000000
     4  C    0.000000  -0.000000
     5  C    0.000000  -0.000000
     6  C   -0.000000   0.000000
     7  C   -0.000062   0.000002
     8  H    0.000000   0.000000
     9  H    0.000000   0.000000
    10  H   -0.000000   0.000000
    11  H   -0.000000   0.000000
    12  N    0.000001  -0.000000
    13  N    0.000002  -0.000000
    14  C    0.000000  -0.000000
    15  H   -0.000000  -0.000000
    16  H    0.000000  -0.000000
    17  H   -0.000001   0.000000
    18  C    0.000003  -0.000000
    19  H    0.000001  -0.000000
    20  H   -0.000010  -0.000000
    21  H    0.000009   0.000000
    22  C   -0.000055  -0.000005
    23  C   -0.000116  -0.000112
    24  C    0.000775  -0.000112
    25  C    0.000051   0.000134
    26  H    0.000001   0.000004
    27  C   -0.001317   0.000134
    28  H   -0.000005   0.000004
    29  C   -0.000321   0.003084
    30  H   -0.000012   0.000165
    31  H    0.002992   0.000165
    32  H    0.000165  -0.012100
 Mulliken charges and spin densities:
               1          2
     1  C    0.117506  -0.030957
     2  C    0.117944  -0.030986
     3  C   -0.035051   0.124729
     4  C    0.015453   0.028326
     5  C    0.015532   0.028283
     6  C   -0.034909   0.124727
     7  C    0.209847   0.352374
     8  H   -0.037289  -0.005954
     9  H   -0.043480  -0.001809
    10  H   -0.043515  -0.001807
    11  H   -0.037057  -0.005954
    12  N   -0.252554   0.056981
    13  N   -0.252517   0.056745
    14  C    0.090135  -0.005931
    15  H    0.047245   0.003779
    16  H    0.047040   0.004905
    17  H    0.059666  -0.000005
    18  C    0.089880  -0.005920
    19  H    0.047579   0.003629
    20  H    0.046737   0.005048
    21  H    0.059890   0.000127
    22  C   -0.088485   0.016271
    23  C    0.014030   0.106666
    24  C    0.014083   0.106921
    25  C    0.026543  -0.045492
    26  H   -0.042602  -0.004827
    27  C    0.026608  -0.045593
    28  H   -0.042950  -0.004835
    29  C   -0.006114   0.175010
    30  H   -0.040237   0.002088
    31  H   -0.040256   0.002099
    32  H   -0.048702  -0.008638
 Sum of Mulliken charges =  -0.00000   1.00000
 Mulliken charges and spin densities with hydrogens summed into heavy atoms:
               1          2
     1  C    0.117506  -0.030957
     2  C    0.117944  -0.030986
     3  C   -0.072340   0.118774
     4  C   -0.028027   0.026517
     5  C   -0.027983   0.026475
     6  C   -0.071966   0.118773
     7  C    0.209847   0.352374
    12  N   -0.252554   0.056981
    13  N   -0.252517   0.056745
    14  C    0.244086   0.002747
    18  C    0.244086   0.002883
    22  C   -0.088485   0.016271
    23  C   -0.028572   0.101838
    24  C   -0.028867   0.102087
    25  C   -0.013693  -0.043404
    27  C   -0.013648  -0.043493
    29  C   -0.054817   0.166372
 Electronic spatial extent (au):  <R**2>=          35168.7686
 Charge=              0.0000 electrons
 Dipole moment (field-independent basis, Debye):
    X=              0.0016    Y=             -0.0096    Z=              0.0061  Tot=              0.0115
 Quadrupole moment (field-independent basis, Debye-Ang):
   XX=            -87.5911   YY=           -114.1269   ZZ=           -101.6995
   XY=             -2.6727   XZ=              2.6678   YZ=             -0.4551
 Traceless Quadrupole moment (field-independent basis, Debye-Ang):
   XX=             13.5480   YY=            -12.9877   ZZ=             -0.5603
   XY=             -2.6727   XZ=              2.6678   YZ=             -0.4551
 Octapole moment (field-independent basis, Debye-Ang**2):
  XXX=           2224.9392  YYY=           -348.6454  ZZZ=            -24.1799  XYY=            956.0896
  XXY=            -28.8882  XXZ=            -53.7223  XZZ=            858.2960  YZZ=           -117.4121
  YYZ=             -7.6518  XYZ=             -1.7497
 Hexadecapole moment (field-independent basis, Debye-Ang**3):
 XXXX=         -38726.6524 YYYY=          -5449.6448 ZZZZ=           -317.2742 XXXY=           1124.4269
 XXXZ=            721.2503 YYYX=           2740.7784 YYYZ=            -55.3209 ZZZX=            149.7611
 ZZZY=            -54.8624 XXYY=          -9040.4248 XXZZ=          -7480.8953 YYZZ=          -1010.0755
 XXYZ=             53.6310 YYXZ=             60.7561 ZZXY=            925.1612
 N-N= 1.137864702225D+03 E-N=-3.875881267820D+03  KE= 6.854931593274D+02

 Atomic contributions to Alpha molecular orbitals:
 Alpha occ 41 OE=-0.387 is C23-p=0.1144 C22-p=0.1142 C24-p=0.1133 C29-p=0.1105 C25-p=0.1081 C27-p=0.1080
 Alpha occ 42 OE=-0.387 is H8-s=0.1336 H11-s=0.1330 C3-p=0.1248 C6-p=0.1230
 Alpha occ 43 OE=-0.385 is C5-p=0.1066 C4-p=0.1065
 Alpha occ 44 OE=-0.364 is C22-p=0.1073
 Alpha occ 45 OE=-0.362 is C23-p=0.1536 C24-p=0.1495 C27-p=0.1441 C25-p=0.1394
 Alpha occ 46 OE=-0.349 is C14-p=0.1671 C18-p=0.1655
 Alpha occ 47 OE=-0.345 is C18-p=0.1092 C14-p=0.1082
 Alpha occ 48 OE=-0.343 is C18-p=0.1421 C14-p=0.1419
 Alpha occ 49 OE=-0.313 is C22-p=0.1140
 Alpha occ 50 OE=-0.309 is H9-s=0.0998
 Alpha occ 51 OE=-0.295 is C5-p=0.1224 C4-p=0.1223 H8-s=0.1118 H11-s=0.1118
 Alpha occ 52 OE=-0.293 is C5-p=0.0962
 Alpha occ 53 OE=-0.290 is H32-s=0.1407 C23-p=0.1092 C24-p=0.1090 C25-p=0.1057 C27-p=0.1053
 Alpha occ 54 OE=-0.281 is C22-p=0.0837
 Alpha occ 55 OE=-0.251 is N13-p=0.2092 N12-p=0.2090
 Alpha occ 56 OE=-0.210 is C29-p=0.2440 C22-p=0.2277
 Alpha occ 57 OE=-0.200 is C24-p=0.2522 C23-p=0.2518 C25-p=0.2302 C27-p=0.2299
 Alpha occ 58 OE=-0.184 is C3-p=0.2547 C6-p=0.2546 N12-p=0.1216 N13-p=0.1215
 Alpha occ 59 OE=-0.178 is C4-p=0.1426 C5-p=0.1423 C1-p=0.1403 C2-p=0.1402
 Alpha occ 60 OE=-0.029 is C7-p=0.2330
 Alpha vir 61 OE=0.042 is C22-p=0.1660 C29-p=0.1463 C6-p=0.1412 C3-p=0.1412
 Alpha vir 62 OE=0.048 is C27-p=0.2416 C25-p=0.2415 C23-p=0.2127 C24-p=0.2127
 Alpha vir 63 OE=0.065 is C5-p=0.2495 C4-p=0.2485 C2-p=0.1677 C1-p=0.1665
 Alpha vir 64 OE=0.082 is C7-p=0.2148
 Alpha vir 65 OE=0.108 is H28-s=0.1520 H26-s=0.1502 H20-s=0.1249 H16-s=0.1228
 Alpha vir 66 OE=0.120 is H9-s=0.2064 H10-s=0.2061 H8-s=0.1345 H11-s=0.1323 H32-s=0.1006
 Alpha vir 67 OE=0.125 is H16-s=0.1889 H20-s=0.1869 H15-s=0.1670 H19-s=0.1651 H11-s=0.1325 H8-s=0.1313
 Alpha vir 68 OE=0.136 is H32-s=0.1825 H10-s=0.1612 H9-s=0.1608 H30-s=0.1154 H31-s=0.1132
 Alpha vir 69 OE=0.154 is H30-s=0.2534 H31-s=0.2506 H28-s=0.1520 H26-s=0.1478 H11-s=0.1189 H8-s=0.1154
 Alpha vir 70 OE=0.166 is H9-s=0.2134 H10-s=0.2100 H11-s=0.1108 H31-s=0.1073 H30-s=0.1065 H8-s=0.1061
 Alpha vir 71 OE=0.168 is H32-s=0.1964 H26-s=0.1907 H28-s=0.1857
 Alpha vir 72 OE=0.172 is H17-s=0.3171 H21-s=0.3148
 Alpha vir 73 OE=0.182 is H17-s=0.2464 H21-s=0.2447
 Alpha vir 74 OE=0.184 is H15-s=0.1964 H19-s=0.1754 H16-s=0.1259 H20-s=0.1252
 Alpha vir 75 OE=0.185 is C18-p=0.2812 C14-p=0.2738 H32-s=0.1029
 Alpha vir 76 OE=0.190 is H32-s=0.3356 H16-s=0.1412 H20-s=0.1355
 Alpha vir 77 OE=0.196 is C27-p=0.1076 C29-p=0.1058 C25-p=0.1050
 Alpha vir 78 OE=0.201 is H8-s=0.2380 H11-s=0.2337 H15-s=0.1013
 Alpha vir 79 OE=0.208 is H10-s=0.1878 H26-s=0.1526 H9-s=0.1194 H11-s=0.1181
 Alpha vir 80 OE=0.209 is H28-s=0.1702 H31-s=0.1511

 Atomic contributions to Beta  molecular orbitals:
 Beta  occ 40 OE=-0.389 is C4-p=0.0997
 Beta  occ 41 OE=-0.386 is H8-s=0.1291 H11-s=0.1289 C3-p=0.1255 C6-p=0.1237
 Beta  occ 42 OE=-0.385 is C25-p=0.1074 C27-p=0.1073 C23-p=0.1062 C24-p=0.1062 C29-p=0.1050 C22-p=0.1034
 Beta  occ 43 OE=-0.384 is C4-p=0.1074 C5-p=0.1074
 Beta  occ 44 OE=-0.362 is C22-p=0.1092
 Beta  occ 45 OE=-0.362 is C23-p=0.1555 C27-p=0.1513 C24-p=0.1421 C25-p=0.1356
 Beta  occ 46 OE=-0.348 is C14-p=0.1687 C18-p=0.1669
 Beta  occ 47 OE=-0.344 is C18-p=0.1033 C14-p=0.1018
 Beta  occ 48 OE=-0.341 is C14-p=0.1306 C18-p=0.1305 C1-p=0.1173 C2-p=0.1170
 Beta  occ 49 OE=-0.310 is H9-s=0.1238 H10-s=0.1234 C4-p=0.1042 C5-p=0.1040
 Beta  occ 50 OE=-0.304 is C25-p=0.1328 C27-p=0.1327 C22-p=0.1284 C23-p=0.1227 C24-p=0.1226 C29-p=0.1205
 Beta  occ 51 OE=-0.294 is C5-p=0.1239 C4-p=0.1239 H8-s=0.1142 H11-s=0.1141
 Beta  occ 52 OE=-0.288 is C29-p=0.1084
 Beta  occ 53 OE=-0.288 is H32-s=0.1403 C25-p=0.1086 C24-p=0.1085 C23-p=0.1081 C27-p=0.1042
 Beta  occ 54 OE=-0.276 is C5-p=0.1447 C4-p=0.1446
 Beta  occ 55 OE=-0.244 is N13-p=0.2108 N12-p=0.2107 C1-p=0.1011 C2-p=0.1011
 Beta  occ 56 OE=-0.199 is C22-p=0.2479 C29-p=0.2297
 Beta  occ 57 OE=-0.194 is C25-p=0.2524 C27-p=0.2515 C24-p=0.2315 C23-p=0.2306
 Beta  occ 58 OE=-0.173 is C3-p=0.2440 C6-p=0.2439 N12-p=0.1255 N13-p=0.1254
 Beta  occ 59 OE=-0.169 is C1-p=0.1474 C2-p=0.1473 C4-p=0.1388 C5-p=0.1385
 Beta  vir 60 OE=0.028 is C7-p=0.1774 C29-p=0.1423 C3-p=0.1037 C6-p=0.1036
 Beta  vir 61 OE=0.051 is C23-p=0.2301 C24-p=0.2296 C27-p=0.2186 C25-p=0.2181
 Beta  vir 62 OE=0.059 is C3-p=0.1646 C6-p=0.1646 C29-p=0.1489 C22-p=0.1337
 Beta  vir 63 OE=0.066 is C5-p=0.2356 C4-p=0.2347 C2-p=0.1730 C1-p=0.1721
 Beta  vir 64 OE=0.104 is C7-p=0.3203
 Beta  vir 65 OE=0.108 is H26-s=0.1510 H28-s=0.1481 H16-s=0.1274 H20-s=0.1223
 Beta  vir 66 OE=0.121 is H9-s=0.2105 H10-s=0.2101 H8-s=0.1321 H11-s=0.1305
 Beta  vir 67 OE=0.126 is H16-s=0.1775 H20-s=0.1752 H15-s=0.1724 H19-s=0.1700 H11-s=0.1323 H8-s=0.1314
 Beta  vir 68 OE=0.136 is H32-s=0.1776 H10-s=0.1599 H9-s=0.1595 H30-s=0.1194 H31-s=0.1168
 Beta  vir 69 OE=0.154 is H30-s=0.2719 H31-s=0.2693 H28-s=0.1454 H26-s=0.1418 H11-s=0.1114 H8-s=0.1083
 Beta  vir 70 OE=0.166 is H10-s=0.2184 H9-s=0.2181 H11-s=0.1159 H8-s=0.1128
 Beta  vir 71 OE=0.169 is H26-s=0.1841 H28-s=0.1781 H32-s=0.1762
 Beta  vir 72 OE=0.173 is H17-s=0.2976 H21-s=0.2939 H19-s=0.1093
 Beta  vir 73 OE=0.183 is H17-s=0.2742 H21-s=0.2655
 Beta  vir 74 OE=0.186 is H20-s=0.1556 H16-s=0.1523 H15-s=0.1157 H19-s=0.1073 H31-s=0.1003
 Beta  vir 75 OE=0.187 is C18-p=0.2781 C14-p=0.2712 H32-s=0.1173
 Beta  vir 76 OE=0.191 is H32-s=0.3370 H16-s=0.1415 H20-s=0.1283
 Beta  vir 77 OE=0.202 is H8-s=0.3487 H9-s=0.1394 H15-s=0.1186
 Beta  vir 78 OE=0.202 is H11-s=0.2522 H10-s=0.1010
 Beta  vir 79 OE=0.209 is H10-s=0.1497 H26-s=0.1370 H9-s=0.1133
 
                          Isotropic Fermi Contact Couplings
        Atom                 a.u.       MegaHertz       Gauss      10(-4) cm-1
     1  C(13)             -0.00754      -8.47197      -3.02301      -2.82594
     2  C(13)             -0.00754      -8.48026      -3.02597      -2.82871
     3  C(13)              0.01462      16.44022       5.86628       5.48387
     4  C(13)              0.00072       0.81397       0.29044       0.27151
     5  C(13)              0.00072       0.80875       0.28858       0.26977
     6  C(13)              0.01464      16.45842       5.87277       5.48994
     7  C(13)              0.04010      45.07789      16.08491      15.03636
     8  H(1)              -0.00190      -8.48118      -3.02630      -2.82902
     9  H(1)              -0.00058      -2.60729      -0.93035      -0.86970
    10  H(1)              -0.00058      -2.60580      -0.92982      -0.86920
    11  H(1)              -0.00190      -8.47905      -3.02553      -2.82831
    12  N(14)              0.01321       4.26827       1.52303       1.42374
    13  N(14)              0.01320       4.26406       1.52152       1.42234
    14  C(13)             -0.00231      -2.60168      -0.92834      -0.86783
    15  H(1)               0.00052       2.31891       0.82744       0.77350
    16  H(1)               0.00087       3.86798       1.38019       1.29022
    17  H(1)               0.00015       0.64943       0.23173       0.21663
    18  C(13)             -0.00231      -2.59619      -0.92638      -0.86599
    19  H(1)               0.00049       2.20308       0.78611       0.73487
    20  H(1)               0.00088       3.92449       1.40036       1.30907
    21  H(1)               0.00017       0.77078       0.27503       0.25710
    22  C(13)             -0.01163     -13.07983      -4.66721      -4.36296
    23  C(13)              0.02536      28.50594      10.17163       9.50856
    24  C(13)              0.02535      28.50347      10.17075       9.50773
    25  C(13)             -0.00802      -9.01536      -3.21690      -3.00720
    26  H(1)              -0.00159      -7.10133      -2.53393      -2.36875
    27  C(13)             -0.00800      -8.99584      -3.20994      -3.00069
    28  H(1)              -0.00159      -7.10979      -2.53695      -2.37157
    29  C(13)              0.02175      24.44853       8.72385       8.15515
    30  H(1)               0.00058       2.58098       0.92096       0.86092
    31  H(1)               0.00058       2.59347       0.92542       0.86509
    32  H(1)              -0.00264     -11.79055      -4.20716      -3.93290
 --------------------------------------------------------
       Center         ----  Spin Dipole Couplings  ----
                      3XX-RR        3YY-RR        3ZZ-RR
 --------------------------------------------------------
     1   Atom        0.009643      0.028640     -0.038283
     2   Atom        0.011098      0.027278     -0.038376
     3   Atom       -0.067426     -0.066745      0.134171
     4   Atom       -0.019439     -0.018519      0.037958
     5   Atom       -0.018700     -0.019365      0.038064
     6   Atom       -0.067524     -0.067160      0.134684
     7   Atom       -0.236652     -0.232852      0.469504
     8   Atom        0.009278     -0.008496     -0.000783
     9   Atom        0.000085      0.001523     -0.001609
    10   Atom       -0.001419      0.003033     -0.001613
    11   Atom        0.008628     -0.007837     -0.000791
    12   Atom       -0.097229     -0.102679      0.199908
    13   Atom       -0.099694     -0.097813      0.197507
    14   Atom        0.005987     -0.001693     -0.004293
    15   Atom        0.004122     -0.001394     -0.002727
    16   Atom        0.003825     -0.001057     -0.002768
    17   Atom        0.005256     -0.001343     -0.003914
    18   Atom        0.005879     -0.001622     -0.004257
    19   Atom        0.003815     -0.001075     -0.002740
    20   Atom        0.003731     -0.000969     -0.002762
    21   Atom        0.005984     -0.002090     -0.003893
    22   Atom        0.038877     -0.018460     -0.020417
    23   Atom        0.077171     -0.044188     -0.032983
    24   Atom        0.088656     -0.055210     -0.033445
    25   Atom       -0.022131      0.021768      0.000363
    26   Atom        0.001921     -0.003073      0.001151
    27   Atom       -0.026207      0.025691      0.000517
    28   Atom        0.000896     -0.001920      0.001024
    29   Atom        0.105660     -0.087250     -0.018410
    30   Atom       -0.002026      0.002838     -0.000812
    31   Atom       -0.002110      0.002913     -0.000803
    32   Atom       -0.003217      0.013515     -0.010297
 --------------------------------------------------------
                        XY            XZ            YZ
 --------------------------------------------------------
     1   Atom       -0.001808      0.002817      0.002448
     2   Atom        0.005328      0.002553     -0.001139
     3   Atom        0.000325     -0.008147     -0.010417
     4   Atom       -0.001739     -0.000418     -0.003508
     5   Atom        0.001769      0.000239      0.002027
     6   Atom       -0.000025     -0.006319      0.006466
     7   Atom        0.001159     -0.052199     -0.004780
     8   Atom       -0.000129     -0.000448     -0.000032
     9   Atom        0.003980      0.000229      0.000111
    10   Atom       -0.003380      0.000113     -0.000035
    11   Atom       -0.003351     -0.000528     -0.000081
    12   Atom        0.006178      0.029511      0.024340
    13   Atom       -0.007299      0.022885     -0.038031
    14   Atom       -0.000561      0.000987     -0.000353
    15   Atom        0.000245     -0.001807      0.000423
    16   Atom       -0.000288      0.002144     -0.000354
    17   Atom       -0.002471     -0.000745     -0.000141
    18   Atom       -0.001027      0.001049      0.000218
    19   Atom       -0.001271     -0.001835     -0.000008
    20   Atom       -0.000738      0.002190     -0.000040
    21   Atom        0.000984     -0.000717      0.000327
    22   Atom       -0.005536     -0.027523      0.002834
    23   Atom       -0.040207     -0.060567      0.013538
    24   Atom        0.014446     -0.061494     -0.001530
    25   Atom        0.014200      0.025186     -0.004944
    26   Atom        0.001965      0.006564      0.001846
    27   Atom       -0.004989      0.025517      0.000391
    28   Atom       -0.002984      0.005980     -0.003234
    29   Atom       -0.018349     -0.127285      0.012170
    30   Atom        0.000683      0.001218     -0.000239
    31   Atom        0.000307      0.001245      0.000086
    32   Atom        0.001826     -0.005994      0.000944
 --------------------------------------------------------


 ---------------------------------------------------------------------------------
              Anisotropic Spin Dipole Couplings in Principal Axis System
 ---------------------------------------------------------------------------------

       Atom             a.u.   MegaHertz   Gauss  10(-4) cm-1        Axes

              Baa    -0.0385    -5.172    -1.846    -1.725 -0.0597 -0.0380  0.9975
     1 C(13)  Bbb     0.0097     1.297     0.463     0.433  0.9943  0.0866  0.0628
              Bcc     0.0289     3.876     1.383     1.293 -0.0888  0.9955  0.0326
 
              Baa    -0.0385    -5.171    -1.845    -1.725 -0.0537  0.0216  0.9983
     2 C(13)  Bbb     0.0097     1.296     0.463     0.432  0.9566 -0.2856  0.0576
              Bcc     0.0289     3.875     1.383     1.293  0.2864  0.9581 -0.0053
 
              Baa    -0.0678    -9.095    -3.245    -3.034  0.9805  0.1904  0.0494
     3 C(13)  Bbb    -0.0673    -9.026    -3.221    -3.011 -0.1925  0.9804  0.0429
              Bcc     0.1350    18.121     6.466     6.044 -0.0402 -0.0516  0.9979
 
              Baa    -0.0209    -2.803    -1.000    -0.935  0.7734  0.6325  0.0432
     4 C(13)  Bbb    -0.0173    -2.320    -0.828    -0.774 -0.6339  0.7721  0.0442
              Bcc     0.0382     5.123     1.828     1.709 -0.0054 -0.0616  0.9981
 
              Baa    -0.0209    -2.800    -0.999    -0.934 -0.6307  0.7757 -0.0241
     5 C(13)  Bbb    -0.0173    -2.318    -0.827    -0.773  0.7760  0.6302 -0.0264
              Bcc     0.0381     5.118     1.826     1.707  0.0053  0.0354  0.9994
 
              Baa    -0.0678    -9.097    -3.246    -3.035  0.9232 -0.3820  0.0410
     6 C(13)  Bbb    -0.0673    -9.030    -3.222    -3.012  0.3830  0.9236 -0.0176
              Bcc     0.1351    18.128     6.468     6.047 -0.0312  0.0319  0.9990
 
              Baa    -0.2406   -32.283   -11.519   -10.768  0.9919 -0.1042  0.0722
     7 C(13)  Bbb    -0.2328   -31.240   -11.147   -10.420  0.1034  0.9945  0.0145
              Bcc     0.4734    63.522    22.666    21.189 -0.0733 -0.0069  0.9973
 
              Baa    -0.0085    -4.534    -1.618    -1.512  0.0074  1.0000  0.0046
     8 H(1)   Bbb    -0.0008    -0.428    -0.153    -0.143  0.0443 -0.0050  0.9990
              Bcc     0.0093     4.962     1.770     1.655  0.9990 -0.0072 -0.0444
 
              Baa    -0.0032    -1.733    -0.618    -0.578  0.7670 -0.6385 -0.0641
     9 H(1)   Bbb    -0.0016    -0.859    -0.307    -0.287  0.0263 -0.0685  0.9973
              Bcc     0.0049     2.592     0.925     0.864  0.6411  0.7666  0.0358
 
              Baa    -0.0032    -1.731    -0.618    -0.578  0.8795  0.4733 -0.0507
    10 H(1)   Bbb    -0.0016    -0.859    -0.307    -0.287  0.0384  0.0356  0.9986
              Bcc     0.0049     2.591     0.924     0.864 -0.4744  0.8802 -0.0131
 
              Baa    -0.0085    -4.534    -1.618    -1.512  0.1927  0.9810  0.0235
    11 H(1)   Bbb    -0.0008    -0.433    -0.155    -0.144  0.0443 -0.0326  0.9985
              Bcc     0.0093     4.967     1.772     1.657  0.9803 -0.1913 -0.0498
 
              Baa    -0.1068    -4.119    -1.470    -1.374 -0.4951  0.8686 -0.0213
    12 N(14)  Bbb    -0.0980    -3.780    -1.349    -1.261  0.8632  0.4890 -0.1255
              Bcc     0.2048     7.899     2.819     2.635  0.0986  0.0805  0.9919
 
              Baa    -0.1065    -4.106    -1.465    -1.370  0.6593  0.7506  0.0443
    13 N(14)  Bbb    -0.0977    -3.768    -1.344    -1.257  0.7479 -0.6486 -0.1415
              Bcc     0.2042     7.874     2.810     2.627  0.0775 -0.1264  0.9889
 
              Baa    -0.0044    -0.593    -0.212    -0.198 -0.0880  0.1099  0.9900
    14 C(13)  Bbb    -0.0017    -0.229    -0.082    -0.076  0.0855  0.9911 -0.1025
              Bcc     0.0061     0.822     0.293     0.274  0.9924 -0.0756  0.0966
 
              Baa    -0.0033    -1.756    -0.627    -0.586  0.2374 -0.2404  0.9412
    15 H(1)   Bbb    -0.0013    -0.684    -0.244    -0.228  0.0360  0.9704  0.2388
              Bcc     0.0046     2.440     0.870     0.814  0.9707  0.0229 -0.2390
 
              Baa    -0.0034    -1.831    -0.653    -0.611 -0.2777  0.1088  0.9545
    16 H(1)   Bbb    -0.0011    -0.563    -0.201    -0.188  0.0959  0.9917 -0.0851
              Bcc     0.0045     2.394     0.854     0.798  0.9559 -0.0679  0.2859
 
              Baa    -0.0040    -2.150    -0.767    -0.717  0.1221  0.1638  0.9789
    17 H(1)   Bbb    -0.0021    -1.117    -0.398    -0.372  0.2951  0.9357 -0.1933
              Bcc     0.0061     3.267     1.166     1.090  0.9476 -0.3125 -0.0659
 
              Baa    -0.0044    -0.591    -0.211    -0.197 -0.1126 -0.1190  0.9865
    18 C(13)  Bbb    -0.0017    -0.230    -0.082    -0.077  0.1149  0.9846  0.1319
              Bcc     0.0061     0.821     0.293     0.274  0.9870 -0.1282  0.0972
 
              Baa    -0.0033    -1.746    -0.623    -0.582  0.2744  0.1620  0.9479
    19 H(1)   Bbb    -0.0013    -0.688    -0.245    -0.229  0.1638  0.9634 -0.2121
              Bcc     0.0046     2.434     0.868     0.812  0.9476 -0.2134 -0.2379
 
              Baa    -0.0034    -1.838    -0.656    -0.613 -0.2980 -0.0736  0.9517
    20 H(1)   Bbb    -0.0010    -0.560    -0.200    -0.187  0.1028  0.9888  0.1086
              Bcc     0.0045     2.398     0.856     0.800  0.9490 -0.1302  0.2871
 
              Baa    -0.0040    -2.150    -0.767    -0.717  0.0903 -0.2097  0.9736
    21 H(1)   Bbb    -0.0021    -1.129    -0.403    -0.377 -0.0986  0.9709  0.2182
              Bcc     0.0061     3.280     1.170     1.094  0.9910  0.1157 -0.0670
 
              Baa    -0.0313    -4.194    -1.496    -1.399  0.3615 -0.0498  0.9311
    22 C(13)  Bbb    -0.0190    -2.548    -0.909    -0.850  0.1017  0.9947  0.0137
              Bcc     0.0502     6.742     2.406     2.249  0.9268 -0.0897 -0.3646
 
              Baa    -0.0619    -8.310    -2.965    -2.772  0.4632  0.4823  0.7436
    23 C(13)  Bbb    -0.0532    -7.144    -2.549    -2.383  0.0046  0.8377 -0.5462
              Bcc     0.1152    15.454     5.514     5.155  0.8863 -0.2564 -0.3858
 
              Baa    -0.0620    -8.325    -2.971    -2.777  0.3539 -0.5851  0.7297
    24 C(13)  Bbb    -0.0534    -7.160    -2.555    -2.388  0.1637  0.8069  0.5676
              Bcc     0.1154    15.485     5.525     5.165  0.9209  0.0814 -0.3813
 
              Baa    -0.0418    -5.613    -2.003    -1.872  0.8249 -0.2245 -0.5187
    25 C(13)  Bbb     0.0155     2.073     0.740     0.692  0.4374 -0.3278  0.8374
              Bcc     0.0264     3.540     1.263     1.181  0.3580  0.9177  0.1722
 
              Baa    -0.0050    -2.688    -0.959    -0.897 -0.6867  0.0039  0.7270
    26 H(1)   Bbb    -0.0037    -1.968    -0.702    -0.657 -0.1593  0.9749 -0.1557
              Bcc     0.0087     4.657     1.662     1.553  0.7093  0.2228  0.6688
 
              Baa    -0.0419    -5.629    -2.008    -1.878  0.8550  0.0660 -0.5144
    27 C(13)  Bbb     0.0155     2.077     0.741     0.693  0.4924  0.2082  0.8451
              Bcc     0.0265     3.551     1.267     1.185 -0.1629  0.9758 -0.1455
 
              Baa    -0.0050    -2.687    -0.959    -0.896 -0.6805  0.1015  0.7257
    28 H(1)   Bbb    -0.0037    -1.983    -0.708    -0.662  0.3435  0.9190  0.1936
              Bcc     0.0088     4.670     1.666     1.558  0.6472 -0.3810  0.6602
 
              Baa    -0.0980   -13.152    -4.693    -4.387  0.5246 -0.0655  0.8488
    29 C(13)  Bbb    -0.0890   -11.940    -4.260    -3.983  0.1025  0.9946  0.0134
              Bcc     0.1870    25.092     8.953     8.370  0.8452 -0.0800 -0.5285
 
              Baa    -0.0029    -1.530    -0.546    -0.510  0.8474 -0.1230 -0.5164
    30 H(1)   Bbb    -0.0001    -0.035    -0.013    -0.012  0.5144 -0.0506  0.8561
              Bcc     0.0029     1.565     0.558     0.522  0.1314  0.9911 -0.0204
 
              Baa    -0.0029    -1.532    -0.547    -0.511  0.8568 -0.0379 -0.5142
    31 H(1)   Bbb    -0.0001    -0.037    -0.013    -0.012  0.5105 -0.0772  0.8564
              Bcc     0.0029     1.569     0.560     0.523  0.0722  0.9963  0.0468
 
              Baa    -0.0138    -7.378    -2.633    -2.461  0.4991 -0.0632  0.8642
    32 H(1)   Bbb     0.0001     0.060     0.021     0.020  0.8605 -0.0818 -0.5029
              Bcc     0.0137     7.318     2.611     2.441  0.1025  0.9946  0.0135
 

 ---------------------------------------------------------------------------------

 No NMR shielding tensors so no spin-rotation constants.
 Leave Link  601 at Tue Mar 24 18:24:06 2026, MaxMem=  2684354560 cpu:               5.2 elap:               0.2
 (Enter /home/programes/qq/gaussian/g16.A03/g16/l9999.exe)
 1\1\GINC-MAGINET231\SP\UB3LYP\Gen\C15H15N2(2)\SOLE\24-Mar-2026\0\\#p b
 3lyp/gen EmpiricalDispersion=GD3BJ pseudo=read scrf=(solvent=n,n-DiMet
 hylFormamide,pcm,read) nosymm pop=(Orbitals=20) geom=checkpoint guess=
 read\\Title Card Required\\0,2\C,0,-8.9632962202,2.926586,0.0819658684
 \C,0,-7.5658067676,2.7844898648,0.1246662269\C,0,-6.714343982,3.891434
 0256,0.162933649\C,0,-7.323877553,5.1449484776,0.1565753046\C,0,-8.727
 2663072,5.287602867,0.1144640214\C,0,-9.5755780734,4.1822914931,0.0760
 15462\C,0,-8.4779767845,0.7451794627,0.073751281\H,0,-5.6311675441,3.7
 821229287,0.1995619291\H,0,-6.6996048811,6.0388382203,0.1861287348\H,0
 ,-9.1596006942,6.2889323243,0.110530076\H,0,-10.6586224451,4.292837247
 8,0.0392747691\N,0,-7.3043685071,1.4149895925,0.1131366564\N,0,-9.4935
 524594,1.6373373601,0.0568572411\C,0,-5.96317964,0.8361914374,0.071345
 8408\H,0,-5.3761071179,1.3649707077,-0.6905405343\H,0,-5.4791242352,0.
 9425831058,1.0515721855\H,0,-6.0353329637,-0.2225224278,-0.1948418381\
 C,0,-10.9233790016,1.3367310328,0.0854684229\H,0,-11.3987210553,1.9672
 303318,0.8475618843\H,0,-11.369910548,1.5430410761,-0.8965733359\H,0,-
 11.0651835561,0.283044525,0.3436879745\C,0,-8.6264283482,-0.7138765731
 ,0.0528355307\C,0,-8.0615263429,-1.491212321,1.0785623289\C,0,-9.33400
 4331,-1.3318527503,-0.9926871992\C,0,-8.209087048,-2.877957837,1.05603
 81495\H,0,-7.5267655685,-1.0093794387,1.8980248308\C,0,-9.4716711822,-
 2.719690718,-1.0082338843\H,0,-9.756549924,-0.7297415378,-1.7980310852
 \C,0,-8.911919542,-3.4921454047,0.0145052916\H,0,-7.7769116614,-3.4795
 595417,1.8568704229\H,0,-10.0147727275,-3.1986677167,-1.8241209897\H,0
 ,-9.0237838979,-4.5776651843,-0.0002841858\\Version=ES64L-G16RevA.03\H
 F=-690.1699997\S2=0.760045\S2-1=0.\S2A=0.750085\RMSD=5.939e-09\Dipole=
 0.0006288,-0.0037644,0.0024166\Quadrupole=10.072638,-9.6560676,-0.4165
 704,-1.9871193,1.983463,-0.3383388\PG=C01 [X(C15H15N2)]\\@


 THE CAUTIOUS SELDOM ERR...CONFUCIUS                   
 Job cpu time:       0 days  0 hours 19 minutes 35.0 seconds.
 Elapsed time:       0 days  0 hours  0 minutes 38.8 seconds.
 File lengths (MBytes):  RWF=    436 Int=      0 D2E=      0 Chk=     20 Scr=      1
 Normal termination of Gaussian 16 at Tue Mar 24 18:24:06 2026.
