 Set GAUSS_PDEF to "32".
 Set GAUSS_WDEF to "maginet227".
 Entering Gaussian System, Link 0=g16
 Initial command:
 /home/programes/qq/gaussian/g16.A03/g16/l1.exe "/scratch/108206/Gau-3029.inp" -scrdir="/scratch/108206/"
 Default linda workers: maginet227
 Default is to use  32 SMP processors on each worker.
 Entering Link 1 = /home/programes/qq/gaussian/g16.A03/g16/l1.exe PID=      3030.
  
 Copyright (c) 1988,1990,1992,1993,1995,1998,2003,2009,2016,
            Gaussian, Inc.  All Rights Reserved.
  
 This is part of the Gaussian(R) 16 program.  It is based on
 the Gaussian(R) 09 system (copyright 2009, Gaussian, Inc.),
 the Gaussian(R) 03 system (copyright 2003, Gaussian, Inc.),
 the Gaussian(R) 98 system (copyright 1998, Gaussian, Inc.),
 the Gaussian(R) 94 system (copyright 1995, Gaussian, Inc.),
 the Gaussian 92(TM) system (copyright 1992, Gaussian, Inc.),
 the Gaussian 90(TM) system (copyright 1990, Gaussian, Inc.),
 the Gaussian 88(TM) system (copyright 1988, Gaussian, Inc.),
 the Gaussian 86(TM) system (copyright 1986, Carnegie Mellon
 University), and the Gaussian 82(TM) system (copyright 1983,
 Carnegie Mellon University). Gaussian is a federally registered
 trademark of Gaussian, Inc.
  
 This software contains proprietary and confidential information,
 including trade secrets, belonging to Gaussian, Inc.
  
 This software is provided under written license and may be
 used, copied, transmitted, or stored only in accord with that
 written license.
  
 The following legend is applicable only to US Government
 contracts under FAR:
  
                    RESTRICTED RIGHTS LEGEND
  
 Use, reproduction and disclosure by the US Government is
 subject to restrictions as set forth in subparagraphs (a)
 and (c) of the Commercial Computer Software - Restricted
 Rights clause in FAR 52.227-19.
  
 Gaussian, Inc.
 340 Quinnipiac St., Bldg. 40, Wallingford CT 06492
  
  
 ---------------------------------------------------------------
 Warning -- This program may not be used in any manner that
 competes with the business of Gaussian, Inc. or will provide
 assistance to any competitor of Gaussian, Inc.  The licensee
 of this program is prohibited from giving any competitor of
 Gaussian, Inc. access to this program.  By using this program,
 the user acknowledges that Gaussian, Inc. is engaged in the
 business of creating and licensing software in the field of
 computational chemistry and represents and warrants to the
 licensee that it is not a competitor of Gaussian, Inc. and that
 it will not use this program in any manner prohibited above.
 ---------------------------------------------------------------
  

 Cite this work as:
 Gaussian 16, Revision A.03,
 M. J. Frisch, G. W. Trucks, H. B. Schlegel, G. E. Scuseria, 
 M. A. Robb, J. R. Cheeseman, G. Scalmani, V. Barone, 
 G. A. Petersson, H. Nakatsuji, X. Li, M. Caricato, A. V. Marenich, 
 J. Bloino, B. G. Janesko, R. Gomperts, B. Mennucci, H. P. Hratchian, 
 J. V. Ortiz, A. F. Izmaylov, J. L. Sonnenberg, D. Williams-Young, 
 F. Ding, F. Lipparini, F. Egidi, J. Goings, B. Peng, A. Petrone, 
 T. Henderson, D. Ranasinghe, V. G. Zakrzewski, J. Gao, N. Rega, 
 G. Zheng, W. Liang, M. Hada, M. Ehara, K. Toyota, R. Fukuda, 
 J. Hasegawa, M. Ishida, T. Nakajima, Y. Honda, O. Kitao, H. Nakai, 
 T. Vreven, K. Throssell, J. A. Montgomery, Jr., J. E. Peralta, 
 F. Ogliaro, M. J. Bearpark, J. J. Heyd, E. N. Brothers, K. N. Kudin, 
 V. N. Staroverov, T. A. Keith, R. Kobayashi, J. Normand, 
 K. Raghavachari, A. P. Rendell, J. C. Burant, S. S. Iyengar, 
 J. Tomasi, M. Cossi, J. M. Millam, M. Klene, C. Adamo, R. Cammi, 
 J. W. Ochterski, R. L. Martin, K. Morokuma, O. Farkas, 
 J. B. Foresman, and D. J. Fox, Gaussian, Inc., Wallingford CT, 2016.
 
 ******************************************
 Gaussian 16:  ES64L-G16RevA.03 25-Dec-2016
                24-Mar-2026 
 ******************************************
 %mem=20GB
 %chk=bi_rad_eq.chk
 SetLPE:    new flags="-opt 'Tsnet.Node.lindarsharg: ssh'  -nodelist 'maginet227' -env GAUSS_MDEF=2684354560 -env GAUSS_EXEDIR="/home/programes/qq/gaussian/g16.A03/g16/bsd:/home/programes/qq/gaussian/g16.A03/g16""
 Will use up to    1 processors via Linda.
 ----------------------------------------------------------------------
 #p b3lyp/gen EmpiricalDispersion=GD3BJ pseudo=read scrf=(solvent=n,n-D
 iMethylFormamide,pcm,read) nosymm pop=(Orbitals=20) geom=checkpoint gu
 ess=read
 ----------------------------------------------------------------------
 1/29=2,38=1,40=2,172=1/1;
 2/12=2,15=1,40=1/2;
 3/5=7,11=2,14=-4,16=1,17=8,25=1,30=1,70=2203,72=148,74=-5,116=-2,124=41/1,2,3;
 4/5=1/1;
 5/5=2,38=6,53=148/2;
 6/7=2,8=2,9=2,10=2,28=1,96=20/1;
 99/5=1,9=1/99;
 Leave Link    1 at Tue Mar 24 18:21:26 2026, MaxMem=  2684354560 cpu:               1.0 elap:               0.0
 (Enter /home/programes/qq/gaussian/g16.A03/g16/l101.exe)
 -------------------
 Title Card Required
 -------------------
 Structure from the checkpoint file:  "bi_rad_eq.chk"
 Charge =  0 Multiplicity = 2
 Redundant internal coordinates found in file.  (old form).
 C,0,-8.9519779629,2.9260539517,-0.0373104221
 C,0,-7.5755672677,2.7811099889,0.2474619144
 C,0,-6.7480231559,3.8914104655,0.4063532407
 C,0,-7.3382949798,5.1643272514,0.2762952559
 C,0,-8.7017925425,5.3077984234,0.0045763599
 C,0,-9.5371429935,4.185124728,-0.1610514826
 C,0,-8.4838496099,0.6983354276,0.0724928555
 H,0,-5.6878618798,3.7820583082,0.6357733376
 H,0,-6.71503687,6.052569038,0.3956386382
 H,0,-9.1320203056,6.3069125531,-0.0867743499
 H,0,-10.5967562516,4.2995232242,-0.3905361794
 N,0,-7.3051128386,1.4202977785,0.3066635588
 N,0,-9.4916237178,1.6503136839,-0.1361656501
 C,0,-5.9560169551,0.888381977,0.2134240845
 H,0,-5.3220493669,1.6156308907,-0.3137878803
 H,0,-5.5194906189,0.694565384,1.2060264134
 H,0,-5.9684319386,-0.0472702919,-0.3582728122
 C,0,-10.9205606067,1.3984786491,-0.0569632848
 H,0,-11.3984092427,2.2261160604,0.4864175306
 H,0,-11.3814339824,1.3188066645,-1.0542493213
 H,0,-11.0997509223,0.4666693169,0.492773124
 C,0,-8.6282076576,-0.7124921201,0.0517154456
 C,0,-7.7852768834,-1.5696198658,0.8365408102
 C,0,-9.6249233867,-1.3578036156,-0.7553272673
 C,0,-7.9336535887,-2.9486320167,0.805492196
 H,0,-7.0440280095,-1.1321115469,1.5049485178
 C,0,-9.7590868421,-2.7385684816,-0.7649679103
 H,0,-10.2602861394,-0.7598684594,-1.4083198821
 C,0,-8.9197420674,-3.5601837798,0.00967017
 H,0,-7.2795897579,-3.564559982,1.428419128
 H,0,-10.5225636801,-3.1907708286,-1.4035756859
 H,0,-9.0308588878,-4.6454921466,-0.0063594229
 Recover connectivity data from disk.
 ITRead=  0  0  0  0  0  0  0  0  0  0  0  0  0  0  0  0  0  0  0  0
 ITRead=  0  0  0  0  0  0  0  0  0  0  0  0
 MicOpt= -1 -1 -1 -1 -1 -1 -1 -1 -1 -1 -1 -1 -1 -1 -1 -1 -1 -1 -1 -1
 MicOpt= -1 -1 -1 -1 -1 -1 -1 -1 -1 -1 -1 -1
                           ----------------------------
                           !    Current Parameters    !
                           ! (Angstroms and Degrees)  !
 --------------------------                            --------------------------
 ! Name  Definition              Value                                          !
 --------------------------------------------------------------------------------
 ! R1    R(1,2)                  1.413                                          !
 ! R2    R(1,6)                  1.3939                                         !
 ! R3    R(1,13)                 1.3887                                         !
 ! R4    R(2,3)                  1.3939                                         !
 ! R5    R(2,12)                 1.3887                                         !
 ! R6    R(3,4)                  1.4091                                         !
 ! R7    R(3,8)                  1.0902                                         !
 ! R8    R(4,5)                  1.3977                                         !
 ! R9    R(4,9)                  1.0916                                         !
 ! R10   R(5,6)                  1.4091                                         !
 ! R11   R(5,10)                 1.0916                                         !
 ! R12   R(6,11)                 1.0902                                         !
 ! R13   R(7,12)                 1.402                                          !
 ! R14   R(7,13)                 1.4019                                         !
 ! R15   R(7,22)                 1.4183                                         !
 ! R16   R(12,14)                1.4532                                         !
 ! R17   R(13,18)                1.4531                                         !
 ! R18   R(14,15)                1.0994                                         !
 ! R19   R(14,16)                1.1015                                         !
 ! R20   R(14,17)                1.0966                                         !
 ! R21   R(18,19)                1.0994                                         !
 ! R22   R(18,20)                1.1015                                         !
 ! R23   R(18,21)                1.0966                                         !
 ! R24   R(22,23)                1.4357                                         !
 ! R25   R(22,24)                1.4357                                         !
 ! R26   R(23,25)                1.3873                                         !
 ! R27   R(23,26)                1.0898                                         !
 ! R28   R(24,27)                1.3873                                         !
 ! R29   R(24,28)                1.0898                                         !
 ! R30   R(25,29)                1.407                                          !
 ! R31   R(25,30)                1.0933                                         !
 ! R32   R(27,29)                1.407                                          !
 ! R33   R(27,31)                1.0933                                         !
 ! R34   R(29,32)                1.0911                                         !
 ! A1    A(2,1,6)              121.2968                                         !
 ! A2    A(2,1,13)             107.3761                                         !
 ! A3    A(6,1,13)             131.3255                                         !
 ! A4    A(1,2,3)              121.3048                                         !
 ! A5    A(1,2,12)             107.3868                                         !
 ! A6    A(3,2,12)             131.3066                                         !
 ! A7    A(2,3,4)              117.4094                                         !
 ! A8    A(2,3,8)              121.4288                                         !
 ! A9    A(4,3,8)              121.1567                                         !
 ! A10   A(3,4,5)              121.2861                                         !
 ! A11   A(3,4,9)              119.0632                                         !
 ! A12   A(5,4,9)              119.6501                                         !
 ! A13   A(4,5,6)              121.2907                                         !
 ! A14   A(4,5,10)             119.6492                                         !
 ! A15   A(6,5,10)             119.0595                                         !
 ! A16   A(1,6,5)              117.4095                                         !
 ! A17   A(1,6,11)             121.4325                                         !
 ! A18   A(5,6,11)             121.1528                                         !
 ! A19   A(12,7,13)            106.2342                                         !
 ! A20   A(12,7,22)            126.8884                                         !
 ! A21   A(13,7,22)            126.8774                                         !
 ! A22   A(2,12,7)             109.4973                                         !
 ! A23   A(2,12,14)            122.4636                                         !
 ! A24   A(7,12,14)            125.5456                                         !
 ! A25   A(1,13,7)             109.5041                                         !
 ! A26   A(1,13,18)            122.5108                                         !
 ! A27   A(7,13,18)            125.5272                                         !
 ! A28   A(12,14,15)           108.9036                                         !
 ! A29   A(12,14,16)           111.9932                                         !
 ! A30   A(12,14,17)           109.5889                                         !
 ! A31   A(15,14,16)           108.6619                                         !
 ! A32   A(15,14,17)           108.7195                                         !
 ! A33   A(16,14,17)           108.9142                                         !
 ! A34   A(13,18,19)           108.8988                                         !
 ! A35   A(13,18,20)           112.0011                                         !
 ! A36   A(13,18,21)           109.5887                                         !
 ! A37   A(19,18,20)           108.6685                                         !
 ! A38   A(19,18,21)           108.7167                                         !
 ! A39   A(20,18,21)           108.9073                                         !
 ! A40   A(7,22,23)            121.7418                                         !
 ! A41   A(7,22,24)            121.7351                                         !
 ! A42   A(23,22,24)           116.5232                                         !
 ! A43   A(22,23,25)           121.2262                                         !
 ! A44   A(22,23,26)           119.6672                                         !
 ! A45   A(25,23,26)           119.0473                                         !
 ! A46   A(22,24,27)           121.2255                                         !
 ! A47   A(22,24,28)           119.6677                                         !
 ! A48   A(27,24,28)           119.0482                                         !
 ! A49   A(23,25,29)           121.3092                                         !
 ! A50   A(23,25,30)           118.8997                                         !
 ! A51   A(29,25,30)           119.7817                                         !
 ! A52   A(24,27,29)           121.3111                                         !
 ! A53   A(24,27,31)           118.8996                                         !
 ! A54   A(29,27,31)           119.7799                                         !
 ! A55   A(25,29,27)           118.4036                                         !
 ! A56   A(25,29,32)           120.7984                                         !
 ! A57   A(27,29,32)           120.798                                          !
 ! D1    D(6,1,2,3)             -0.4547                                         !
 ! D2    D(6,1,2,12)           179.9885                                         !
 ! D3    D(13,1,2,3)           179.9611                                         !
 ! D4    D(13,1,2,12)            0.4042                                         !
 ! D5    D(2,1,6,5)              0.2018                                         !
 ! D6    D(2,1,6,11)           179.3817                                         !
 ! D7    D(13,1,6,5)           179.6735                                         !
 ! D8    D(13,1,6,11)           -1.1466                                         !
 ! D9    D(2,1,13,7)            -0.3383                                         !
 ! D10   D(2,1,13,18)          162.752                                          !
 ! D11   D(6,1,13,7)          -179.8652                                         !
 ! D12   D(6,1,13,18)          -16.775                                          !
 ! D13   D(1,2,3,4)              0.2031                                         !
 ! D14   D(1,2,3,8)            179.3906                                         !
 ! D15   D(12,2,3,4)           179.6401                                         !
 ! D16   D(12,2,3,8)            -1.1724                                         !
 ! D17   D(1,2,12,7)            -0.3245                                         !
 ! D18   D(1,2,12,14)          162.652                                          !
 ! D19   D(3,2,12,7)          -179.8204                                         !
 ! D20   D(3,2,12,14)          -16.8439                                         !
 ! D21   D(2,3,4,5)              0.2847                                         !
 ! D22   D(2,3,4,9)            179.9943                                         !
 ! D23   D(8,3,4,5)           -178.9052                                         !
 ! D24   D(8,3,4,9)              0.8044                                         !
 ! D25   D(3,4,5,6)             -0.5407                                         !
 ! D26   D(3,4,5,10)           179.7526                                         !
 ! D27   D(9,4,5,6)            179.7514                                         !
 ! D28   D(9,4,5,10)             0.0447                                         !
 ! D29   D(4,5,6,1)              0.2859                                         !
 ! D30   D(4,5,6,11)          -178.8964                                         !
 ! D31   D(10,5,6,1)           179.9943                                         !
 ! D32   D(10,5,6,11)            0.812                                          !
 ! D33   D(13,7,12,2)            0.1179                                         !
 ! D34   D(13,7,12,14)        -162.2089                                         !
 ! D35   D(22,7,12,2)         -179.8435                                         !
 ! D36   D(22,7,12,14)          17.8296                                         !
 ! D37   D(12,7,13,1)            0.1399                                         !
 ! D38   D(12,7,13,18)        -162.319                                          !
 ! D39   D(22,7,13,1)         -179.8986                                         !
 ! D40   D(22,7,13,18)          17.6425                                         !
 ! D41   D(12,7,22,23)          29.2757                                         !
 ! D42   D(12,7,22,24)        -150.7227                                         !
 ! D43   D(13,7,22,23)        -150.678                                          !
 ! D44   D(13,7,22,24)          29.3236                                         !
 ! D45   D(2,12,14,15)         -23.8193                                         !
 ! D46   D(2,12,14,16)          96.3847                                         !
 ! D47   D(2,12,14,17)        -142.6313                                         !
 ! D48   D(7,12,14,15)         136.3537                                         !
 ! D49   D(7,12,14,16)        -103.4423                                         !
 ! D50   D(7,12,14,17)          17.5417                                         !
 ! D51   D(1,13,18,19)         -23.4464                                         !
 ! D52   D(1,13,18,20)          96.7676                                         !
 ! D53   D(1,13,18,21)        -142.252                                          !
 ! D54   D(7,13,18,19)         136.8661                                         !
 ! D55   D(7,13,18,20)        -102.9199                                         !
 ! D56   D(7,13,18,21)          18.0605                                         !
 ! D57   D(7,22,23,25)        -179.835                                          !
 ! D58   D(7,22,23,26)           2.9905                                         !
 ! D59   D(24,22,23,25)          0.1635                                         !
 ! D60   D(24,22,23,26)       -177.011                                          !
 ! D61   D(7,22,24,27)        -179.8318                                         !
 ! D62   D(7,22,24,28)           2.9788                                         !
 ! D63   D(23,22,24,27)          0.1697                                         !
 ! D64   D(23,22,24,28)       -177.0196                                         !
 ! D65   D(22,23,25,29)         -0.3352                                         !
 ! D66   D(22,23,25,30)       -179.2117                                         !
 ! D67   D(26,23,25,29)        176.8565                                         !
 ! D68   D(26,23,25,30)         -2.02                                           !
 ! D69   D(22,24,27,29)         -0.3398                                         !
 ! D70   D(22,24,27,31)       -179.2204                                         !
 ! D71   D(28,24,27,29)        176.8666                                         !
 ! D72   D(28,24,27,31)         -2.014                                          !
 ! D73   D(23,25,29,27)          0.1672                                         !
 ! D74   D(23,25,29,32)       -179.8326                                         !
 ! D75   D(30,25,29,27)        179.034                                          !
 ! D76   D(30,25,29,32)         -0.9658                                         !
 ! D77   D(24,27,29,25)          0.1698                                         !
 ! D78   D(24,27,29,32)       -179.8304                                         !
 ! D79   D(31,27,29,25)        179.0407                                         !
 ! D80   D(31,27,29,32)         -0.9595                                         !
 --------------------------------------------------------------------------------
 NAtoms=     32 NQM=       32 NQMF=       0 NMMI=      0 NMMIF=      0
                NMic=       0 NMicF=      0.
                    Isotopes and Nuclear Properties:
 (Nuclear quadrupole moments (NQMom) in fm**2, nuclear magnetic moments (NMagM)
  in nuclear magnetons)

  Atom         1           2           3           4           5           6           7           8           9          10
 IAtWgt=          12          12          12          12          12          12          12           1           1           1
 AtmWgt=  12.0000000  12.0000000  12.0000000  12.0000000  12.0000000  12.0000000  12.0000000   1.0078250   1.0078250   1.0078250
 NucSpn=           0           0           0           0           0           0           0           1           1           1
 AtZEff=   3.6000000   3.6000000   3.6000000   3.6000000   3.6000000   3.6000000   3.6000000   1.0000000   1.0000000   1.0000000
 NQMom=    0.0000000   0.0000000   0.0000000   0.0000000   0.0000000   0.0000000   0.0000000   0.0000000   0.0000000   0.0000000
 NMagM=    0.0000000   0.0000000   0.0000000   0.0000000   0.0000000   0.0000000   0.0000000   2.7928460   2.7928460   2.7928460
 AtZNuc=   6.0000000   6.0000000   6.0000000   6.0000000   6.0000000   6.0000000   6.0000000   1.0000000   1.0000000   1.0000000

  Atom        11          12          13          14          15          16          17          18          19          20
 IAtWgt=           1          14          14          12           1           1           1          12           1           1
 AtmWgt=   1.0078250  14.0030740  14.0030740  12.0000000   1.0078250   1.0078250   1.0078250  12.0000000   1.0078250   1.0078250
 NucSpn=           1           2           2           0           1           1           1           0           1           1
 AtZEff=   1.0000000   4.5500000   4.5500000   3.6000000   1.0000000   1.0000000   1.0000000   3.6000000   1.0000000   1.0000000
 NQMom=    0.0000000   2.0440000   2.0440000   0.0000000   0.0000000   0.0000000   0.0000000   0.0000000   0.0000000   0.0000000
 NMagM=    2.7928460   0.4037610   0.4037610   0.0000000   2.7928460   2.7928460   2.7928460   0.0000000   2.7928460   2.7928460
 AtZNuc=   1.0000000   7.0000000   7.0000000   6.0000000   1.0000000   1.0000000   1.0000000   6.0000000   1.0000000   1.0000000

  Atom        21          22          23          24          25          26          27          28          29          30
 IAtWgt=           1          12          12          12          12           1          12           1          12           1
 AtmWgt=   1.0078250  12.0000000  12.0000000  12.0000000  12.0000000   1.0078250  12.0000000   1.0078250  12.0000000   1.0078250
 NucSpn=           1           0           0           0           0           1           0           1           0           1
 AtZEff=   1.0000000   3.6000000   3.6000000   3.6000000   3.6000000   1.0000000   3.6000000   1.0000000   3.6000000   1.0000000
 NQMom=    0.0000000   0.0000000   0.0000000   0.0000000   0.0000000   0.0000000   0.0000000   0.0000000   0.0000000   0.0000000
 NMagM=    2.7928460   0.0000000   0.0000000   0.0000000   0.0000000   2.7928460   0.0000000   2.7928460   0.0000000   2.7928460
 AtZNuc=   1.0000000   6.0000000   6.0000000   6.0000000   6.0000000   1.0000000   6.0000000   1.0000000   6.0000000   1.0000000

  Atom        31          32
 IAtWgt=           1           1
 AtmWgt=   1.0078250   1.0078250
 NucSpn=           1           1
 AtZEff=   1.0000000   1.0000000
 NQMom=    0.0000000   0.0000000
 NMagM=    2.7928460   2.7928460
 AtZNuc=   1.0000000   1.0000000
 Leave Link  101 at Tue Mar 24 18:21:26 2026, MaxMem=  2684354560 cpu:               3.5 elap:               0.1
 (Enter /home/programes/qq/gaussian/g16.A03/g16/l202.exe)
                          Input orientation:                          
 ---------------------------------------------------------------------
 Center     Atomic      Atomic             Coordinates (Angstroms)
 Number     Number       Type             X           Y           Z
 ---------------------------------------------------------------------
      1          6           0       -8.951978    2.926054   -0.037310
      2          6           0       -7.575567    2.781110    0.247462
      3          6           0       -6.748023    3.891410    0.406353
      4          6           0       -7.338295    5.164327    0.276295
      5          6           0       -8.701793    5.307798    0.004576
      6          6           0       -9.537143    4.185125   -0.161051
      7          6           0       -8.483850    0.698335    0.072493
      8          1           0       -5.687862    3.782058    0.635773
      9          1           0       -6.715037    6.052569    0.395639
     10          1           0       -9.132020    6.306913   -0.086774
     11          1           0      -10.596756    4.299523   -0.390536
     12          7           0       -7.305113    1.420298    0.306664
     13          7           0       -9.491624    1.650314   -0.136166
     14          6           0       -5.956017    0.888382    0.213424
     15          1           0       -5.322049    1.615631   -0.313788
     16          1           0       -5.519491    0.694565    1.206026
     17          1           0       -5.968432   -0.047270   -0.358273
     18          6           0      -10.920561    1.398479   -0.056963
     19          1           0      -11.398409    2.226116    0.486418
     20          1           0      -11.381434    1.318807   -1.054249
     21          1           0      -11.099751    0.466669    0.492773
     22          6           0       -8.628208   -0.712492    0.051715
     23          6           0       -7.785277   -1.569620    0.836541
     24          6           0       -9.624923   -1.357804   -0.755327
     25          6           0       -7.933654   -2.948632    0.805492
     26          1           0       -7.044028   -1.132112    1.504949
     27          6           0       -9.759087   -2.738568   -0.764968
     28          1           0      -10.260286   -0.759868   -1.408320
     29          6           0       -8.919742   -3.560184    0.009670
     30          1           0       -7.279590   -3.564560    1.428419
     31          1           0      -10.522564   -3.190771   -1.403576
     32          1           0       -9.030859   -4.645492   -0.006359
 ---------------------------------------------------------------------
                    Distance matrix (angstroms):
                    1          2          3          4          5
     1  C    0.000000
     2  C    1.413015   0.000000
     3  C    2.446665   1.393859   0.000000
     4  C    2.777083   2.395173   1.409132   0.000000
     5  C    2.395215   2.776964   2.446384   1.397691   0.000000
     6  C    1.393911   2.446614   2.861364   2.446435   1.409127
     7  C    2.279020   2.278934   3.649696   4.615075   4.615112
     8  H    3.440965   2.171662   1.090199   2.182618   3.436578
     9  H    3.868649   3.385988   2.161437   1.091635   2.157501
    10  H    3.386010   3.868532   3.429470   2.157492   1.091636
    11  H    2.171746   3.440960   3.951498   3.436586   2.182572
    12  N    2.257827   1.388690   2.535091   3.744300   4.141815
    13  N    1.388706   2.257685   3.583879   4.141888   3.744441
    14  C    3.631908   2.491289   3.111700   4.494258   5.207124
    15  H    3.869112   2.598401   2.780499   4.123917   5.015588
    16  H    4.278714   3.082201   3.516900   4.914389   5.731705
    17  H    4.224360   3.309008   4.087251   5.425859   6.023262
    18  C    2.491825   3.632262   4.882565   5.208196   4.495498
    19  H    2.597928   3.870302   4.940213   5.016150   4.123188
    20  H    3.085395   4.279884   5.497285   5.736319   4.920736
    21  H    3.307943   4.223350   5.538398   6.021910   5.424488
    22  C    3.654007   3.653987   4.985658   6.020907   6.020925
    23  C    4.726086   4.395434   5.575286   6.771980   6.987922
    24  C    4.395434   4.726103   6.097565   6.987926   6.771992
    25  C    6.021564   5.767978   6.953504   8.151970   8.330675
    26  H    4.742103   4.144528   5.150758   6.421941   6.817018
    27  C    5.767916   6.021596   7.375305   8.330680   8.151938
    28  H    4.144558   4.742136   6.104378   6.817042   6.421975
    29  C    6.486488   6.486552   7.771742   8.870691   8.870662
    30  H    6.861000   6.461408   7.544447   8.804789   9.097732
    31  H    6.461344   6.861055   8.226803   9.097758   8.804759
    32  H    7.572020   7.572101   8.846490   9.958776   9.958735
                    6          7          8          9         10
     6  C    0.000000
     7  C    3.649886   0.000000
     8  H    3.951501   4.200497   0.000000
     9  H    3.429509   5.648092   2.503592   0.000000
    10  H    2.161394   5.648153   4.331188   2.477745   0.000000
    11  H    1.090197   4.200872   5.041659   4.331164   2.503465
    12  N    3.583990   1.401958   2.881272   4.670551   5.231767
    13  N    2.535342   1.401931   4.428186   5.231835   4.670724
    14  C    4.881927   2.538881   2.936605   5.222848   6.287892
    15  H    4.938891   3.314759   2.393511   4.704266   6.047771
    16  H    5.494947   3.173694   3.144225   5.549258   6.798540
    17  H    5.539654   2.658724   3.966183   6.191433   7.103354
    18  C    3.112889   2.538606   5.791586   6.289025   5.224221
    19  H    2.778712   3.316641   5.920609   6.048468   4.702974
    20  H    3.523491   3.170257   6.429662   6.803377   5.556714
    21  H    4.086091   2.659557   6.348291   7.101931   6.190015
    22  C    4.985788   1.418346   5.402568   7.038790   7.038824
    23  C    6.097648   2.493069   5.751514   7.709577   8.044003
    24  C    5.575386   2.492999   6.622220   8.043991   7.709591
    25  C    7.375356   3.760369   7.097505   9.092559   9.375357
    26  H    6.104439   2.734145   5.171433   7.277255   7.888750
    27  C    6.953524   3.760303   7.813803   9.375358   9.092518
    28  H    5.150881   2.734025   6.761248   7.888749   7.277284
    29  C    7.771752   4.281231   8.046463   9.869889   9.869851
    30  H    8.226821   4.632608   7.558749   9.688887  10.157425
    31  H    7.544452   4.632524   8.726605  10.157449   9.688837
    32  H    8.846471   5.372330   9.089091  10.953225  10.953167
                   11         12         13         14         15
    11  H    0.000000
    12  N    4.428424   0.000000
    13  N    2.881724   2.242729   0.000000
    14  C    5.791124   1.453165   3.633630   0.000000
    15  H    5.918758   2.087021   4.173500   1.099435   0.000000
    16  H    6.428325   2.126967   4.300323   1.101535   1.788066
    17  H    6.349570   2.093469   3.917142   1.096557   1.784665
    18  C    2.938057   3.633753   1.453119   4.998000   5.608604
    19  H    2.389710   4.175731   2.086861   5.611033   6.159153
    20  H    3.152920   4.298695   2.127007   5.588149   6.111672
    21  H    3.965351   3.917055   2.093478   5.168547   5.945796
    22  C    5.402876   2.522771   2.522625   3.119223   4.060102
    23  C    6.622460   3.074237   3.771704   3.126698   4.187669
    24  C    5.751772   3.771895   3.074069   4.409615   5.248904
    25  C    7.813985   4.442009   4.946139   4.357094   5.376408
    26  H    6.761464   2.831757   4.052884   2.633286   3.717943
    27  C    7.097649   4.946367   4.441758   5.345593   6.232970
    28  H    5.171706   4.053066   2.831642   4.886053   5.588128
    29  C    8.046585   5.244085   5.243815   5.349291   6.311662
    30  H    8.726740   5.109579   5.876728   4.801744   5.805310
    31  H    7.558853   5.876977   5.109331   6.333050   7.164809
    32  H    9.089165   6.314269   6.313979   6.334566   7.283642
                   16         17         18         19         20
    16  H    0.000000
    17  H    1.788547   0.000000
    18  C    5.591260   5.167645   0.000000
    19  H    6.117611   5.946969   1.099357   0.000000
    20  H    6.313549   5.625935   1.101513   1.788058   0.000000
    21  H    5.630273   5.226744   1.096626   1.784626   1.788508
    22  C    3.602272   2.772186   3.118155   4.061822   3.595774
    23  C    3.224413   2.654440   4.408850   5.252135   4.985022
    24  C    4.991363   3.904495   3.124657   4.187083   3.215420
    25  C    4.388792   3.692471   5.344419   6.235732   5.792828
    26  H    2.397982   2.409436   4.885792   5.592471   5.600856
    27  C    5.800466   4.666642   4.354934   5.376006   4.379268
    28  H    5.605830   4.475534   2.630701   3.715031   2.388143
    29  C    5.576367   4.602844   5.347527   6.312871   5.567441
    30  H    4.613844   4.157250   6.332044   7.168261   6.843686
    31  H    6.851029   5.631551   4.799268   5.803606   4.603909
    32  H    6.505060   5.535878   6.332702   7.284718   6.495855
                   21         22         23         24         25
    21  H    0.000000
    22  C    2.773712   0.000000
    23  C    3.905175   1.435671   0.000000
    24  C    2.657362   1.435683   2.441968   0.000000
    25  C    4.667574   2.459859   1.387319   2.797729   0.000000
    26  H    4.475432   2.190341   1.089785   3.438140   2.140191
    27  C    3.694975   2.459847   2.797713   1.387301   2.417163
    28  H    2.413141   2.190349   3.438134   1.089776   3.886498
    29  C    4.604495   2.862885   2.435790   2.435771   1.407018
    30  H    5.632040   3.442147   2.141454   3.890901   1.093254
    31  H    4.160066   3.442139   3.890886   2.141437   3.411901
    32  H    5.537476   3.953984   3.423879   3.423852   2.177682
                   26         27         28         29         30
    26  H    0.000000
    27  C    3.886485   0.000000
    28  H    4.355458   2.140177   0.000000
    29  C    3.413165   1.406988   3.413139   0.000000
    30  H    2.445026   3.411908   4.979752   2.168633   0.000000
    31  H    4.979739   1.093254   2.445015   2.168586   4.321666
    32  H    4.309918   2.177650   4.309879   1.091100   2.508774
                   31         32
    31  H    0.000000
    32  H    2.508707   0.000000
 Symmetry turned off by external request.
 Stoichiometry    C15H15N2(2)
 Framework group  C1[X(C15H15N2)]
 Deg. of freedom    90
 Full point group                 C1      NOp   1
 Rotational constants (GHZ):           1.2131067           0.2921418           0.2419261
 Leave Link  202 at Tue Mar 24 18:21:26 2026, MaxMem=  2684354560 cpu:               0.6 elap:               0.0
 (Enter /home/programes/qq/gaussian/g16.A03/g16/l301.exe)
 General basis read from cards:  (5D, 7F)
 Centers:       1      2      3      4      5      6      7     14     18     22
 Centers:      23     24     25     27     29     12     13      8      9     10
 Centers:      11     15     16     17     19     20     21     26     28     30
 Centers:      31     32
 cc-pVDZ
 ****
 ======================================================================================================
                                       Pseudopotential Parameters
 ======================================================================================================
  Center     Atomic      Valence      Angular      Power
  Number     Number     Electrons     Momentum     of R      Exponent        Coefficient   SO-Coeffient
 ======================================================================================================
    1          6
                                   No pseudopotential on this center.
    2          6
                                   No pseudopotential on this center.
    3          6
                                   No pseudopotential on this center.
    4          6
                                   No pseudopotential on this center.
    5          6
                                   No pseudopotential on this center.
    6          6
                                   No pseudopotential on this center.
    7          6
                                   No pseudopotential on this center.
    8          1
                                   No pseudopotential on this center.
    9          1
                                   No pseudopotential on this center.
   10          1
                                   No pseudopotential on this center.
   11          1
                                   No pseudopotential on this center.
   12          7
                                   No pseudopotential on this center.
   13          7
                                   No pseudopotential on this center.
   14          6
                                   No pseudopotential on this center.
   15          1
                                   No pseudopotential on this center.
   16          1
                                   No pseudopotential on this center.
   17          1
                                   No pseudopotential on this center.
   18          6
                                   No pseudopotential on this center.
   19          1
                                   No pseudopotential on this center.
   20          1
                                   No pseudopotential on this center.
   21          1
                                   No pseudopotential on this center.
   22          6
                                   No pseudopotential on this center.
   23          6
                                   No pseudopotential on this center.
   24          6
                                   No pseudopotential on this center.
   25          6
                                   No pseudopotential on this center.
   26          1
                                   No pseudopotential on this center.
   27          6
                                   No pseudopotential on this center.
   28          1
                                   No pseudopotential on this center.
   29          6
                                   No pseudopotential on this center.
   30          1
                                   No pseudopotential on this center.
   31          1
                                   No pseudopotential on this center.
   32          1
                                   No pseudopotential on this center.
 ======================================================================================================
 Ernie: Thresh=  0.10000D-02 Tol=  0.10000D-05 Strict=F.
 Ernie:  34 primitive shells out of 449 were deleted.
   313 basis functions,   666 primitive gaussians,   330 cartesian basis functions
    60 alpha electrons       59 beta electrons
       nuclear repulsion energy      1133.4762792409 Hartrees.
 IExCor=  402 DFT=T Ex+Corr=B3LYP ExCW=0 ScaHFX=  0.200000
 ScaDFX=  0.800000  0.720000  1.000000  0.810000 ScalE2=  1.000000  1.000000
 IRadAn=      5 IRanWt=     -1 IRanGd=            0 ICorTp=0 IEmpDi=141
 NAtoms=   32 NActive=   32 NUniq=   32 SFac= 1.00D+00 NAtFMM=   60 NAOKFM=F Big=F
 Integral buffers will be    131072 words long.
 Raffenetti 2 integral format.
 Two-electron integral symmetry is turned off.
 R6Disp:  Grimme-D3(BJ) Dispersion energy=       -0.0696640625 Hartrees.
 Nuclear repulsion after empirical dispersion term =     1133.4066151784 Hartrees.
 Using the following non-standard input for PCM:
 NonEq=write
 --- end of non-standard input.
 ------------------------------------------------------------------------------
 Polarizable Continuum Model (PCM)
 =================================
 Model                : PCM.
 Atomic radii         : UFF (Universal Force Field).
 Polarization charges : Total charges.
 Charge compensation  : None.
 Solution method      : On-the-fly selection.
 Cavity type          : Scaled VdW (van der Waals Surface) (Alpha=1.100).
 Cavity algorithm     : GePol (No added spheres)
                        Default sphere list used, NSphG=   32.
                        Lebedev-Laikov grids with approx.  5.0 points / Ang**2.
                        Smoothing algorithm: York/Karplus (Gamma=1.0000).
                        Polarization charges: spherical gaussians, with
                                              point-specific exponents (IZeta= 3).
                        Self-potential: point-specific (ISelfS= 7).
                        Self-field    : sphere-specific E.n sum rule (ISelfD= 2).
 Solvent              : n,n-DiMethylFormamide, Eps=  37.219000 Eps(inf)=   2.046330
 ------------------------------------------------------------------------------
 GePol: Number of generator spheres                  =      32
 GePol: Total number of spheres                      =      32
 GePol: Number of exposed spheres                    =      32 (100.00%)
 GePol: Number of points                             =    2348
 GePol: Average weight of points                     =       0.13
 GePol: Minimum weight of points                     =   0.17D-10
 GePol: Maximum weight of points                     =    0.20577
 GePol: Number of points with low weight             =     164
 GePol: Fraction of low-weight points (<1% of avg)   =       6.98%
 GePol: Cavity surface area                          =    298.852 Ang**2
 GePol: Cavity volume                                =    326.827 Ang**3
 Leave Link  301 at Tue Mar 24 18:21:26 2026, MaxMem=  2684354560 cpu:               2.2 elap:               0.1
 (Enter /home/programes/qq/gaussian/g16.A03/g16/l302.exe)
 NPDir=0 NMtPBC=     1 NCelOv=     1 NCel=       1 NClECP=     1 NCelD=      1
         NCelK=      1 NCelE2=     1 NClLst=     1 CellRange=     0.0.
 One-electron integrals computed using PRISM.
   1 Symmetry operations used in ECPInt.
 ECPInt:  NShTT=   10878 NPrTT=   87130 LenC2=   10228 LenP2D=   46234.
 LDataN:  DoStor=T MaxTD1= 4 Len=   56
 NBasis=   313 RedAO= T EigKep=  3.17D-04  NBF=   313
 NBsUse=   313 1.00D-06 EigRej= -1.00D+00 NBFU=   313
 Precomputing XC quadrature grid using
 IXCGrd= 4 IRadAn=           5 IRanWt=          -1 IRanGd=           0 AccXCQ= 0.00D+00.
 Generated NRdTot=       0 NPtTot=           0 NUsed=           0 NTot=          32
 NSgBfM=   329   329   329   329   329 MxSgAt=    32 MxSgA2=    32.
 Leave Link  302 at Tue Mar 24 18:21:26 2026, MaxMem=  2684354560 cpu:               8.2 elap:               0.3
 (Enter /home/programes/qq/gaussian/g16.A03/g16/l303.exe)
 DipDrv:  MaxL=1.
 Leave Link  303 at Tue Mar 24 18:21:26 2026, MaxMem=  2684354560 cpu:               1.3 elap:               0.1
 (Enter /home/programes/qq/gaussian/g16.A03/g16/l401.exe)
 Initial guess from the checkpoint file:  "bi_rad_eq.chk"
 B after Tr=     0.000000    0.000000    0.000000
         Rot=    1.000000    0.000000    0.000000    0.000000 Ang=   0.00 deg.
 Guess basis will be translated and rotated to current coordinates.
 JPrj=2 DoOrth=T DoCkMO=T.
 Initial guess <Sx>= 0.0000 <Sy>= 0.0000 <Sz>= 0.5000 <S**2>= 0.7655 S= 0.5077
 Leave Link  401 at Tue Mar 24 18:21:27 2026, MaxMem=  2684354560 cpu:               8.0 elap:               0.3
 (Enter /home/programes/qq/gaussian/g16.A03/g16/l502.exe)
 Two-electron integral symmetry not used.
 UHF open shell SCF:
 Using DIIS extrapolation, IDIIS=  1040.
 NGot=  2684354560 LenX=  2684123386 LenY=  2684014045
 Requested convergence on RMS density matrix=1.00D-08 within 128 cycles.
 Requested convergence on MAX density matrix=1.00D-06.
 Requested convergence on             energy=1.00D-06.
 No special actions if energy rises.
 Fock matrices will be formed incrementally for  20 cycles.

 Cycle   1  Pass 1  IDiag  1:
 FoFJK:  IHMeth= 1 ICntrl=       0 DoSepK=F KAlg= 0 I1Cent=           0 FoldK=F
 IRaf= 880000000 NMat=       1 IRICut=       1 DoRegI=T DoRafI=F ISym2E= 0 IDoP0=0 IntGTp=1.
 FoFCou: FMM=F IPFlag=           0 FMFlag=      100000 FMFlg1=           0
         NFxFlg=           0 DoJE=F BraDBF=F KetDBF=F FulRan=T
         wScrn=  0.000000 ICntrl=         0 IOpCl=  1 I1Cent=           0 NGrid=           0
         NMat0=    1 NMatS0=      1 NMatT0=    0 NMatD0=    1 NMtDS0=    0 NMtDT0=    0
 Symmetry not used in FoFCou.
 Inv3:  Mode=1 IEnd=    16539312.
 Iteration    1 A*A^-1 deviation from unit magnitude is 1.02D-14 for    400.
 Iteration    1 A*A^-1 deviation from orthogonality  is 3.86D-15 for   1501    717.
 Iteration    1 A^-1*A deviation from unit magnitude is 1.04D-14 for    400.
 Iteration    1 A^-1*A deviation from orthogonality  is 3.59D-15 for   2065    392.
 E= -690.211678500477    
 DIIS: error= 5.29D-08 at cycle   1 NSaved=   1.
 NSaved= 1 IEnMin= 1 EnMin= -690.211678500477     IErMin= 1 ErrMin= 5.29D-08
 ErrMax= 5.29D-08  0.00D+00 EMaxC= 1.00D-01 BMatC= 3.14D-12 BMatP= 3.14D-12
 IDIUse=1 WtCom= 1.00D+00 WtEn= 0.00D+00
 Coeff-Com:  0.100D+01
 Coeff:      0.100D+01
 Gap=     0.102 Goal=   None    Shift=    0.000
 Gap=     0.167 Goal=   None    Shift=    0.000
 RMSDP=8.26D-09 MaxDP=3.40D-07              OVMax= 9.90D-07

 NEqSol: Computing the fast-slow partition of the PCM polarization charges.
 Error on total polarization charges =  0.01445
 SCF Done:  E(UB3LYP) =  -690.211678500     A.U. after    1 cycles
            NFock=  1  Conv=0.83D-08     -V/T= 2.0073
 <Sx>= 0.0000 <Sy>= 0.0000 <Sz>= 0.5000 <S**2>= 0.7655 S= 0.5077
 <L.S>= 0.000000000000E+00
 KE= 6.852169659943D+02 PE=-3.867168678612D+03 EE= 1.358333418939D+03
 Annihilation of the first spin contaminant:
 S**2 before annihilation     0.7655,   after     0.7502
 Leave Link  502 at Tue Mar 24 18:21:32 2026, MaxMem=  2684354560 cpu:             129.9 elap:               5.0
 (Enter /home/programes/qq/gaussian/g16.A03/g16/l601.exe)
 Copying SCF densities to generalized density rwf, IOpCl= 1 IROHF=0.

 **********************************************************************

            Population analysis using the SCF density.

 **********************************************************************

 Alpha  occ. eigenvalues --  -14.38370 -14.38366 -10.25661 -10.22977 -10.22935
 Alpha  occ. eigenvalues --  -10.22778 -10.22777 -10.19755 -10.19164 -10.19162
 Alpha  occ. eigenvalues --  -10.18803 -10.18756 -10.18346 -10.18345 -10.18295
 Alpha  occ. eigenvalues --  -10.18293 -10.17571  -1.03167  -0.93361  -0.85844
 Alpha  occ. eigenvalues --   -0.84199  -0.77548  -0.76530  -0.75172  -0.73999
 Alpha  occ. eigenvalues --   -0.72106  -0.68972  -0.64896  -0.61662  -0.59486
 Alpha  occ. eigenvalues --   -0.58939  -0.57828  -0.52691  -0.51873  -0.51220
 Alpha  occ. eigenvalues --   -0.48921  -0.47857  -0.46059  -0.45033  -0.44635
 Alpha  occ. eigenvalues --   -0.44382  -0.43975  -0.43429  -0.41608  -0.41452
 Alpha  occ. eigenvalues --   -0.40030  -0.39799  -0.39435  -0.36835  -0.36578
 Alpha  occ. eigenvalues --   -0.35299  -0.34899  -0.34308  -0.32907  -0.30760
 Alpha  occ. eigenvalues --   -0.27492  -0.25517  -0.23959  -0.22695  -0.11032
 Alpha virt. eigenvalues --   -0.00845  -0.00306   0.00679   0.03208   0.05748
 Alpha virt. eigenvalues --    0.07110   0.07298   0.08967   0.10162   0.11246
 Alpha virt. eigenvalues --    0.11369   0.11767   0.12400   0.13094   0.13257
 Alpha virt. eigenvalues --    0.14288   0.14585   0.15187   0.15725   0.16321
 Alpha virt. eigenvalues --    0.17604   0.18185   0.19293   0.20743   0.21743
 Alpha virt. eigenvalues --    0.25076   0.25862   0.27379   0.28821   0.29146
 Alpha virt. eigenvalues --    0.30038   0.30670   0.32642   0.34603   0.34728
 Alpha virt. eigenvalues --    0.38450   0.39005   0.40081   0.40598   0.43089
 Alpha virt. eigenvalues --    0.43188   0.44712   0.46647   0.46705   0.46899
 Alpha virt. eigenvalues --    0.47087   0.48971   0.49342   0.49447   0.50055
 Alpha virt. eigenvalues --    0.50138   0.50626   0.51148   0.51520   0.52504
 Alpha virt. eigenvalues --    0.52534   0.53441   0.53474   0.53751   0.55080
 Alpha virt. eigenvalues --    0.55471   0.56413   0.57234   0.57902   0.58728
 Alpha virt. eigenvalues --    0.61151   0.61397   0.61812   0.61941   0.62910
 Alpha virt. eigenvalues --    0.63387   0.64785   0.64886   0.65536   0.66171
 Alpha virt. eigenvalues --    0.66425   0.66884   0.67597   0.67728   0.68766
 Alpha virt. eigenvalues --    0.70402   0.71303   0.71642   0.72189   0.73735
 Alpha virt. eigenvalues --    0.75766   0.76515   0.76944   0.77058   0.79987
 Alpha virt. eigenvalues --    0.81825   0.84341   0.86505   0.87059   0.88104
 Alpha virt. eigenvalues --    0.89072   0.90857   0.90972   0.91383   0.91848
 Alpha virt. eigenvalues --    0.93661   0.94429   0.94473   0.94905   0.97836
 Alpha virt. eigenvalues --    0.98654   0.99265   0.99633   1.01379   1.01396
 Alpha virt. eigenvalues --    1.01865   1.03049   1.03922   1.04048   1.05524
 Alpha virt. eigenvalues --    1.06969   1.07873   1.08135   1.08528   1.10493
 Alpha virt. eigenvalues --    1.10677   1.13415   1.14736   1.17246   1.20396
 Alpha virt. eigenvalues --    1.24212   1.24726   1.27550   1.29865   1.30159
 Alpha virt. eigenvalues --    1.32574   1.33740   1.35958   1.37145   1.38505
 Alpha virt. eigenvalues --    1.40832   1.42268   1.42866   1.44657   1.46298
 Alpha virt. eigenvalues --    1.46382   1.48128   1.48325   1.48721   1.49690
 Alpha virt. eigenvalues --    1.50782   1.51568   1.51597   1.52690   1.54585
 Alpha virt. eigenvalues --    1.57353   1.58142   1.59582   1.59672   1.60431
 Alpha virt. eigenvalues --    1.61318   1.61494   1.62641   1.63672   1.63977
 Alpha virt. eigenvalues --    1.64680   1.64785   1.66171   1.66584   1.67725
 Alpha virt. eigenvalues --    1.68201   1.69530   1.70464   1.70645   1.71476
 Alpha virt. eigenvalues --    1.73699   1.75302   1.75631   1.76077   1.76234
 Alpha virt. eigenvalues --    1.77360   1.77380   1.79519   1.80343   1.81342
 Alpha virt. eigenvalues --    1.81764   1.83426   1.83457   1.83718   1.84233
 Alpha virt. eigenvalues --    1.84998   1.85564   1.87523   1.87590   1.89332
 Alpha virt. eigenvalues --    1.89784   1.90145   1.91369   1.92690   1.93231
 Alpha virt. eigenvalues --    1.95534   1.97877   1.98353   1.99641   1.99758
 Alpha virt. eigenvalues --    1.99938   2.00976   2.01805   2.02421   2.04307
 Alpha virt. eigenvalues --    2.06916   2.10730   2.10892   2.11563   2.14241
 Alpha virt. eigenvalues --    2.16077   2.17090   2.18020   2.21355   2.24064
 Alpha virt. eigenvalues --    2.25243   2.29854   2.31370   2.32233   2.37056
 Alpha virt. eigenvalues --    2.39405   2.39939   2.40323   2.42208   2.42467
 Alpha virt. eigenvalues --    2.43508   2.43885   2.44726   2.46047   2.46125
 Alpha virt. eigenvalues --    2.49354   2.49446   2.54110   2.55211   2.57531
 Alpha virt. eigenvalues --    2.59942   2.60527   2.65965   2.66062   2.70488
 Alpha virt. eigenvalues --    2.71794   2.72770   2.75954   2.78039   2.80078
 Alpha virt. eigenvalues --    2.80695   2.88746   2.96546   3.02455   3.04711
 Alpha virt. eigenvalues --    3.06847   3.54328   3.55711
  Beta  occ. eigenvalues --  -14.38149 -14.38144 -10.25122 -10.23022 -10.22979
  Beta  occ. eigenvalues --  -10.22787 -10.22786 -10.19797 -10.19070 -10.19068
  Beta  occ. eigenvalues --  -10.18771 -10.18725 -10.18439 -10.18438 -10.18062
  Beta  occ. eigenvalues --  -10.18061 -10.17219  -1.02711  -0.92932  -0.85555
  Beta  occ. eigenvalues --   -0.83940  -0.77187  -0.76227  -0.74989  -0.73688
  Beta  occ. eigenvalues --   -0.71822  -0.68880  -0.64194  -0.61566  -0.59254
  Beta  occ. eigenvalues --   -0.58790  -0.57601  -0.52554  -0.51680  -0.51073
  Beta  occ. eigenvalues --   -0.48128  -0.47487  -0.45894  -0.44862  -0.44451
  Beta  occ. eigenvalues --   -0.44302  -0.43877  -0.43247  -0.41456  -0.41353
  Beta  occ. eigenvalues --   -0.39956  -0.39697  -0.39196  -0.36599  -0.35882
  Beta  occ. eigenvalues --   -0.35245  -0.34679  -0.33507  -0.32662  -0.30015
  Beta  occ. eigenvalues --   -0.26226  -0.24649  -0.23020  -0.21599
  Beta virt. eigenvalues --   -0.04903   0.00140   0.00220   0.00838   0.05275
  Beta virt. eigenvalues --    0.05807   0.07162   0.07337   0.09000   0.10226
  Beta virt. eigenvalues --    0.11351   0.11407   0.11882   0.12637   0.13221
  Beta virt. eigenvalues --    0.13503   0.14398   0.15177   0.15287   0.16001
  Beta virt. eigenvalues --    0.16394   0.18122   0.18304   0.19403   0.21173
  Beta virt. eigenvalues --    0.21994   0.25592   0.25876   0.27760   0.28901
  Beta virt. eigenvalues --    0.29247   0.30245   0.30787   0.32787   0.34737
  Beta virt. eigenvalues --    0.34898   0.38575   0.39109   0.40404   0.40698
  Beta virt. eigenvalues --    0.43355   0.43559   0.44915   0.46880   0.47103
  Beta virt. eigenvalues --    0.47176   0.47399   0.49408   0.49631   0.49644
  Beta virt. eigenvalues --    0.50396   0.50460   0.50825   0.51460   0.51594
  Beta virt. eigenvalues --    0.52639   0.52831   0.53529   0.53571   0.53958
  Beta virt. eigenvalues --    0.55449   0.55631   0.56898   0.57270   0.58140
  Beta virt. eigenvalues --    0.59113   0.61528   0.61707   0.61866   0.62114
  Beta virt. eigenvalues --    0.62989   0.63486   0.64823   0.64956   0.65592
  Beta virt. eigenvalues --    0.66351   0.66644   0.66995   0.67774   0.68021
  Beta virt. eigenvalues --    0.69004   0.70622   0.71581   0.71731   0.72348
  Beta virt. eigenvalues --    0.73851   0.76139   0.76685   0.77141   0.77434
  Beta virt. eigenvalues --    0.80273   0.82305   0.84543   0.86802   0.87160
  Beta virt. eigenvalues --    0.88186   0.89241   0.91060   0.91160   0.91446
  Beta virt. eigenvalues --    0.91942   0.93970   0.94689   0.94800   0.95114
  Beta virt. eigenvalues --    0.98072   0.99140   0.99483   0.99880   1.01478
  Beta virt. eigenvalues --    1.01707   1.02088   1.03413   1.04058   1.04228
  Beta virt. eigenvalues --    1.05683   1.07510   1.08144   1.08310   1.08786
  Beta virt. eigenvalues --    1.10707   1.10861   1.13663   1.14966   1.17458
  Beta virt. eigenvalues --    1.20629   1.24465   1.24992   1.27717   1.29934
  Beta virt. eigenvalues --    1.30420   1.32781   1.34061   1.36305   1.37559
  Beta virt. eigenvalues --    1.38656   1.40993   1.42407   1.43110   1.44884
  Beta virt. eigenvalues --    1.46512   1.46675   1.48336   1.48466   1.48906
  Beta virt. eigenvalues --    1.49857   1.50942   1.51739   1.51780   1.52856
  Beta virt. eigenvalues --    1.54769   1.57467   1.58261   1.59751   1.59877
  Beta virt. eigenvalues --    1.60788   1.61467   1.61554   1.62795   1.63863
  Beta virt. eigenvalues --    1.64107   1.64833   1.65029   1.66344   1.66697
  Beta virt. eigenvalues --    1.67866   1.68296   1.69714   1.70579   1.70836
  Beta virt. eigenvalues --    1.71597   1.73885   1.75547   1.75794   1.76385
  Beta virt. eigenvalues --    1.76453   1.77515   1.77547   1.79703   1.80688
  Beta virt. eigenvalues --    1.81525   1.81941   1.83540   1.83663   1.84055
  Beta virt. eigenvalues --    1.84324   1.85077   1.85666   1.87665   1.87730
  Beta virt. eigenvalues --    1.89584   1.89989   1.90285   1.91608   1.92887
  Beta virt. eigenvalues --    1.93560   1.95725   1.98013   1.98540   1.99879
  Beta virt. eigenvalues --    2.00042   2.00059   2.01222   2.01963   2.02655
  Beta virt. eigenvalues --    2.04533   2.07289   2.10921   2.11336   2.11704
  Beta virt. eigenvalues --    2.14541   2.16273   2.17195   2.18172   2.21776
  Beta virt. eigenvalues --    2.24494   2.25668   2.29931   2.31580   2.32380
  Beta virt. eigenvalues --    2.37170   2.39442   2.40119   2.40451   2.42373
  Beta virt. eigenvalues --    2.42548   2.43542   2.44041   2.44890   2.46175
  Beta virt. eigenvalues --    2.46301   2.49445   2.49779   2.54258   2.55286
  Beta virt. eigenvalues --    2.57845   2.60431   2.61120   2.66119   2.66241
  Beta virt. eigenvalues --    2.70626   2.71865   2.73012   2.76061   2.78192
  Beta virt. eigenvalues --    2.80472   2.80883   2.88809   2.96654   3.02562
  Beta virt. eigenvalues --    3.04943   3.07021   3.54393   3.55869
          Condensed to atoms (all electrons):
               1          2          3          4          5          6
     1  C    4.903720   0.359593  -0.040057  -0.067868   0.005657   0.509003
     2  C    0.359593   4.903464   0.509080   0.005646  -0.067856  -0.040090
     3  C   -0.040057   0.509080   4.840960   0.487524  -0.009585  -0.047074
     4  C   -0.067868   0.005646   0.487524   4.743678   0.514975  -0.009574
     5  C    0.005657  -0.067856  -0.009585   0.514975   4.743574   0.487584
     6  C    0.509003  -0.040090  -0.047074  -0.009574   0.487584   4.840992
     7  C   -0.093110  -0.093075   0.004149   0.000398   0.000397   0.004134
     8  H    0.011314  -0.031439   0.375042  -0.046531   0.008886  -0.000069
     9  H   -0.000265   0.010115  -0.046972   0.389412  -0.049581   0.010787
    10  H    0.010118  -0.000265   0.010788  -0.049583   0.389409  -0.046970
    11  H   -0.031412   0.011309  -0.000068   0.008884  -0.046514   0.375045
    12  N   -0.057862   0.425261  -0.054621   0.002651   0.000675   0.003115
    13  N    0.425131  -0.057818   0.003115   0.000675   0.002649  -0.054586
    14  C    0.011226  -0.060648  -0.008035   0.000047  -0.000019   0.000063
    15  H    0.001006  -0.010947   0.008098   0.000290  -0.000044  -0.000057
    16  H   -0.000527  -0.000098   0.001971   0.000036  -0.000001   0.000000
    17  H   -0.000354   0.005589   0.000100  -0.000008  -0.000000   0.000017
    18  C   -0.060610   0.011228   0.000063  -0.000019   0.000050  -0.008052
    19  H   -0.010987   0.001011  -0.000057  -0.000044   0.000291   0.008027
    20  H   -0.000018  -0.000530   0.000000  -0.000001   0.000035   0.001953
    21  H    0.005578  -0.000352   0.000017  -0.000000  -0.000008   0.000103
    22  C    0.001527   0.001551  -0.000564   0.000009   0.000009  -0.000564
    23  C    0.000024  -0.000328  -0.000021   0.000000  -0.000000   0.000006
    24  C   -0.000327   0.000026   0.000006  -0.000000   0.000000  -0.000021
    25  C    0.000001   0.000020   0.000000   0.000000   0.000000   0.000000
    26  H   -0.000132  -0.000011  -0.000006  -0.000000   0.000000  -0.000002
    27  C    0.000020   0.000001   0.000000   0.000000   0.000000   0.000000
    28  H   -0.000014  -0.000130  -0.000002   0.000000  -0.000000  -0.000006
    29  C    0.000000   0.000000   0.000000  -0.000000  -0.000000   0.000000
    30  H   -0.000000  -0.000001  -0.000000   0.000000  -0.000000   0.000000
    31  H   -0.000001  -0.000000   0.000000  -0.000000   0.000000  -0.000000
    32  H    0.000000   0.000000  -0.000000   0.000000   0.000000  -0.000000
               7          8          9         10         11         12
     1  C   -0.093110   0.011314  -0.000265   0.010118  -0.031412  -0.057862
     2  C   -0.093075  -0.031439   0.010115  -0.000265   0.011309   0.425261
     3  C    0.004149   0.375042  -0.046972   0.010788  -0.000068  -0.054621
     4  C    0.000398  -0.046531   0.389412  -0.049583   0.008884   0.002651
     5  C    0.000397   0.008886  -0.049581   0.389409  -0.046514   0.000675
     6  C    0.004134  -0.000069   0.010787  -0.046970   0.375045   0.003115
     7  C    5.162490  -0.000722   0.000010   0.000010  -0.000723   0.386587
     8  H   -0.000722   0.720039  -0.014458  -0.000227   0.000048  -0.007010
     9  H    0.000010  -0.014458   0.741658  -0.016078  -0.000226  -0.000122
    10  H    0.000010  -0.000227  -0.016078   0.741656  -0.014464   0.000007
    11  H   -0.000723   0.000048  -0.000226  -0.014464   0.719895  -0.000180
    12  N    0.386587  -0.007010  -0.000122   0.000007  -0.000180   6.331760
    13  N    0.386751  -0.000180   0.000007  -0.000122  -0.006988  -0.036358
    14  C   -0.056561   0.003072  -0.000010  -0.000000   0.000012   0.395958
    15  H    0.005791   0.002530   0.000018  -0.000000   0.000001  -0.021307
    16  H    0.000932  -0.000205   0.000000   0.000000  -0.000001  -0.025563
    17  H   -0.006519  -0.000129  -0.000000   0.000000  -0.000000  -0.018097
    18  C   -0.056624   0.000012  -0.000000  -0.000010   0.003000   0.002909
    19  H    0.005790   0.000001  -0.000000   0.000018   0.002542  -0.000049
    20  H    0.000906  -0.000001   0.000000   0.000000  -0.000204  -0.000116
    21  H   -0.006478  -0.000000   0.000000  -0.000000  -0.000129   0.000295
    22  C    0.367317  -0.000003  -0.000000  -0.000000  -0.000003  -0.042786
    23  C   -0.105559  -0.000002  -0.000000   0.000000   0.000000  -0.005488
    24  C   -0.105514   0.000000   0.000000  -0.000000  -0.000002   0.002979
    25  C    0.009057   0.000000  -0.000000  -0.000000  -0.000000   0.000181
    26  H   -0.022837  -0.000001   0.000000   0.000000  -0.000000   0.001124
    27  C    0.009065  -0.000000  -0.000000  -0.000000   0.000000  -0.000096
    28  H   -0.022843  -0.000000   0.000000   0.000000  -0.000001   0.000091
    29  C    0.000831   0.000000  -0.000000  -0.000000   0.000000  -0.000004
    30  H   -0.000488  -0.000000  -0.000000   0.000000  -0.000000  -0.000004
    31  H   -0.000488  -0.000000   0.000000  -0.000000  -0.000000   0.000001
    32  H    0.000020   0.000000  -0.000000  -0.000000   0.000000   0.000000
              13         14         15         16         17         18
     1  C    0.425131   0.011226   0.001006  -0.000527  -0.000354  -0.060610
     2  C   -0.057818  -0.060648  -0.010947  -0.000098   0.005589   0.011228
     3  C    0.003115  -0.008035   0.008098   0.001971   0.000100   0.000063
     4  C    0.000675   0.000047   0.000290   0.000036  -0.000008  -0.000019
     5  C    0.002649  -0.000019  -0.000044  -0.000001  -0.000000   0.000050
     6  C   -0.054586   0.000063  -0.000057   0.000000   0.000017  -0.008052
     7  C    0.386751  -0.056561   0.005791   0.000932  -0.006519  -0.056624
     8  H   -0.000180   0.003072   0.002530  -0.000205  -0.000129   0.000012
     9  H    0.000007  -0.000010   0.000018   0.000000  -0.000000  -0.000000
    10  H   -0.000122  -0.000000  -0.000000   0.000000   0.000000  -0.000010
    11  H   -0.006988   0.000012   0.000001  -0.000001  -0.000000   0.003000
    12  N   -0.036358   0.395958  -0.021307  -0.025563  -0.018097   0.002909
    13  N    6.331570   0.002906  -0.000047  -0.000116   0.000296   0.396060
    14  C    0.002906   4.470109   0.380905   0.397410   0.388338  -0.000144
    15  H   -0.000047   0.380905   0.634389  -0.037402  -0.014273   0.000006
    16  H   -0.000116   0.397410  -0.037402   0.644563  -0.032682   0.000012
    17  H    0.000296   0.388338  -0.014273  -0.032682   0.613851  -0.000031
    18  C    0.396060  -0.000144   0.000006   0.000012  -0.000031   4.469787
    19  H   -0.021115   0.000007  -0.000000  -0.000001  -0.000000   0.380935
    20  H   -0.025586   0.000012  -0.000001   0.000000   0.000002   0.397383
    21  H   -0.018226  -0.000030  -0.000001   0.000002  -0.000004   0.388324
    22  C   -0.042801  -0.005283   0.000512  -0.000193   0.004236  -0.005299
    23  C    0.002976  -0.000944   0.000307  -0.001231   0.005911   0.000249
    24  C   -0.005512   0.000248   0.000015  -0.000056  -0.000614  -0.000803
    25  C   -0.000095  -0.000041  -0.000024   0.000244   0.000664   0.000000
    26  H    0.000091   0.005169   0.000464  -0.000923  -0.002212   0.000009
    27  C    0.000181   0.000000  -0.000001   0.000002  -0.000049  -0.000034
    28  H    0.001096   0.000009  -0.000000  -0.000003   0.000001   0.005211
    29  C   -0.000004   0.000011   0.000002  -0.000013  -0.000046   0.000011
    30  H    0.000001   0.000011  -0.000001   0.000028   0.000018   0.000000
    31  H   -0.000004   0.000000   0.000000  -0.000000  -0.000001   0.000011
    32  H    0.000000   0.000000  -0.000000  -0.000000   0.000002   0.000000
              19         20         21         22         23         24
     1  C   -0.010987  -0.000018   0.005578   0.001527   0.000024  -0.000327
     2  C    0.001011  -0.000530  -0.000352   0.001551  -0.000328   0.000026
     3  C   -0.000057   0.000000   0.000017  -0.000564  -0.000021   0.000006
     4  C   -0.000044  -0.000001  -0.000000   0.000009   0.000000  -0.000000
     5  C    0.000291   0.000035  -0.000008   0.000009  -0.000000   0.000000
     6  C    0.008027   0.001953   0.000103  -0.000564   0.000006  -0.000021
     7  C    0.005790   0.000906  -0.006478   0.367317  -0.105559  -0.105514
     8  H    0.000001  -0.000001  -0.000000  -0.000003  -0.000002   0.000000
     9  H   -0.000000   0.000000   0.000000  -0.000000  -0.000000   0.000000
    10  H    0.000018   0.000000  -0.000000  -0.000000   0.000000  -0.000000
    11  H    0.002542  -0.000204  -0.000129  -0.000003   0.000000  -0.000002
    12  N   -0.000049  -0.000116   0.000295  -0.042786  -0.005488   0.002979
    13  N   -0.021115  -0.025586  -0.018226  -0.042801   0.002976  -0.005512
    14  C    0.000007   0.000012  -0.000030  -0.005283  -0.000944   0.000248
    15  H   -0.000000  -0.000001  -0.000001   0.000512   0.000307   0.000015
    16  H   -0.000001   0.000000   0.000002  -0.000193  -0.001231  -0.000056
    17  H   -0.000000   0.000002  -0.000004   0.004236   0.005911  -0.000614
    18  C    0.380935   0.397383   0.388324  -0.005299   0.000249  -0.000803
    19  H    0.634000  -0.037247  -0.014287   0.000515   0.000015   0.000308
    20  H   -0.037247   0.644617  -0.032844  -0.000220  -0.000058  -0.001238
    21  H   -0.014287  -0.032844   0.614331   0.004269  -0.000616   0.005826
    22  C    0.000515  -0.000220   0.004269   5.054193   0.418247   0.418230
    23  C    0.000015  -0.000058  -0.000616   0.418247   4.909132   0.002451
    24  C    0.000308  -0.001238   0.005826   0.418230   0.002451   4.909125
    25  C   -0.000001   0.000002  -0.000049   0.016020   0.501064  -0.074065
    26  H   -0.000000  -0.000003   0.000002  -0.053947   0.396043   0.011735
    27  C   -0.000024   0.000255   0.000654   0.016082  -0.074075   0.500856
    28  H    0.000468  -0.000994  -0.002223  -0.053969   0.011740   0.396076
    29  C    0.000002  -0.000014  -0.000044  -0.069485  -0.006227  -0.006164
    30  H    0.000000  -0.000000  -0.000001   0.009764  -0.040570   0.000325
    31  H   -0.000001   0.000029   0.000018   0.009771   0.000323  -0.040588
    32  H   -0.000000  -0.000000   0.000002  -0.000300   0.010705   0.010706
              25         26         27         28         29         30
     1  C    0.000001  -0.000132   0.000020  -0.000014   0.000000  -0.000000
     2  C    0.000020  -0.000011   0.000001  -0.000130   0.000000  -0.000001
     3  C    0.000000  -0.000006   0.000000  -0.000002   0.000000  -0.000000
     4  C    0.000000  -0.000000   0.000000   0.000000  -0.000000   0.000000
     5  C    0.000000   0.000000   0.000000  -0.000000  -0.000000  -0.000000
     6  C    0.000000  -0.000002   0.000000  -0.000006   0.000000   0.000000
     7  C    0.009057  -0.022837   0.009065  -0.022843   0.000831  -0.000488
     8  H    0.000000  -0.000001  -0.000000  -0.000000   0.000000  -0.000000
     9  H   -0.000000   0.000000  -0.000000   0.000000  -0.000000  -0.000000
    10  H   -0.000000   0.000000  -0.000000   0.000000  -0.000000   0.000000
    11  H   -0.000000  -0.000000   0.000000  -0.000001   0.000000  -0.000000
    12  N    0.000181   0.001124  -0.000096   0.000091  -0.000004  -0.000004
    13  N   -0.000095   0.000091   0.000181   0.001096  -0.000004   0.000001
    14  C   -0.000041   0.005169   0.000000   0.000009   0.000011   0.000011
    15  H   -0.000024   0.000464  -0.000001  -0.000000   0.000002  -0.000001
    16  H    0.000244  -0.000923   0.000002  -0.000003  -0.000013   0.000028
    17  H    0.000664  -0.002212  -0.000049   0.000001  -0.000046   0.000018
    18  C    0.000000   0.000009  -0.000034   0.005211   0.000011   0.000000
    19  H   -0.000001  -0.000000  -0.000024   0.000468   0.000002   0.000000
    20  H    0.000002  -0.000003   0.000255  -0.000994  -0.000014  -0.000000
    21  H   -0.000049   0.000002   0.000654  -0.002223  -0.000044  -0.000001
    22  C    0.016020  -0.053947   0.016082  -0.053969  -0.069485   0.009764
    23  C    0.501064   0.396043  -0.074075   0.011740  -0.006227  -0.040570
    24  C   -0.074065   0.011735   0.500856   0.396076  -0.006164   0.000325
    25  C    4.757149  -0.046741   0.014643  -0.000923   0.458403   0.384171
    26  H   -0.046741   0.764956  -0.000921  -0.000190   0.011186  -0.017793
    27  C    0.014643  -0.000921   4.757349  -0.046809   0.458305   0.009654
    28  H   -0.000923  -0.000190  -0.046809   0.765144   0.011195   0.000069
    29  C    0.458403   0.011186   0.458305   0.011195   4.876619  -0.055354
    30  H    0.384171  -0.017793   0.009654   0.000069  -0.055354   0.754638
    31  H    0.009657   0.000069   0.384190  -0.017809  -0.055372  -0.000344
    32  H   -0.051552  -0.000262  -0.051532  -0.000262   0.393239  -0.014866
              31         32
     1  C   -0.000001   0.000000
     2  C   -0.000000   0.000000
     3  C    0.000000  -0.000000
     4  C   -0.000000   0.000000
     5  C    0.000000   0.000000
     6  C   -0.000000  -0.000000
     7  C   -0.000488   0.000020
     8  H   -0.000000   0.000000
     9  H    0.000000  -0.000000
    10  H   -0.000000  -0.000000
    11  H   -0.000000   0.000000
    12  N    0.000001   0.000000
    13  N   -0.000004   0.000000
    14  C    0.000000   0.000000
    15  H    0.000000  -0.000000
    16  H   -0.000000  -0.000000
    17  H   -0.000001   0.000002
    18  C    0.000011   0.000000
    19  H   -0.000001  -0.000000
    20  H    0.000029  -0.000000
    21  H    0.000018   0.000002
    22  C    0.009771  -0.000300
    23  C    0.000323   0.010705
    24  C   -0.040588   0.010706
    25  C    0.009657  -0.051552
    26  H    0.000069  -0.000262
    27  C    0.384190  -0.051532
    28  H   -0.017809  -0.000262
    29  C   -0.055372   0.393239
    30  H   -0.000344  -0.014866
    31  H    0.754690  -0.014870
    32  H   -0.014870   0.756116
          Atomic-Atomic Spin Densities.
               1          2          3          4          5          6
     1  C   -0.030450  -0.002916   0.000994   0.000107  -0.000121   0.005082
     2  C   -0.002916  -0.030385   0.005111  -0.000127   0.000106   0.000994
     3  C    0.000994   0.005111   0.084321  -0.021204  -0.004475   0.003174
     4  C    0.000107  -0.000127  -0.021204   0.028983   0.016594  -0.004484
     5  C   -0.000121   0.000106  -0.004475   0.016594   0.028758  -0.021180
     6  C    0.005082   0.000994   0.003174  -0.004484  -0.021180   0.084497
     7  C   -0.000181  -0.000164   0.001424  -0.000093  -0.000093   0.001423
     8  H   -0.000054  -0.000191   0.001277   0.000083  -0.000037  -0.000017
     9  H   -0.000021   0.000019  -0.000076   0.000686  -0.000166   0.000013
    10  H    0.000019  -0.000021   0.000013  -0.000166   0.000683  -0.000076
    11  H   -0.000191  -0.000054  -0.000017  -0.000037   0.000083   0.001279
    12  N    0.000900   0.002901  -0.004593   0.000252   0.000073  -0.000618
    13  N    0.002946   0.000902  -0.000618   0.000073   0.000251  -0.004591
    14  C   -0.000198   0.000368  -0.000308   0.000013   0.000003  -0.000015
    15  H    0.000086   0.000102   0.001182  -0.000067  -0.000008   0.000018
    16  H   -0.000039  -0.000113   0.000223  -0.000010  -0.000001   0.000003
    17  H    0.000008  -0.000007   0.000077  -0.000002  -0.000000   0.000002
    18  C    0.000374  -0.000196  -0.000015   0.000003   0.000013  -0.000308
    19  H    0.000097   0.000084   0.000018  -0.000008  -0.000065   0.001160
    20  H   -0.000112  -0.000038   0.000003  -0.000001  -0.000010   0.000224
    21  H   -0.000008   0.000008   0.000002  -0.000000  -0.000002   0.000079
    22  C   -0.000017  -0.000015   0.000037  -0.000001  -0.000001   0.000037
    23  C    0.000005  -0.000025  -0.000004   0.000000   0.000000  -0.000002
    24  C   -0.000025   0.000005  -0.000002   0.000000   0.000000  -0.000004
    25  C    0.000000  -0.000001   0.000000  -0.000000  -0.000000   0.000000
    26  H    0.000000   0.000009   0.000000  -0.000000  -0.000000  -0.000000
    27  C   -0.000001   0.000000   0.000000  -0.000000  -0.000000   0.000000
    28  H    0.000009   0.000000  -0.000000  -0.000000  -0.000000   0.000000
    29  C    0.000000   0.000000   0.000000  -0.000000  -0.000000   0.000000
    30  H   -0.000000  -0.000000  -0.000000   0.000000   0.000000  -0.000000
    31  H   -0.000000  -0.000000  -0.000000   0.000000   0.000000  -0.000000
    32  H    0.000000   0.000000   0.000000  -0.000000  -0.000000   0.000000
               7          8          9         10         11         12
     1  C   -0.000181  -0.000054  -0.000021   0.000019  -0.000191   0.000900
     2  C   -0.000164  -0.000191   0.000019  -0.000021  -0.000054   0.002901
     3  C    0.001424   0.001277  -0.000076   0.000013  -0.000017  -0.004593
     4  C   -0.000093   0.000083   0.000686  -0.000166  -0.000037   0.000252
     5  C   -0.000093  -0.000037  -0.000166   0.000683   0.000083   0.000073
     6  C    0.001423  -0.000017   0.000013  -0.000076   0.001279  -0.000618
     7  C    0.427138   0.000003   0.000000   0.000000   0.000003  -0.068385
     8  H    0.000003  -0.004248   0.000072   0.000001  -0.000001   0.000020
     9  H    0.000000   0.000072  -0.001837   0.000065   0.000001   0.000001
    10  H    0.000000   0.000001   0.000065  -0.001826   0.000072  -0.000000
    11  H    0.000003  -0.000001   0.000001   0.000072  -0.004253   0.000002
    12  N   -0.068385   0.000020   0.000001  -0.000000   0.000002   0.148853
    13  N   -0.068368   0.000002  -0.000000   0.000001   0.000019   0.005994
    14  C   -0.003127  -0.000007   0.000000  -0.000000  -0.000000   0.004708
    15  H    0.001654  -0.000013  -0.000003   0.000000   0.000000  -0.002609
    16  H    0.000106   0.000012   0.000000  -0.000000   0.000000  -0.002223
    17  H    0.002970  -0.000003  -0.000000   0.000000  -0.000000  -0.002078
    18  C   -0.003126  -0.000000  -0.000000   0.000000  -0.000006   0.000051
    19  H    0.001618   0.000000   0.000000  -0.000003  -0.000015  -0.000002
    20  H    0.000117   0.000000  -0.000000   0.000000   0.000013  -0.000079
    21  H    0.003032  -0.000000   0.000000  -0.000000  -0.000003   0.000004
    22  C    0.070191   0.000000  -0.000000  -0.000000   0.000000  -0.005245
    23  C   -0.019595   0.000000   0.000000   0.000000  -0.000000   0.001139
    24  C   -0.019601  -0.000000   0.000000   0.000000   0.000000   0.000808
    25  C   -0.000488   0.000000   0.000000  -0.000000   0.000000  -0.000014
    26  H    0.000146  -0.000000   0.000000  -0.000000  -0.000000  -0.000093
    27  C   -0.000486   0.000000  -0.000000   0.000000   0.000000  -0.000001
    28  H    0.000153  -0.000000  -0.000000   0.000000  -0.000000  -0.000019
    29  C    0.000559   0.000000  -0.000000  -0.000000   0.000000  -0.000008
    30  H   -0.000020  -0.000000  -0.000000   0.000000  -0.000000   0.000001
    31  H   -0.000020  -0.000000   0.000000  -0.000000  -0.000000   0.000000
    32  H    0.000002   0.000000  -0.000000  -0.000000   0.000000  -0.000000
              13         14         15         16         17         18
     1  C    0.002946  -0.000198   0.000086  -0.000039   0.000008   0.000374
     2  C    0.000902   0.000368   0.000102  -0.000113  -0.000007  -0.000196
     3  C   -0.000618  -0.000308   0.001182   0.000223   0.000077  -0.000015
     4  C    0.000073   0.000013  -0.000067  -0.000010  -0.000002   0.000003
     5  C    0.000251   0.000003  -0.000008  -0.000001  -0.000000   0.000013
     6  C   -0.004591  -0.000015   0.000018   0.000003   0.000002  -0.000308
     7  C   -0.068368  -0.003127   0.001654   0.000106   0.002970  -0.003126
     8  H    0.000002  -0.000007  -0.000013   0.000012  -0.000003  -0.000000
     9  H   -0.000000   0.000000  -0.000003   0.000000  -0.000000  -0.000000
    10  H    0.000001  -0.000000   0.000000  -0.000000   0.000000   0.000000
    11  H    0.000019  -0.000000   0.000000   0.000000  -0.000000  -0.000006
    12  N    0.005994   0.004708  -0.002609  -0.002223  -0.002078   0.000051
    13  N    0.148752   0.000049  -0.000003  -0.000078   0.000004   0.004750
    14  C    0.000049  -0.005258  -0.002447   0.000935  -0.000883   0.000002
    15  H   -0.000003  -0.002447   0.006975  -0.003059   0.001861   0.000000
    16  H   -0.000078   0.000935  -0.003059   0.009910  -0.002090  -0.000001
    17  H    0.000004  -0.000883   0.001861  -0.002090   0.003882   0.000000
    18  C    0.004750   0.000002   0.000000  -0.000001   0.000000  -0.005315
    19  H   -0.002557   0.000000  -0.000001   0.000001  -0.000001  -0.002383
    20  H   -0.002228  -0.000001   0.000001  -0.000001   0.000003   0.000889
    21  H   -0.002145   0.000000  -0.000001   0.000003  -0.000004  -0.000924
    22  C   -0.005265  -0.000021   0.000262  -0.000342   0.001331  -0.000028
    23  C    0.000810   0.000032  -0.000274   0.000935  -0.002688   0.000064
    24  C    0.001144   0.000063  -0.000036   0.000046  -0.000452   0.000041
    25  C   -0.000001   0.000005  -0.000011   0.000100  -0.000316  -0.000000
    26  H   -0.000019  -0.000042  -0.000036   0.000302   0.000005  -0.000000
    27  C   -0.000014  -0.000000   0.000000  -0.000001   0.000009   0.000006
    28  H   -0.000095  -0.000000   0.000000  -0.000000   0.000003  -0.000042
    29  C   -0.000008  -0.000001   0.000002  -0.000006   0.000083  -0.000001
    30  H    0.000000   0.000001   0.000001  -0.000008   0.000010   0.000000
    31  H    0.000001   0.000000  -0.000000   0.000000  -0.000001   0.000001
    32  H   -0.000000  -0.000000  -0.000000  -0.000000   0.000000  -0.000000
              19         20         21         22         23         24
     1  C    0.000097  -0.000112  -0.000008  -0.000017   0.000005  -0.000025
     2  C    0.000084  -0.000038   0.000008  -0.000015  -0.000025   0.000005
     3  C    0.000018   0.000003   0.000002   0.000037  -0.000004  -0.000002
     4  C   -0.000008  -0.000001  -0.000000  -0.000001   0.000000   0.000000
     5  C   -0.000065  -0.000010  -0.000002  -0.000001   0.000000   0.000000
     6  C    0.001160   0.000224   0.000079   0.000037  -0.000002  -0.000004
     7  C    0.001618   0.000117   0.003032   0.070191  -0.019595  -0.019601
     8  H    0.000000   0.000000  -0.000000   0.000000   0.000000  -0.000000
     9  H    0.000000  -0.000000   0.000000  -0.000000   0.000000   0.000000
    10  H   -0.000003   0.000000  -0.000000  -0.000000   0.000000   0.000000
    11  H   -0.000015   0.000013  -0.000003   0.000000  -0.000000   0.000000
    12  N   -0.000002  -0.000079   0.000004  -0.005245   0.001139   0.000808
    13  N   -0.002557  -0.002228  -0.002145  -0.005265   0.000810   0.001144
    14  C    0.000000  -0.000001   0.000000  -0.000021   0.000032   0.000063
    15  H   -0.000001   0.000001  -0.000001   0.000262  -0.000274  -0.000036
    16  H    0.000001  -0.000001   0.000003  -0.000342   0.000935   0.000046
    17  H   -0.000001   0.000003  -0.000004   0.001331  -0.002688  -0.000452
    18  C   -0.002383   0.000889  -0.000924  -0.000028   0.000064   0.000041
    19  H    0.006794  -0.003039   0.001880   0.000257  -0.000035  -0.000270
    20  H   -0.003039   0.010016  -0.002153  -0.000348   0.000047   0.000948
    21  H    0.001880  -0.002153   0.004076   0.001375  -0.000463  -0.002737
    22  C    0.000257  -0.000348   0.001375  -0.022070  -0.037663  -0.037643
    23  C   -0.000035   0.000047  -0.000463  -0.037663   0.225413   0.006141
    24  C   -0.000270   0.000948  -0.002737  -0.037643   0.006141   0.225394
    25  C    0.000000  -0.000001   0.000009  -0.000659   0.016253   0.003956
    26  H    0.000000  -0.000000   0.000003   0.001309   0.002212  -0.000107
    27  C   -0.000011   0.000102  -0.000321  -0.000663   0.003964   0.016244
    28  H   -0.000037   0.000311  -0.000000   0.001313  -0.000106   0.002203
    29  C    0.000001  -0.000006   0.000085   0.005541  -0.016818  -0.016813
    30  H   -0.000000   0.000000  -0.000001  -0.000041  -0.000082  -0.000038
    31  H    0.000000  -0.000009   0.000010  -0.000041  -0.000038  -0.000081
    32  H   -0.000000  -0.000000   0.000000  -0.000011  -0.000143  -0.000143
              25         26         27         28         29         30
     1  C    0.000000   0.000000  -0.000001   0.000009   0.000000  -0.000000
     2  C   -0.000001   0.000009   0.000000   0.000000   0.000000  -0.000000
     3  C    0.000000   0.000000   0.000000  -0.000000   0.000000  -0.000000
     4  C   -0.000000  -0.000000  -0.000000  -0.000000  -0.000000   0.000000
     5  C   -0.000000  -0.000000  -0.000000  -0.000000  -0.000000   0.000000
     6  C    0.000000  -0.000000   0.000000   0.000000   0.000000  -0.000000
     7  C   -0.000488   0.000146  -0.000486   0.000153   0.000559  -0.000020
     8  H    0.000000  -0.000000   0.000000  -0.000000   0.000000  -0.000000
     9  H    0.000000   0.000000  -0.000000  -0.000000  -0.000000  -0.000000
    10  H   -0.000000  -0.000000   0.000000   0.000000  -0.000000   0.000000
    11  H    0.000000  -0.000000   0.000000  -0.000000   0.000000  -0.000000
    12  N   -0.000014  -0.000093  -0.000001  -0.000019  -0.000008   0.000001
    13  N   -0.000001  -0.000019  -0.000014  -0.000095  -0.000008   0.000000
    14  C    0.000005  -0.000042  -0.000000  -0.000000  -0.000001   0.000001
    15  H   -0.000011  -0.000036   0.000000   0.000000   0.000002   0.000001
    16  H    0.000100   0.000302  -0.000001  -0.000000  -0.000006  -0.000008
    17  H   -0.000316   0.000005   0.000009   0.000003   0.000083   0.000010
    18  C   -0.000000  -0.000000   0.000006  -0.000042  -0.000001   0.000000
    19  H    0.000000   0.000000  -0.000011  -0.000037   0.000001  -0.000000
    20  H   -0.000001  -0.000000   0.000102   0.000311  -0.000006   0.000000
    21  H    0.000009   0.000003  -0.000321  -0.000000   0.000085  -0.000001
    22  C   -0.000659   0.001309  -0.000663   0.001313   0.005541  -0.000041
    23  C    0.016253   0.002212   0.003964  -0.000106  -0.016818  -0.000082
    24  C    0.003956  -0.000107   0.016244   0.002203  -0.016813  -0.000038
    25  C   -0.090257   0.000245   0.001098   0.000008  -0.015879  -0.000390
    26  H    0.000245  -0.012241   0.000008   0.000000  -0.000095   0.000149
    27  C    0.001098   0.000008  -0.090186   0.000250  -0.015912   0.000005
    28  H    0.000008   0.000000   0.000250  -0.012249  -0.000095  -0.000000
    29  C   -0.015879  -0.000095  -0.015912  -0.000095   0.308701  -0.000474
    30  H   -0.000390   0.000149   0.000005  -0.000000  -0.000474   0.004027
    31  H    0.000005  -0.000000  -0.000389   0.000148  -0.000472  -0.000003
    32  H    0.000231   0.000005   0.000231   0.000005   0.003880   0.000185
              31         32
     1  C   -0.000000   0.000000
     2  C   -0.000000   0.000000
     3  C   -0.000000   0.000000
     4  C    0.000000  -0.000000
     5  C    0.000000  -0.000000
     6  C   -0.000000   0.000000
     7  C   -0.000020   0.000002
     8  H   -0.000000   0.000000
     9  H    0.000000  -0.000000
    10  H   -0.000000  -0.000000
    11  H   -0.000000   0.000000
    12  N    0.000000  -0.000000
    13  N    0.000001  -0.000000
    14  C    0.000000  -0.000000
    15  H   -0.000000  -0.000000
    16  H    0.000000  -0.000000
    17  H   -0.000001   0.000000
    18  C    0.000001  -0.000000
    19  H    0.000000  -0.000000
    20  H   -0.000009  -0.000000
    21  H    0.000010   0.000000
    22  C   -0.000041  -0.000011
    23  C   -0.000038  -0.000143
    24  C   -0.000081  -0.000143
    25  C    0.000005   0.000231
    26  H   -0.000000   0.000005
    27  C   -0.000389   0.000231
    28  H    0.000148   0.000005
    29  C   -0.000472   0.003880
    30  H   -0.000003   0.000185
    31  H    0.004020   0.000185
    32  H    0.000185  -0.016369
 Mulliken charges and spin densities:
               1          2
     1  C    0.119622  -0.023706
     2  C    0.119694  -0.023647
     3  C   -0.033852   0.066545
     4  C    0.019404   0.020593
     5  C    0.019418   0.020404
     6  C   -0.033762   0.066688
     7  C    0.226904   0.326790
     8  H   -0.019968  -0.003101
     9  H   -0.024294  -0.001246
    10  H   -0.024288  -0.001237
    11  H   -0.019822  -0.003107
    12  N   -0.283929   0.079738
    13  N   -0.283945   0.079707
    14  C    0.076203  -0.006127
    15  H    0.049772   0.003576
    16  H    0.053814   0.004605
    17  H    0.055995   0.001722
    18  C    0.076365  -0.006149
    19  H    0.049886   0.003486
    20  H    0.053878   0.004650
    21  H    0.055872   0.001807
    22  C   -0.046835  -0.028421
    23  C   -0.024077   0.179080
    24  C   -0.024007   0.179042
    25  C    0.022216  -0.086108
    26  H   -0.044867  -0.008241
    27  C    0.022284  -0.086069
    28  H   -0.044921  -0.008239
    29  C   -0.017077   0.252266
    30  H   -0.029257   0.003322
    31  H   -0.029281   0.003318
    32  H   -0.037146  -0.011943
 Sum of Mulliken charges =  -0.00000   1.00000
 Mulliken charges and spin densities with hydrogens summed into heavy atoms:
               1          2
     1  C    0.119622  -0.023706
     2  C    0.119694  -0.023647
     3  C   -0.053820   0.063444
     4  C   -0.004889   0.019348
     5  C   -0.004870   0.019167
     6  C   -0.053585   0.063582
     7  C    0.226904   0.326790
    12  N   -0.283929   0.079738
    13  N   -0.283945   0.079707
    14  C    0.235784   0.003777
    18  C    0.236001   0.003793
    22  C   -0.046835  -0.028421
    23  C   -0.068943   0.170838
    24  C   -0.068928   0.170803
    25  C   -0.007041  -0.082786
    27  C   -0.006997  -0.082751
    29  C   -0.054222   0.240323
 Electronic spatial extent (au):  <R**2>=          35224.4038
 Charge=              0.0000 electrons
 Dipole moment (field-independent basis, Debye):
    X=              0.1706    Y=              1.7085    Z=              0.0213  Tot=              1.7171
 Quadrupole moment (field-independent basis, Debye-Ang):
   XX=            -87.8825   YY=           -103.6159   ZZ=           -103.6225
   XY=            -16.6213   XZ=              4.4808   YZ=             -0.3779
 Traceless Quadrupole moment (field-independent basis, Debye-Ang):
   XX=             10.4911   YY=             -5.2423   ZZ=             -5.2488
   XY=            -16.6213   XZ=              4.4808   YZ=             -0.3779
 Octapole moment (field-independent basis, Debye-Ang**2):
  XXX=           2196.0045  YYY=           -294.2551  ZZZ=            -24.3462  XYY=            871.0983
  XXY=             86.6763  XXZ=            -84.9268  XZZ=            875.6756  YZZ=           -111.4838
  YYZ=             -7.2207  XYZ=              1.5673
 Hexadecapole moment (field-independent basis, Debye-Ang**3):
 XXXX=         -38084.6860 YYYY=          -5158.9493 ZZZZ=           -263.6206 XXXY=            155.2558
 XXXZ=           1086.1959 YYYX=           2298.7819 YYYZ=            -52.8761 ZZZX=             95.5706
 ZZZY=            -51.1934 XXYY=          -8338.7573 XXZZ=          -7633.4224 YYZZ=          -1012.3657
 XXYZ=             -3.9422 YYXZ=             68.4748 ZZXY=            875.1176
 N-N= 1.133406615178D+03 E-N=-3.867168658405D+03  KE= 6.852169659943D+02

 Atomic contributions to Alpha molecular orbitals:
 Alpha occ 41 OE=-0.444 is C6-p=0.1636 C3-p=0.1635 H11-s=0.1625 H8-s=0.1625
 Alpha occ 42 OE=-0.440 is C5-p=0.1209 C4-p=0.1209 C1-p=0.1021 C2-p=0.1020
 Alpha occ 43 OE=-0.434 is C23-p=0.1437 C24-p=0.1437 C22-p=0.1392 C29-p=0.1369 C25-p=0.1324 C27-p=0.1323
 Alpha occ 44 OE=-0.416 is C22-p=0.1224
 Alpha occ 45 OE=-0.415 is C23-p=0.1386 C24-p=0.1385 C27-p=0.1163 C25-p=0.1163
 Alpha occ 46 OE=-0.400 is C14-p=0.1505 C18-p=0.1461
 Alpha occ 47 OE=-0.398 is C18-p=0.1372 C14-p=0.1328
 Alpha occ 48 OE=-0.394 is C18-p=0.1378 C14-p=0.1377
 Alpha occ 49 OE=-0.368 is C22-p=0.1244
 Alpha occ 50 OE=-0.366 is C4-p=0.1086 H9-s=0.1086 C5-p=0.1086 H10-s=0.1085
 Alpha occ 51 OE=-0.353 is C5-p=0.1203 C4-p=0.1203 H11-s=0.1115 H8-s=0.1114
 Alpha occ 52 OE=-0.349 is H32-s=0.1588 C29-p=0.1193 C24-p=0.1112 C23-p=0.1111 C27-p=0.1071 C25-p=0.1071
 Alpha occ 53 OE=-0.343 is C4-p=0.1223 C5-p=0.1223
 Alpha occ 54 OE=-0.329 is C22-p=0.1100 C29-p=0.1091
 Alpha occ 55 OE=-0.308 is N13-p=0.1995 N12-p=0.1995
 Alpha occ 56 OE=-0.275 is C29-p=0.1976 C22-p=0.1804
 Alpha occ 57 OE=-0.255 is C23-p=0.2614 C24-p=0.2613 C27-p=0.2214 C25-p=0.2213
 Alpha occ 58 OE=-0.240 is C3-p=0.2583 C6-p=0.2583 N12-p=0.1175 N13-p=0.1173
 Alpha occ 59 OE=-0.227 is C29-p=0.1352 C4-p=0.1127 C5-p=0.1124 C1-p=0.1112 C2-p=0.1111
 Alpha occ 60 OE=-0.110 is C7-p=0.2141 C29-p=0.1354
 Alpha vir 61 OE=-0.008 is C3-p=0.2255 C6-p=0.2255
 Alpha vir 62 OE=-0.003 is C25-p=0.2534 C27-p=0.2532 C24-p=0.2038 C23-p=0.2037
 Alpha vir 63 OE=0.007 is C5-p=0.2559 C4-p=0.2555 C2-p=0.1712 C1-p=0.1709
 Alpha vir 64 OE=0.032 is C7-p=0.2175 C22-p=0.1565 C29-p=0.1246
 Alpha vir 65 OE=0.057 is H16-s=0.1492 H20-s=0.1487 H26-s=0.1407 H28-s=0.1404
 Alpha vir 66 OE=0.071 is H9-s=0.2255 H10-s=0.2253 H8-s=0.1380 H11-s=0.1361
 Alpha vir 67 OE=0.073 is H16-s=0.2114 H20-s=0.2102 H15-s=0.1227 H19-s=0.1225 H11-s=0.1089 H8-s=0.1070
 Alpha vir 68 OE=0.090 is H32-s=0.2305 H30-s=0.1374 H31-s=0.1361 H10-s=0.1252 H9-s=0.1250
 Alpha vir 69 OE=0.102 is H11-s=0.2116 H8-s=0.2094 H30-s=0.1146 H31-s=0.1144 H28-s=0.1080 H26-s=0.1076
 Alpha vir 70 OE=0.112 is H21-s=0.2410 H17-s=0.2290 H15-s=0.1411 H19-s=0.1377
 Alpha vir 71 OE=0.114 is H31-s=0.1841 H30-s=0.1829 H17-s=0.1171 H9-s=0.1154 H10-s=0.1154 H21-s=0.1041
 Alpha vir 72 OE=0.118 is H32-s=0.1602 H26-s=0.1174 H28-s=0.1154
 Alpha vir 73 OE=0.124 is H21-s=0.2169 H17-s=0.2152
 Alpha vir 74 OE=0.131 is H15-s=0.1690 H10-s=0.1652 H9-s=0.1627 H19-s=0.1615
 Alpha vir 75 OE=0.133 is C18-p=0.2752 C14-p=0.2744
 Alpha vir 76 OE=0.143 is H32-s=0.5147 H31-s=0.1457 H30-s=0.1443 C29-p=-0.1407
 Alpha vir 77 OE=0.146 is C7-p=0.0748
 Alpha vir 78 OE=0.152 is H8-s=0.2119 H11-s=0.2087
 Alpha vir 79 OE=0.157 is C1-p=0.1457 C2-p=0.1454 C3-p=0.1143 C6-p=0.1143 C4-p=0.1022 C5-p=0.1021
 Alpha vir 80 OE=0.163 is H10-s=0.2337 H9-s=0.2258 H11-s=0.1278 H8-s=0.1200

 Atomic contributions to Beta  molecular orbitals:
 Beta  occ 40 OE=-0.445 is C18-p=0.1642 C14-p=0.1642
 Beta  occ 41 OE=-0.443 is H11-s=0.1627 H8-s=0.1627 C6-p=0.1616 C3-p=0.1616
 Beta  occ 42 OE=-0.439 is C5-p=0.1174 C4-p=0.1173
 Beta  occ 43 OE=-0.432 is C23-p=0.1446 C24-p=0.1445 C22-p=0.1400 C25-p=0.1368 C27-p=0.1367 C29-p=0.1367
 Beta  occ 44 OE=-0.415 is C22-p=0.1295
 Beta  occ 45 OE=-0.414 is C24-p=0.1355 C23-p=0.1354 C25-p=0.1202 C27-p=0.1200
 Beta  occ 46 OE=-0.400 is C14-p=0.1477 C18-p=0.1437
 Beta  occ 47 OE=-0.397 is C18-p=0.1438 C14-p=0.1395
 Beta  occ 48 OE=-0.392 is C14-p=0.1267 C18-p=0.1267 C1-p=0.1080 C2-p=0.1078
 Beta  occ 49 OE=-0.366 is H9-s=0.1391 H10-s=0.1389 C4-p=0.1220 C5-p=0.1219 C6-p=0.1036 C3-p=0.1036
 Beta  occ 50 OE=-0.359 is C22-p=0.1737 C24-p=0.1237 C23-p=0.1236 C27-p=0.1200 C25-p=0.1200
 Beta  occ 51 OE=-0.352 is C5-p=0.1210 C4-p=0.1210 H11-s=0.1127 H8-s=0.1126
 Beta  occ 52 OE=-0.347 is H32-s=0.1621 C29-p=0.1162 C24-p=0.1094 C23-p=0.1094 C27-p=0.1082 C25-p=0.1082
 Beta  occ 53 OE=-0.335 is C4-p=0.1001 C5-p=0.1000
 Beta  occ 54 OE=-0.327 is C29-p=0.0867
 Beta  occ 55 OE=-0.300 is N12-p=0.1897 N13-p=0.1896 C1-p=0.1067 C2-p=0.1066
 Beta  occ 56 OE=-0.262 is C22-p=0.1995 C29-p=0.1699
 Beta  occ 57 OE=-0.246 is C27-p=0.2582 C25-p=0.2580 C23-p=0.2249 C24-p=0.2249
 Beta  occ 58 OE=-0.230 is C3-p=0.2399 C6-p=0.2397 N12-p=0.1346 N13-p=0.1343
 Beta  occ 59 OE=-0.216 is C1-p=0.1089 C2-p=0.1088 C22-p=0.1084 C29-p=0.1049 C4-p=0.1021 C5-p=0.1017
 Beta  vir 60 OE=-0.049 is C7-p=0.2058 C29-p=0.1618
 Beta  vir 61 OE=0.001 is C23-p=0.2337 C24-p=0.2333 C27-p=0.2142 C25-p=0.2139
 Beta  vir 62 OE=0.002 is C6-p=0.2207 C3-p=0.2207
 Beta  vir 63 OE=0.008 is C5-p=0.2445 C4-p=0.2445 C1-p=0.1723 C2-p=0.1723
 Beta  vir 64 OE=0.053 is C7-p=0.2854 C29-p=0.1301 C22-p=0.1129
 Beta  vir 65 OE=0.058 is H16-s=0.1507 H20-s=0.1492 H26-s=0.1378 H28-s=0.1367
 Beta  vir 66 OE=0.072 is H9-s=0.2289 H10-s=0.2288 H8-s=0.1358 H11-s=0.1336
 Beta  vir 67 OE=0.073 is H16-s=0.2148 H20-s=0.2135 H15-s=0.1207 H19-s=0.1205 H11-s=0.1077 H8-s=0.1057
 Beta  vir 68 OE=0.090 is H32-s=0.2188 H30-s=0.1436 H31-s=0.1423 H10-s=0.1235 H9-s=0.1232
 Beta  vir 69 OE=0.102 is H11-s=0.2085 H8-s=0.2063 H30-s=0.1326 H31-s=0.1325 H28-s=0.1003
 Beta  vir 70 OE=0.114 is H21-s=0.2523 H17-s=0.2239 H15-s=0.1451 H19-s=0.1379
 Beta  vir 71 OE=0.114 is H31-s=0.1849 H30-s=0.1826 H17-s=0.1257 H10-s=0.1183 H9-s=0.1178
 Beta  vir 72 OE=0.119 is H32-s=0.1515 H26-s=0.1157 H28-s=0.1138
 Beta  vir 73 OE=0.126 is H21-s=0.2331 H17-s=0.2302
 Beta  vir 74 OE=0.132 is H15-s=0.1479 H10-s=0.1477 H9-s=0.1464 H19-s=0.1413
 Beta  vir 75 OE=0.135 is C18-p=0.2803 C14-p=0.2795
 Beta  vir 76 OE=0.144 is H32-s=0.5378 C29-p=-0.1448 H31-s=0.1421 H30-s=0.1404
 Beta  vir 77 OE=0.152 is H8-s=0.0858
 Beta  vir 78 OE=0.153 is H11-s=0.2274 H8-s=0.2020 H19-s=0.1090 H15-s=0.1011
 Beta  vir 79 OE=0.160 is C1-p=0.1385 C2-p=0.1379 C3-p=0.1248 C6-p=0.1246 C4-p=0.1096 C5-p=0.1092
 
                          Isotropic Fermi Contact Couplings
        Atom                 a.u.       MegaHertz       Gauss      10(-4) cm-1
     1  C(13)             -0.00622      -6.99281      -2.49521      -2.33255
     2  C(13)             -0.00621      -6.98162      -2.49122      -2.32882
     3  C(13)              0.00776       8.72900       3.11473       2.91168
     4  C(13)              0.00100       1.12223       0.40044       0.37433
     5  C(13)              0.00097       1.09111       0.38934       0.36396
     6  C(13)              0.00779       8.75306       3.12331       2.91971
     7  C(13)              0.03716      41.77151      14.90511      13.93347
     8  H(1)              -0.00099      -4.43264      -1.58168      -1.47857
     9  H(1)              -0.00041      -1.83043      -0.65314      -0.61056
    10  H(1)              -0.00041      -1.81875      -0.64898      -0.60667
    11  H(1)              -0.00099      -4.44012      -1.58434      -1.48106
    12  N(14)              0.01539       4.97136       1.77390       1.65827
    13  N(14)              0.01539       4.97108       1.77380       1.65817
    14  C(13)             -0.00148      -1.66011      -0.59237      -0.55375
    15  H(1)               0.00049       2.17288       0.77534       0.72479
    16  H(1)               0.00148       6.59582       2.35355       2.20013
    17  H(1)               0.00079       3.51121       1.25289       1.17121
    18  C(13)             -0.00152      -1.70388      -0.60799      -0.56835
    19  H(1)               0.00047       2.10474       0.75102       0.70207
    20  H(1)               0.00148       6.61654       2.36095       2.20704
    21  H(1)               0.00081       3.61409       1.28960       1.20553
    22  C(13)             -0.01819     -20.45177      -7.29770      -6.82198
    23  C(13)              0.02558      28.76165      10.26287       9.59385
    24  C(13)              0.02560      28.77517      10.26770       9.59836
    25  C(13)             -0.01688     -18.97304      -6.77005      -6.32872
    26  H(1)              -0.00260     -11.63716      -4.15243      -3.88174
    27  C(13)             -0.01687     -18.96631      -6.76765      -6.32648
    28  H(1)              -0.00260     -11.63587      -4.15197      -3.88131
    29  C(13)              0.03194      35.90701      12.81251      11.97729
    30  H(1)               0.00102       4.53833       1.61939       1.51382
    31  H(1)               0.00101       4.53248       1.61730       1.51187
    32  H(1)              -0.00372     -16.60652      -5.92562      -5.53934
 --------------------------------------------------------
       Center         ----  Spin Dipole Couplings  ----
                      3XX-RR        3YY-RR        3ZZ-RR
 --------------------------------------------------------
     1   Atom        0.006178      0.024271     -0.030449
     2   Atom        0.007075      0.023244     -0.030318
     3   Atom       -0.032464     -0.034915      0.067379
     4   Atom       -0.013064     -0.013257      0.026321
     5   Atom       -0.012878     -0.013400      0.026277
     6   Atom       -0.033068     -0.034755      0.067823
     7   Atom       -0.193315     -0.217207      0.410522
     8   Atom        0.005147     -0.003853     -0.001294
     9   Atom       -0.000016      0.001155     -0.001138
    10   Atom       -0.001103      0.002273     -0.001170
    11   Atom        0.004441     -0.003122     -0.001319
    12   Atom       -0.130823     -0.133389      0.264211
    13   Atom       -0.131985     -0.131314      0.263299
    14   Atom        0.007209     -0.001728     -0.005481
    15   Atom        0.004392     -0.001475     -0.002917
    16   Atom        0.003887     -0.001210     -0.002677
    17   Atom        0.005315     -0.001172     -0.004143
    18   Atom        0.007413     -0.001963     -0.005450
    19   Atom        0.003683     -0.000766     -0.002917
    20   Atom        0.003750     -0.001063     -0.002686
    21   Atom        0.005618     -0.001506     -0.004112
    22   Atom        0.004808      0.006256     -0.011063
    23   Atom        0.051519     -0.090569      0.039050
    24   Atom        0.056684     -0.095252      0.038568
    25   Atom       -0.011931      0.040035     -0.028103
    26   Atom        0.005905     -0.006557      0.000651
    27   Atom       -0.014481      0.042577     -0.028096
    28   Atom        0.003398     -0.003711      0.000313
    29   Atom        0.024936     -0.127154      0.102218
    30   Atom       -0.001407      0.003813     -0.002406
    31   Atom       -0.001912      0.004380     -0.002469
    32   Atom       -0.010741      0.018718     -0.007977
 --------------------------------------------------------
                        XY            XZ            YZ
 --------------------------------------------------------
     1   Atom       -0.000571      0.007932     -0.001332
     2   Atom        0.003861      0.008236      0.001305
     3   Atom        0.001405     -0.021461     -0.004275
     4   Atom       -0.000165     -0.007100     -0.002206
     5   Atom        0.000302     -0.006563      0.002427
     6   Atom       -0.001200     -0.020537      0.005517
     7   Atom       -0.000433     -0.136009      0.004649
     8   Atom        0.000868      0.000669      0.000300
     9   Atom        0.002880      0.000321      0.000525
    10   Atom       -0.002407      0.000139     -0.000484
    11   Atom       -0.002599      0.000537     -0.000491
    12   Atom        0.002655      0.007989      0.007158
    13   Atom       -0.003056      0.004708     -0.020564
    14   Atom       -0.001535      0.001742     -0.000427
    15   Atom        0.001224     -0.001349      0.000108
    16   Atom       -0.000229      0.002565     -0.000105
    17   Atom       -0.001400     -0.001788     -0.000145
    18   Atom       -0.000429      0.001833      0.000187
    19   Atom       -0.002248     -0.001365      0.000217
    20   Atom       -0.000865      0.002537     -0.000375
    21   Atom        0.000044     -0.001700      0.000579
    22   Atom        0.000206     -0.008420      0.001194
    23   Atom       -0.025961     -0.142155      0.023172
    24   Atom       -0.000119     -0.143895      0.002146
    25   Atom        0.011022      0.053580     -0.004483
    26   Atom        0.004983      0.006608      0.004739
    27   Atom       -0.001354      0.053374     -0.004402
    28   Atom       -0.007196      0.005311     -0.006119
    29   Atom       -0.012758     -0.198635      0.016948
    30   Atom        0.001789      0.001745      0.001003
    31   Atom       -0.000644      0.001489     -0.001138
    32   Atom        0.003191     -0.009410      0.001363
 --------------------------------------------------------


 ---------------------------------------------------------------------------------
              Anisotropic Spin Dipole Couplings in Principal Axis System
 ---------------------------------------------------------------------------------

       Atom             a.u.   MegaHertz   Gauss  10(-4) cm-1        Axes

              Baa    -0.0321    -4.310    -1.538    -1.438 -0.2025  0.0211  0.9791
     1 C(13)  Bbb     0.0078     1.044     0.373     0.348  0.9783  0.0501  0.2012
              Bcc     0.0243     3.266     1.165     1.089 -0.0448  0.9985 -0.0308
 
              Baa    -0.0321    -4.302    -1.535    -1.435 -0.2051 -0.0088  0.9787
     2 C(13)  Bbb     0.0078     1.040     0.371     0.347  0.9474 -0.2527  0.1963
              Bcc     0.0243     3.261     1.164     1.088  0.2456  0.9675  0.0601
 
              Baa    -0.0370    -4.968    -1.773    -1.657  0.9482 -0.2589  0.1843
     3 C(13)  Bbb    -0.0350    -4.692    -1.674    -1.565  0.2457  0.9650  0.0918
              Bcc     0.0720     9.660     3.447     3.222 -0.2016 -0.0418  0.9786
 
              Baa    -0.0146    -1.953    -0.697    -0.651  0.8922  0.4154  0.1774
     4 C(13)  Bbb    -0.0131    -1.761    -0.628    -0.587 -0.4180  0.9081 -0.0245
              Bcc     0.0277     3.714     1.325     1.239 -0.1713 -0.0523  0.9838
 
              Baa    -0.0145    -1.940    -0.692    -0.647  0.7867 -0.5956  0.1622
     5 C(13)  Bbb    -0.0130    -1.748    -0.624    -0.583  0.5962  0.8013  0.0501
              Bcc     0.0275     3.688     1.316     1.230 -0.1598  0.0573  0.9855
 
              Baa    -0.0371    -4.978    -1.776    -1.660  0.9803  0.0576  0.1889
     6 C(13)  Bbb    -0.0350    -4.703    -1.678    -1.569 -0.0465  0.9969 -0.0628
              Bcc     0.0721     9.681     3.454     3.229 -0.1919  0.0527  0.9800
 
              Baa    -0.2226   -29.870   -10.658    -9.964  0.9724 -0.1028  0.2096
     7 C(13)  Bbb    -0.2172   -29.144   -10.399    -9.721  0.1020  0.9947  0.0147
              Bcc     0.4398    59.014    21.058    19.685 -0.2100  0.0071  0.9777
 
              Baa    -0.0040    -2.111    -0.753    -0.704 -0.0880  0.9921 -0.0896
     8 H(1)   Bbb    -0.0013    -0.718    -0.256    -0.240 -0.1127  0.0795  0.9904
              Bcc     0.0053     2.829     1.010     0.944  0.9897  0.0972  0.1048
 
              Baa    -0.0024    -1.268    -0.452    -0.423  0.7677 -0.6368  0.0712
     9 H(1)   Bbb    -0.0012    -0.646    -0.231    -0.216 -0.1363 -0.0536  0.9892
              Bcc     0.0036     1.914     0.683     0.638  0.6262  0.7691  0.1279
 
              Baa    -0.0024    -1.261    -0.450    -0.421  0.8805  0.4661  0.0865
    10 H(1)   Bbb    -0.0012    -0.647    -0.231    -0.216 -0.1246  0.0515  0.9909
              Bcc     0.0036     1.908     0.681     0.636 -0.4574  0.8832 -0.1034
 
              Baa    -0.0040    -2.116    -0.755    -0.706  0.2864  0.9508  0.1181
    11 H(1)   Bbb    -0.0013    -0.719    -0.257    -0.240 -0.1293 -0.0838  0.9881
              Bcc     0.0053     2.835     1.012     0.946  0.9494 -0.2982  0.0990
 
              Baa    -0.1351    -5.209    -1.859    -1.738 -0.5242  0.8516 -0.0048
    12 N(14)  Bbb    -0.1294    -4.992    -1.781    -1.665  0.8514  0.5239 -0.0268
              Bcc     0.2645    10.201     3.640     3.403  0.0203  0.0181  0.9996
 
              Baa    -0.1350    -5.208    -1.858    -1.737  0.6854  0.7275  0.0295
    13 N(14)  Bbb    -0.1294    -4.991    -1.781    -1.665  0.7280 -0.6841 -0.0446
              Bcc     0.2644    10.198     3.639     3.402  0.0123 -0.0520  0.9986
 
              Baa    -0.0057    -0.769    -0.274    -0.256 -0.1266  0.0571  0.9903
    14 C(13)  Bbb    -0.0020    -0.266    -0.095    -0.089  0.1711  0.9846 -0.0349
              Bcc     0.0077     1.034     0.369     0.345  0.9771 -0.1651  0.1344
 
              Baa    -0.0032    -1.720    -0.614    -0.574  0.2020 -0.2005  0.9586
    15 H(1)   Bbb    -0.0016    -0.871    -0.311    -0.290 -0.1436  0.9622  0.2315
              Bcc     0.0049     2.591     0.924     0.864  0.9688  0.1844 -0.1656
 
              Baa    -0.0036    -1.900    -0.678    -0.634 -0.3253  0.0107  0.9456
    16 H(1)   Bbb    -0.0012    -0.651    -0.232    -0.217  0.0431  0.9991  0.0035
              Bcc     0.0048     2.551     0.910     0.851  0.9446 -0.0419  0.3254
 
              Baa    -0.0045    -2.411    -0.860    -0.804  0.1945  0.1235  0.9731
    17 H(1)   Bbb    -0.0014    -0.737    -0.263    -0.246  0.1620  0.9744 -0.1561
              Bcc     0.0059     3.148     1.123     1.050  0.9674 -0.1880 -0.1695
 
              Baa    -0.0057    -0.768    -0.274    -0.256 -0.1400 -0.0650  0.9880
    18 C(13)  Bbb    -0.0020    -0.263    -0.094    -0.088  0.0319  0.9970  0.0701
              Bcc     0.0077     1.031     0.368     0.344  0.9896 -0.0413  0.1375
 
              Baa    -0.0032    -1.717    -0.613    -0.573  0.2322  0.1275  0.9643
    19 H(1)   Bbb    -0.0016    -0.873    -0.312    -0.291  0.3366  0.9196 -0.2026
              Bcc     0.0049     2.590     0.924     0.864  0.9126 -0.3716 -0.1706
 
              Baa    -0.0036    -1.904    -0.679    -0.635 -0.3243  0.0296  0.9455
    20 H(1)   Bbb    -0.0012    -0.647    -0.231    -0.216  0.1598  0.9869  0.0239
              Bcc     0.0048     2.551     0.910     0.851  0.9324 -0.1588  0.3248
 
              Baa    -0.0045    -2.407    -0.859    -0.803  0.1634 -0.1888  0.9683
    21 H(1)   Bbb    -0.0014    -0.744    -0.266    -0.248  0.0387  0.9820  0.1849
              Bcc     0.0059     3.152     1.125     1.051  0.9858 -0.0073 -0.1677
 
              Baa    -0.0148    -1.981    -0.707    -0.661  0.3951 -0.0560  0.9169
    22 C(13)  Bbb     0.0063     0.843     0.301     0.281  0.1416  0.9899 -0.0006
              Bcc     0.0085     1.138     0.406     0.380  0.9077 -0.1300 -0.3990
 
              Baa    -0.0975   -13.089    -4.671    -4.366  0.6671  0.4045  0.6256
    23 C(13)  Bbb    -0.0943   -12.656    -4.516    -4.222 -0.2010  0.9064 -0.3717
              Bcc     0.1919    25.746     9.187     8.588  0.7174 -0.1222 -0.6859
 
              Baa    -0.0975   -13.087    -4.670    -4.365  0.5705 -0.5478  0.6119
    24 C(13)  Bbb    -0.0943   -12.653    -4.515    -4.220  0.3783  0.8366  0.3963
              Bcc     0.1918    25.740     9.185     8.586  0.7290 -0.0054 -0.6845
 
              Baa    -0.0752   -10.088    -3.600    -3.365 -0.6529  0.0917  0.7519
    25 C(13)  Bbb     0.0312     4.186     1.494     1.396  0.6324 -0.4802  0.6078
              Bcc     0.0440     5.903     2.106     1.969  0.4168  0.8723  0.2555
 
              Baa    -0.0091    -4.882    -1.742    -1.628 -0.1562  0.9264 -0.3426
    26 H(1)   Bbb    -0.0036    -1.937    -0.691    -0.646 -0.6215  0.1774  0.7630
              Bcc     0.0128     6.819     2.433     2.274  0.7677  0.3322  0.5481
 
              Baa    -0.0751   -10.084    -3.598    -3.364 -0.6602  0.0205  0.7508
    27 C(13)  Bbb     0.0312     4.183     1.493     1.395  0.7148  0.3241  0.6197
              Bcc     0.0440     5.900     2.105     1.968 -0.2306  0.9458 -0.2286
 
              Baa    -0.0091    -4.881    -1.742    -1.628  0.3403  0.8651  0.3685
    28 H(1)   Bbb    -0.0036    -1.939    -0.692    -0.647 -0.6458 -0.0699  0.7603
              Bcc     0.0128     6.820     2.434     2.275  0.6835 -0.4967  0.5349
 
              Baa    -0.1389   -18.634    -6.649    -6.216  0.7658 -0.0878  0.6371
    29 C(13)  Bbb    -0.1282   -17.205    -6.139    -5.739  0.1019  0.9947  0.0146
              Bcc     0.2671    35.839    12.788    11.955 -0.6350  0.0537  0.7706
 
              Baa    -0.0037    -1.992    -0.711    -0.664 -0.6205  0.0430  0.7830
    30 H(1)   Bbb    -0.0010    -0.508    -0.181    -0.170  0.7112 -0.3900  0.5850
              Bcc     0.0047     2.500     0.892     0.834  0.3305  0.9198  0.2114
 
              Baa    -0.0037    -1.992    -0.711    -0.664 -0.6188  0.0607  0.7832
    31 H(1)   Bbb    -0.0010    -0.508    -0.181    -0.169  0.7736  0.2202  0.5941
              Bcc     0.0047     2.500     0.892     0.834 -0.1364  0.9736 -0.1833
 
              Baa    -0.0192   -10.222    -3.648    -3.410  0.7570 -0.0871  0.6476
    32 H(1)   Bbb     0.0001     0.050     0.018     0.017 -0.6455  0.0548  0.7618
              Bcc     0.0191    10.172     3.630     3.393  0.1018  0.9947  0.0147
 

 ---------------------------------------------------------------------------------

 No NMR shielding tensors so no spin-rotation constants.
 Leave Link  601 at Tue Mar 24 18:21:32 2026, MaxMem=  2684354560 cpu:               6.4 elap:               0.3
 (Enter /home/programes/qq/gaussian/g16.A03/g16/l9999.exe)
 1\1\GINC-MAGINET227\SP\UB3LYP\Gen\C15H15N2(2)\SOLE\24-Mar-2026\0\\#p b
 3lyp/gen EmpiricalDispersion=GD3BJ pseudo=read scrf=(solvent=n,n-DiMet
 hylFormamide,pcm,read) nosymm pop=(Orbitals=20) geom=checkpoint guess=
 read\\Title Card Required\\0,2\C,0,-8.9519779629,2.9260539517,-0.03731
 04221\C,0,-7.5755672677,2.7811099889,0.2474619144\C,0,-6.7480231559,3.
 8914104655,0.4063532407\C,0,-7.3382949798,5.1643272514,0.2762952559\C,
 0,-8.7017925425,5.3077984234,0.0045763599\C,0,-9.5371429935,4.18512472
 8,-0.1610514826\C,0,-8.4838496099,0.6983354276,0.0724928555\H,0,-5.687
 8618798,3.7820583082,0.6357733376\H,0,-6.71503687,6.052569038,0.395638
 6382\H,0,-9.1320203056,6.3069125531,-0.0867743499\H,0,-10.5967562516,4
 .2995232242,-0.3905361794\N,0,-7.3051128386,1.4202977785,0.3066635588\
 N,0,-9.4916237178,1.6503136839,-0.1361656501\C,0,-5.9560169551,0.88838
 1977,0.2134240845\H,0,-5.3220493669,1.6156308907,-0.3137878803\H,0,-5.
 5194906189,0.694565384,1.2060264134\H,0,-5.9684319386,-0.0472702919,-0
 .3582728122\C,0,-10.9205606067,1.3984786491,-0.0569632848\H,0,-11.3984
 092427,2.2261160604,0.4864175306\H,0,-11.3814339824,1.3188066645,-1.05
 42493213\H,0,-11.0997509223,0.4666693169,0.492773124\C,0,-8.6282076576
 ,-0.7124921201,0.0517154456\C,0,-7.7852768834,-1.5696198658,0.83654081
 02\C,0,-9.6249233867,-1.3578036156,-0.7553272673\C,0,-7.9336535887,-2.
 9486320167,0.805492196\H,0,-7.0440280095,-1.1321115469,1.5049485178\C,
 0,-9.7590868421,-2.7385684816,-0.7649679103\H,0,-10.2602861394,-0.7598
 684594,-1.4083198821\C,0,-8.9197420674,-3.5601837798,0.00967017\H,0,-7
 .2795897579,-3.564559982,1.428419128\H,0,-10.5225636801,-3.1907708286,
 -1.4035756859\H,0,-9.0308588878,-4.6454921466,-0.0063594229\\Version=E
 S64L-G16RevA.03\HF=-690.2116785\S2=0.765539\S2-1=0.\S2A=0.750192\RMSD=
 8.258e-09\Dipole=0.0671096,0.6721621,0.0083955\Quadrupole=7.799893,-3.
 8975127,-3.9023803,-12.3575124,3.3313939,-0.2809496\PG=C01 [X(C15H15N2
 )]\\@


 The lyf so short, the craft so long to lerne.
                             -- Chaucer
 Job cpu time:       0 days  0 hours  2 minutes 42.4 seconds.
 Elapsed time:       0 days  0 hours  0 minutes  6.4 seconds.
 File lengths (MBytes):  RWF=    188 Int=      0 D2E=      0 Chk=     23 Scr=      1
 Normal termination of Gaussian 16 at Tue Mar 24 18:21:32 2026.
