%mem=20GB
%chk=bi_rad.chk
#p opt freq b3lyp/gen EmpiricalDispersion=GD3BJ pseudo=read scrf=(solvent=n,n-DiMethylFormamide,pcm) nosymm pop=(Orbitals=20)

Title Card Required

0 2
 C                 -8.88447764    2.90419230    0.09193147
 C                 -7.43869864    2.90419230    0.09193147
 C                 -6.74001064    4.09463230    0.09193147
 C                 -7.46650564    5.29712030    0.09206147
 C                 -8.85646864    5.29711930    0.09217847
 C                 -9.58301864    4.09465430    0.09218347
 C                 -8.16185664    0.69899330    0.09160947
 H                 -5.64122364    4.11116530    0.09178447
 H                 -6.92053864    6.25236230    0.09208147
 H                 -9.40247364    6.25232830    0.09241647
 H                -10.68178064    4.11135630    0.09238547
 N                 -7.01172164    1.51063330    0.09178847
 N                 -9.31148164    1.51047330    0.09170147
 C                 -5.62078935    1.03502070    0.09182487
 H                 -5.12062316    1.39532641   -0.78276851
 H                 -5.11959681    1.39846171    0.96453138
 H                 -5.60970120   -0.03492014    0.09373822
 C                -10.70243811    1.03493139    0.09158566
 H                -11.20311301    1.39665825    0.96530090
 H                -11.20308569    1.39700384   -0.78200208
 H                -10.71358008   -0.03501058    0.09137387
 C                 -8.58019703   -0.78293677    0.06982431
 C                 -8.19816077   -1.63092487    1.10974541
 C                 -9.34110861   -1.27740146   -0.98945204
 C                 -8.57642399   -2.97321686    1.08997443
 H                 -7.59762253   -1.24096967    1.94432947
 C                 -9.72040404   -2.61984965   -1.00888667
 H                 -9.64245001   -0.60915231   -1.80906503
 C                 -9.33809470   -3.46780312    0.03051292
 H                 -8.27480510   -3.64181613    1.90930196
 H                -10.32069757   -3.00933814   -1.84400379
 H                 -9.63627283   -4.52617487    0.01517064

-C N H 0
cc-pVDZ
****










