 Set GAUSS_PDEF to "32".
 Set GAUSS_WDEF to "maginet226".
 Entering Gaussian System, Link 0=g16
 Initial command:
 /home/programes/qq/gaussian/g16.A03/g16/l1.exe "/home/qq/sole/POM/photo-CO2-Rebpy_boost/Gau-2375050.inp" -scrdir="/home/qq/sole/POM/photo-CO2-Rebpy_boost/"
 Default linda workers: maginet226
 Default is to use  32 SMP processors on each worker.
 Entering Link 1 = /home/programes/qq/gaussian/g16.A03/g16/l1.exe PID=   2375051.
  
 Copyright (c) 1988,1990,1992,1993,1995,1998,2003,2009,2016,
            Gaussian, Inc.  All Rights Reserved.
  
 This is part of the Gaussian(R) 16 program.  It is based on
 the Gaussian(R) 09 system (copyright 2009, Gaussian, Inc.),
 the Gaussian(R) 03 system (copyright 2003, Gaussian, Inc.),
 the Gaussian(R) 98 system (copyright 1998, Gaussian, Inc.),
 the Gaussian(R) 94 system (copyright 1995, Gaussian, Inc.),
 the Gaussian 92(TM) system (copyright 1992, Gaussian, Inc.),
 the Gaussian 90(TM) system (copyright 1990, Gaussian, Inc.),
 the Gaussian 88(TM) system (copyright 1988, Gaussian, Inc.),
 the Gaussian 86(TM) system (copyright 1986, Carnegie Mellon
 University), and the Gaussian 82(TM) system (copyright 1983,
 Carnegie Mellon University). Gaussian is a federally registered
 trademark of Gaussian, Inc.
  
 This software contains proprietary and confidential information,
 including trade secrets, belonging to Gaussian, Inc.
  
 This software is provided under written license and may be
 used, copied, transmitted, or stored only in accord with that
 written license.
  
 The following legend is applicable only to US Government
 contracts under FAR:
  
                    RESTRICTED RIGHTS LEGEND
  
 Use, reproduction and disclosure by the US Government is
 subject to restrictions as set forth in subparagraphs (a)
 and (c) of the Commercial Computer Software - Restricted
 Rights clause in FAR 52.227-19.
  
 Gaussian, Inc.
 340 Quinnipiac St., Bldg. 40, Wallingford CT 06492
  
  
 ---------------------------------------------------------------
 Warning -- This program may not be used in any manner that
 competes with the business of Gaussian, Inc. or will provide
 assistance to any competitor of Gaussian, Inc.  The licensee
 of this program is prohibited from giving any competitor of
 Gaussian, Inc. access to this program.  By using this program,
 the user acknowledges that Gaussian, Inc. is engaged in the
 business of creating and licensing software in the field of
 computational chemistry and represents and warrants to the
 licensee that it is not a competitor of Gaussian, Inc. and that
 it will not use this program in any manner prohibited above.
 ---------------------------------------------------------------
  

 Cite this work as:
 Gaussian 16, Revision A.03,
 M. J. Frisch, G. W. Trucks, H. B. Schlegel, G. E. Scuseria, 
 M. A. Robb, J. R. Cheeseman, G. Scalmani, V. Barone, 
 G. A. Petersson, H. Nakatsuji, X. Li, M. Caricato, A. V. Marenich, 
 J. Bloino, B. G. Janesko, R. Gomperts, B. Mennucci, H. P. Hratchian, 
 J. V. Ortiz, A. F. Izmaylov, J. L. Sonnenberg, D. Williams-Young, 
 F. Ding, F. Lipparini, F. Egidi, J. Goings, B. Peng, A. Petrone, 
 T. Henderson, D. Ranasinghe, V. G. Zakrzewski, J. Gao, N. Rega, 
 G. Zheng, W. Liang, M. Hada, M. Ehara, K. Toyota, R. Fukuda, 
 J. Hasegawa, M. Ishida, T. Nakajima, Y. Honda, O. Kitao, H. Nakai, 
 T. Vreven, K. Throssell, J. A. Montgomery, Jr., J. E. Peralta, 
 F. Ogliaro, M. J. Bearpark, J. J. Heyd, E. N. Brothers, K. N. Kudin, 
 V. N. Staroverov, T. A. Keith, R. Kobayashi, J. Normand, 
 K. Raghavachari, A. P. Rendell, J. C. Burant, S. S. Iyengar, 
 J. Tomasi, M. Cossi, J. M. Millam, M. Klene, C. Adamo, R. Cammi, 
 J. W. Ochterski, R. L. Martin, K. Morokuma, O. Farkas, 
 J. B. Foresman, and D. J. Fox, Gaussian, Inc., Wallingford CT, 2016.
 
 ******************************************
 Gaussian 16:  ES64L-G16RevA.03 25-Dec-2016
                17-Nov-2025 
 ******************************************
 %mem=20GB
 %chk=re-bpy-co3-cl.chk
 SetLPE:    new flags="-opt 'Tsnet.Node.lindarsharg: ssh'  -nodelist 'maginet226' -env GAUSS_MDEF=2684354560 -env GAUSS_EXEDIR="/home/programes/qq/gaussian/g16.A03/g16/bsd:/home/programes/qq/gaussian/g16.A03/g16""
 Will use up to    1 processors via Linda.
 ----------------------------------------------------------------------
 #p opt freq b3lyp/gen EmpiricalDispersion=GD3BJ pseudo=read scrf=(solv
 ent=n,n-DiMethylFormamide,pcm) nosymm pop=(Orbitals=20)
 ----------------------------------------------------------------------
 1/18=20,19=15,26=3,38=1/1,3;
 2/9=110,12=2,15=1,17=6,18=5,40=1/2;
 3/5=7,11=2,16=1,17=8,25=1,30=1,70=2201,71=1,72=148,74=-5,124=41/1,2,3;
 4//1;
 5/5=2,38=5,53=148/2;
 6/7=2,8=2,9=2,10=2,28=1,96=20/1;
 7/30=1/1,2,3,16;
 1/18=20,19=15,26=3/3(2);
 2/9=110,15=1/2;
 99//99;
 2/9=110,15=1/2;
 3/5=7,6=1,11=2,16=1,17=8,25=1,30=1,70=2205,71=1,72=148,74=-5,82=7,124=41/1,2,3;
 4/5=5,16=3,69=1/1;
 5/5=2,38=5,53=148/2;
 7/30=1/1,2,3,16;
 1/18=20,19=15,26=3/3(-5);
 2/9=110,15=1/2;
 6/7=2,8=2,9=2,10=2,19=2,28=1,96=20/1;
 99/9=1/99;
 Leave Link    1 at Mon Nov 17 10:46:11 2025, MaxMem=  2684354560 cpu:               1.4 elap:               0.0
 (Enter /home/programes/qq/gaussian/g16.A03/g16/l101.exe)
 -------------------
 Title Card Required
 -------------------
 Symbolic Z-matrix:
 Charge =  0 Multiplicity = 1
 C                    -2.29454   0.25004   0.02949 
 C                    -0.86319   0.36734  -0.04423 
 C                    -0.24348   1.58517  -0.03063 
 C                    -1.05191   2.77702   0.06806 
 C                    -2.4133    2.63435   0.1498 
 C                    -3.01396  -0.94179   0.02482 
 C                    -2.45036  -2.26248  -0.05239 
 C                    -3.23895  -3.37847  -0.05144 
 C                    -4.67107  -3.21934   0.03674 
 C                    -5.17978  -1.94907   0.12424 
 H                    -0.26911  -0.54632  -0.11338 
 H                     0.84517   1.65625  -0.09049 
 H                    -0.60558   3.77216   0.0771 
 H                    -3.05523   3.51448   0.23297 
 H                    -1.36462  -2.36182  -0.11308 
 H                    -2.79381  -4.37443  -0.11225 
 H                    -5.34353  -4.07802   0.03565 
 H                    -6.25807  -1.79219   0.20268 
 N                    -4.4317   -0.80332   0.12084 
 N                    -3.07814   1.43885   0.13179 
 Re                   -5.17292   1.17165   0.30627 
 C                    -5.30779   1.26459   2.16278 
 C                    -7.02745   0.69521   0.15067 
 C                    -5.62149   3.03183   0.14005 
 O                    -5.37391   1.31363   3.33702 
 O                    -8.15036   0.37088   0.05005 
 O                    -5.86295   4.17457   0.0303 
 Cl                   -5.20097   1.18424  -2.66046 
 
 Add virtual bond connecting atoms Cl28       and Re21       Dist= 5.61D+00.
 ITRead=  0  0  0  0  0  0  0  0  0  0  0  0  0  0  0  0  0  0  0  0
 ITRead=  0  0  0  0  0  0  0  0
 MicOpt= -1 -1 -1 -1 -1 -1 -1 -1 -1 -1 -1 -1 -1 -1 -1 -1 -1 -1 -1 -1
 MicOpt= -1 -1 -1 -1 -1 -1 -1 -1
 NAtoms=     28 NQM=       28 NQMF=       0 NMMI=      0 NMMIF=      0
                NMic=       0 NMicF=      0.
                    Isotopes and Nuclear Properties:
 (Nuclear quadrupole moments (NQMom) in fm**2, nuclear magnetic moments (NMagM)
  in nuclear magnetons)

  Atom         1           2           3           4           5           6           7           8           9          10
 IAtWgt=          12          12          12          12          12          12          12          12          12          12
 AtmWgt=  12.0000000  12.0000000  12.0000000  12.0000000  12.0000000  12.0000000  12.0000000  12.0000000  12.0000000  12.0000000
 NucSpn=           0           0           0           0           0           0           0           0           0           0
 AtZEff=  -0.0000000  -0.0000000  -0.0000000  -0.0000000  -0.0000000  -0.0000000  -0.0000000  -0.0000000  -0.0000000  -0.0000000
 NQMom=    0.0000000   0.0000000   0.0000000   0.0000000   0.0000000   0.0000000   0.0000000   0.0000000   0.0000000   0.0000000
 NMagM=    0.0000000   0.0000000   0.0000000   0.0000000   0.0000000   0.0000000   0.0000000   0.0000000   0.0000000   0.0000000
 AtZNuc=   6.0000000   6.0000000   6.0000000   6.0000000   6.0000000   6.0000000   6.0000000   6.0000000   6.0000000   6.0000000

  Atom        11          12          13          14          15          16          17          18          19          20
 IAtWgt=           1           1           1           1           1           1           1           1          14          14
 AtmWgt=   1.0078250   1.0078250   1.0078250   1.0078250   1.0078250   1.0078250   1.0078250   1.0078250  14.0030740  14.0030740
 NucSpn=           1           1           1           1           1           1           1           1           2           2
 AtZEff=  -0.0000000  -0.0000000  -0.0000000  -0.0000000  -0.0000000  -0.0000000  -0.0000000  -0.0000000  -0.0000000  -0.0000000
 NQMom=    0.0000000   0.0000000   0.0000000   0.0000000   0.0000000   0.0000000   0.0000000   0.0000000   2.0440000   2.0440000
 NMagM=    2.7928460   2.7928460   2.7928460   2.7928460   2.7928460   2.7928460   2.7928460   2.7928460   0.4037610   0.4037610
 AtZNuc=   1.0000000   1.0000000   1.0000000   1.0000000   1.0000000   1.0000000   1.0000000   1.0000000   7.0000000   7.0000000

  Atom        21          22          23          24          25          26          27          28
 IAtWgt=         187          12          12          12          16          16          16          35
 AtmWgt= 186.9560000  12.0000000  12.0000000  12.0000000  15.9949146  15.9949146  15.9949146  34.9688527
 NucSpn=           5           0           0           0           0           0           0           3
 AtZEff=  -0.0000000  -0.0000000  -0.0000000  -0.0000000  -0.0000000  -0.0000000  -0.0000000  -0.0000000
 NQMom=  207.0000000   0.0000000   0.0000000   0.0000000   0.0000000   0.0000000   0.0000000  -8.1650000
 NMagM=    3.2197000   0.0000000   0.0000000   0.0000000   0.0000000   0.0000000   0.0000000   0.8218740
 AtZNuc=  75.0000000   6.0000000   6.0000000   6.0000000   8.0000000   8.0000000   8.0000000  17.0000000
 Leave Link  101 at Mon Nov 17 10:46:11 2025, MaxMem=  2684354560 cpu:               4.8 elap:               0.4
 (Enter /home/programes/qq/gaussian/g16.A03/g16/l103.exe)

 GradGradGradGradGradGradGradGradGradGradGradGradGradGradGradGradGradGrad
 Berny optimization.
 Initialization pass.
                           ----------------------------
                           !    Initial Parameters    !
                           ! (Angstroms and Degrees)  !
 --------------------------                            --------------------------
 ! Name  Definition              Value          Derivative Info.                !
 --------------------------------------------------------------------------------
 ! R1    R(1,2)                  1.438          estimate D2E/DX2                !
 ! R2    R(1,6)                  1.3921         estimate D2E/DX2                !
 ! R3    R(1,20)                 1.4275         estimate D2E/DX2                !
 ! R4    R(2,3)                  1.3665         estimate D2E/DX2                !
 ! R5    R(2,11)                 1.092          estimate D2E/DX2                !
 ! R6    R(3,4)                  1.4435         estimate D2E/DX2                !
 ! R7    R(3,12)                 1.0926         estimate D2E/DX2                !
 ! R8    R(4,5)                  1.3713         estimate D2E/DX2                !
 ! R9    R(4,13)                 1.0907         estimate D2E/DX2                !
 ! R10   R(5,14)                 1.0925         estimate D2E/DX2                !
 ! R11   R(5,20)                 1.368          estimate D2E/DX2                !
 ! R12   R(6,7)                  1.438          estimate D2E/DX2                !
 ! R13   R(6,19)                 1.4277         estimate D2E/DX2                !
 ! R14   R(7,8)                  1.3665         estimate D2E/DX2                !
 ! R15   R(7,15)                 1.092          estimate D2E/DX2                !
 ! R16   R(8,9)                  1.4436         estimate D2E/DX2                !
 ! R17   R(8,16)                 1.0926         estimate D2E/DX2                !
 ! R18   R(9,10)                 1.3711         estimate D2E/DX2                !
 ! R19   R(9,17)                 1.0907         estimate D2E/DX2                !
 ! R20   R(10,18)                1.0925         estimate D2E/DX2                !
 ! R21   R(10,19)                1.3683         estimate D2E/DX2                !
 ! R22   R(19,21)                2.1176         estimate D2E/DX2                !
 ! R23   R(20,21)                2.1189         estimate D2E/DX2                !
 ! R24   R(21,22)                1.8637         estimate D2E/DX2                !
 ! R25   R(21,23)                1.9211         estimate D2E/DX2                !
 ! R26   R(21,24)                1.9207         estimate D2E/DX2                !
 ! R27   R(21,28)                2.9669         estimate D2E/DX2                !
 ! R28   R(22,25)                1.1771         estimate D2E/DX2                !
 ! R29   R(23,26)                1.1731         estimate D2E/DX2                !
 ! R30   R(24,27)                1.1731         estimate D2E/DX2                !
 ! A1    A(2,1,6)              125.7346         estimate D2E/DX2                !
 ! A2    A(2,1,20)             118.824          estimate D2E/DX2                !
 ! A3    A(6,1,20)             115.4379         estimate D2E/DX2                !
 ! A4    A(1,2,3)              121.5724         estimate D2E/DX2                !
 ! A5    A(1,2,11)             118.4566         estimate D2E/DX2                !
 ! A6    A(3,2,11)             119.971          estimate D2E/DX2                !
 ! A7    A(2,3,4)              118.8501         estimate D2E/DX2                !
 ! A8    A(2,3,12)             120.6165         estimate D2E/DX2                !
 ! A9    A(4,3,12)             120.5332         estimate D2E/DX2                !
 ! A10   A(3,4,5)              118.3051         estimate D2E/DX2                !
 ! A11   A(3,4,13)             121.6485         estimate D2E/DX2                !
 ! A12   A(5,4,13)             120.0463         estimate D2E/DX2                !
 ! A13   A(4,5,14)             120.2681         estimate D2E/DX2                !
 ! A14   A(4,5,20)             124.9321         estimate D2E/DX2                !
 ! A15   A(14,5,20)            114.7994         estimate D2E/DX2                !
 ! A16   A(1,6,7)              125.7265         estimate D2E/DX2                !
 ! A17   A(1,6,19)             115.4615         estimate D2E/DX2                !
 ! A18   A(7,6,19)             118.8084         estimate D2E/DX2                !
 ! A19   A(6,7,8)              121.5903         estimate D2E/DX2                !
 ! A20   A(6,7,15)             118.44           estimate D2E/DX2                !
 ! A21   A(8,7,15)             119.9698         estimate D2E/DX2                !
 ! A22   A(7,8,9)              118.8494         estimate D2E/DX2                !
 ! A23   A(7,8,16)             120.6166         estimate D2E/DX2                !
 ! A24   A(9,8,16)             120.5335         estimate D2E/DX2                !
 ! A25   A(8,9,10)             118.299          estimate D2E/DX2                !
 ! A26   A(8,9,17)             121.655          estimate D2E/DX2                !
 ! A27   A(10,9,17)            120.046          estimate D2E/DX2                !
 ! A28   A(9,10,18)            120.253          estimate D2E/DX2                !
 ! A29   A(9,10,19)            124.9409         estimate D2E/DX2                !
 ! A30   A(18,10,19)           114.806          estimate D2E/DX2                !
 ! A31   A(6,19,10)            117.5059         estimate D2E/DX2                !
 ! A32   A(6,19,21)            116.3544         estimate D2E/DX2                !
 ! A33   A(10,19,21)           126.1103         estimate D2E/DX2                !
 ! A34   A(1,20,5)             117.5116         estimate D2E/DX2                !
 ! A35   A(1,20,21)            116.331          estimate D2E/DX2                !
 ! A36   A(5,20,21)            126.1248         estimate D2E/DX2                !
 ! A37   A(19,21,20)            76.3708         estimate D2E/DX2                !
 ! A38   A(19,21,22)            99.1527         estimate D2E/DX2                !
 ! A39   A(19,21,23)            95.7109         estimate D2E/DX2                !
 ! A40   A(19,21,28)            85.3945         estimate D2E/DX2                !
 ! A41   A(20,21,22)            98.4691         estimate D2E/DX2                !
 ! A42   A(20,21,24)            95.8329         estimate D2E/DX2                !
 ! A43   A(20,21,28)            85.7834         estimate D2E/DX2                !
 ! A44   A(22,21,23)            91.3289         estimate D2E/DX2                !
 ! A45   A(22,21,24)            91.2038         estimate D2E/DX2                !
 ! A46   A(23,21,24)            90.4428         estimate D2E/DX2                !
 ! A47   A(23,21,28)            84.8901         estimate D2E/DX2                !
 ! A48   A(24,21,28)            84.6722         estimate D2E/DX2                !
 ! A49   L(19,21,24,20,-1)     172.2037         estimate D2E/DX2                !
 ! A50   L(20,21,23,19,-1)     172.0816         estimate D2E/DX2                !
 ! A51   L(22,21,28,19,-1)     184.5472         estimate D2E/DX2                !
 ! A52   L(21,22,25,13,-1)     179.4264         estimate D2E/DX2                !
 ! A53   L(21,23,26,9,-1)      178.2922         estimate D2E/DX2                !
 ! A54   L(21,24,27,4,-1)      178.3645         estimate D2E/DX2                !
 ! A55   L(19,21,24,20,-2)     170.4711         estimate D2E/DX2                !
 ! A56   L(20,21,23,19,-2)     188.8473         estimate D2E/DX2                !
 ! A57   L(22,21,28,19,-2)     176.6606         estimate D2E/DX2                !
 ! A58   L(21,22,25,13,-2)     180.9493         estimate D2E/DX2                !
 ! A59   L(21,23,26,9,-2)      180.1977         estimate D2E/DX2                !
 ! A60   L(21,24,27,4,-2)      179.6517         estimate D2E/DX2                !
 ! D1    D(6,1,2,3)           -179.8755         estimate D2E/DX2                !
 ! D2    D(6,1,2,11)             0.1852         estimate D2E/DX2                !
 ! D3    D(20,1,2,3)            -0.5975         estimate D2E/DX2                !
 ! D4    D(20,1,2,11)          179.4632         estimate D2E/DX2                !
 ! D5    D(2,1,6,7)              0.1057         estimate D2E/DX2                !
 ! D6    D(2,1,6,19)           179.3958         estimate D2E/DX2                !
 ! D7    D(20,1,6,7)          -179.1938         estimate D2E/DX2                !
 ! D8    D(20,1,6,19)            0.0963         estimate D2E/DX2                !
 ! D9    D(2,1,20,5)             0.1956         estimate D2E/DX2                !
 ! D10   D(2,1,20,21)         -177.8539         estimate D2E/DX2                !
 ! D11   D(6,1,20,5)           179.5466         estimate D2E/DX2                !
 ! D12   D(6,1,20,21)            1.4971         estimate D2E/DX2                !
 ! D13   D(1,2,3,4)              0.361          estimate D2E/DX2                !
 ! D14   D(1,2,3,12)          -179.8126         estimate D2E/DX2                !
 ! D15   D(11,2,3,4)          -179.7006         estimate D2E/DX2                !
 ! D16   D(11,2,3,12)            0.1259         estimate D2E/DX2                !
 ! D17   D(2,3,4,5)              0.2633         estimate D2E/DX2                !
 ! D18   D(2,3,4,13)          -179.6494         estimate D2E/DX2                !
 ! D19   D(12,3,4,5)          -179.5633         estimate D2E/DX2                !
 ! D20   D(12,3,4,13)            0.524          estimate D2E/DX2                !
 ! D21   D(3,4,5,14)           179.5514         estimate D2E/DX2                !
 ! D22   D(3,4,5,20)            -0.6979         estimate D2E/DX2                !
 ! D23   D(13,4,5,14)           -0.5344         estimate D2E/DX2                !
 ! D24   D(13,4,5,20)          179.2163         estimate D2E/DX2                !
 ! D25   D(4,5,20,1)             0.4574         estimate D2E/DX2                !
 ! D26   D(4,5,20,21)          178.2931         estimate D2E/DX2                !
 ! D27   D(14,5,20,1)         -179.7798         estimate D2E/DX2                !
 ! D28   D(14,5,20,21)          -1.9441         estimate D2E/DX2                !
 ! D29   D(1,6,7,8)           -179.9626         estimate D2E/DX2                !
 ! D30   D(1,6,7,15)             0.0207         estimate D2E/DX2                !
 ! D31   D(19,6,7,8)             0.7689         estimate D2E/DX2                !
 ! D32   D(19,6,7,15)         -179.2478         estimate D2E/DX2                !
 ! D33   D(1,6,19,10)         -179.7977         estimate D2E/DX2                !
 ! D34   D(1,6,19,21)           -1.6482         estimate D2E/DX2                !
 ! D35   D(7,6,19,10)           -0.4554         estimate D2E/DX2                !
 ! D36   D(7,6,19,21)          177.694          estimate D2E/DX2                !
 ! D37   D(6,7,8,9)             -0.3384         estimate D2E/DX2                !
 ! D38   D(6,7,8,16)           179.9069         estimate D2E/DX2                !
 ! D39   D(15,7,8,9)           179.6786         estimate D2E/DX2                !
 ! D40   D(15,7,8,16)           -0.0762         estimate D2E/DX2                !
 ! D41   D(7,8,9,10)            -0.3868         estimate D2E/DX2                !
 ! D42   D(7,8,9,17)           179.6566         estimate D2E/DX2                !
 ! D43   D(16,8,9,10)          179.3681         estimate D2E/DX2                !
 ! D44   D(16,8,9,17)           -0.5884         estimate D2E/DX2                !
 ! D45   D(8,9,10,18)         -179.3744         estimate D2E/DX2                !
 ! D46   D(8,9,10,19)            0.7242         estimate D2E/DX2                !
 ! D47   D(17,9,10,18)           0.5828         estimate D2E/DX2                !
 ! D48   D(17,9,10,19)        -179.3185         estimate D2E/DX2                !
 ! D49   D(9,10,19,6)           -0.2904         estimate D2E/DX2                !
 ! D50   D(9,10,19,21)        -178.2377         estimate D2E/DX2                !
 ! D51   D(18,10,19,6)         179.8035         estimate D2E/DX2                !
 ! D52   D(18,10,19,21)          1.8561         estimate D2E/DX2                !
 ! D53   D(6,19,21,20)           1.8325         estimate D2E/DX2                !
 ! D54   D(6,19,21,22)         -94.7384         estimate D2E/DX2                !
 ! D55   D(6,19,21,23)         172.9852         estimate D2E/DX2                !
 ! D56   D(6,19,21,28)          88.601          estimate D2E/DX2                !
 ! D57   D(10,19,21,20)        179.8008         estimate D2E/DX2                !
 ! D58   D(10,19,21,22)         83.2298         estimate D2E/DX2                !
 ! D59   D(10,19,21,23)         -9.0465         estimate D2E/DX2                !
 ! D60   D(10,19,21,28)        -93.4308         estimate D2E/DX2                !
 ! D61   D(1,20,21,19)          -1.7809         estimate D2E/DX2                !
 ! D62   D(1,20,21,22)          95.6526         estimate D2E/DX2                !
 ! D63   D(1,20,21,24)        -172.2521         estimate D2E/DX2                !
 ! D64   D(1,20,21,28)         -88.0559         estimate D2E/DX2                !
 ! D65   D(5,20,21,19)        -179.6391         estimate D2E/DX2                !
 ! D66   D(5,20,21,22)         -82.2056         estimate D2E/DX2                !
 ! D67   D(5,20,21,24)           9.8898         estimate D2E/DX2                !
 ! D68   D(5,20,21,28)          94.086          estimate D2E/DX2                !
 --------------------------------------------------------------------------------
 Trust Radius=3.00D-01 FncErr=1.00D-07 GrdErr=1.00D-06 EigMax=2.50D+02 EigMin=1.00D-04
 Number of steps in this run=    168 maximum allowed number of steps=    168.
 GradGradGradGradGradGradGradGradGradGradGradGradGradGradGradGradGradGrad

 Leave Link  103 at Mon Nov 17 10:46:11 2025, MaxMem=  2684354560 cpu:               0.2 elap:               0.0
 (Enter /home/programes/qq/gaussian/g16.A03/g16/l202.exe)
                          Input orientation:                          
 ---------------------------------------------------------------------
 Center     Atomic      Atomic             Coordinates (Angstroms)
 Number     Number       Type             X           Y           Z
 ---------------------------------------------------------------------
      1          6           0       -2.294540    0.250040    0.029490
      2          6           0       -0.863190    0.367340   -0.044230
      3          6           0       -0.243480    1.585170   -0.030630
      4          6           0       -1.051910    2.777020    0.068060
      5          6           0       -2.413300    2.634350    0.149800
      6          6           0       -3.013960   -0.941790    0.024820
      7          6           0       -2.450360   -2.262480   -0.052390
      8          6           0       -3.238950   -3.378470   -0.051440
      9          6           0       -4.671070   -3.219340    0.036740
     10          6           0       -5.179780   -1.949070    0.124240
     11          1           0       -0.269110   -0.546320   -0.113380
     12          1           0        0.845170    1.656250   -0.090490
     13          1           0       -0.605580    3.772160    0.077100
     14          1           0       -3.055230    3.514480    0.232970
     15          1           0       -1.364620   -2.361820   -0.113080
     16          1           0       -2.793810   -4.374430   -0.112250
     17          1           0       -5.343530   -4.078020    0.035650
     18          1           0       -6.258070   -1.792190    0.202680
     19          7           0       -4.431700   -0.803320    0.120840
     20          7           0       -3.078140    1.438850    0.131790
     21         75           0       -5.172920    1.171650    0.306270
     22          6           0       -5.307790    1.264590    2.162780
     23          6           0       -7.027450    0.695210    0.150670
     24          6           0       -5.621490    3.031830    0.140050
     25          8           0       -5.373910    1.313630    3.337020
     26          8           0       -8.150360    0.370880    0.050050
     27          8           0       -5.862950    4.174570    0.030300
     28         17           0       -5.200970    1.184240   -2.660460
 ---------------------------------------------------------------------
                    Distance matrix (angstroms):
                    1          2          3          4          5
     1  C    0.000000
     2  C    1.438039   0.000000
     3  C    2.448067   1.366505   0.000000
     4  C    2.816247   2.419666   1.443539   0.000000
     5  C    2.390296   2.753148   2.416910   1.371284   0.000000
     6  C    1.392137   2.518809   3.750221   4.204885   3.628387
     7  C    2.518678   3.071665   4.435674   5.231322   4.901143
     8  C    3.750273   4.435694   5.797499   6.533566   6.072578
     9  C    4.205300   5.231709   6.533866   7.003973   6.275029
    10  C    3.629004   4.901743   6.073047   6.275221   5.353672
    11  H    2.181047   1.092011   2.133250   3.419106   3.844929
    12  H    3.442325   2.140543   1.092609   2.209112   3.410578
    13  H    3.906428   3.416706   2.219380   1.090686   2.137229
    14  H    3.358068   3.845305   3.420184   2.141106   1.092529
    15  H    2.776129   2.775696   4.103959   5.151531   5.111805
    16  H    4.653502   5.120186   6.482876   7.362742   7.023991
    17  H    5.294193   6.311977   7.621458   8.087684   7.324970
    18  H    4.462092   5.816293   6.901905   6.928196   5.863387
    19  N    2.384400   3.759249   4.823797   4.923881   3.986521
    20  N    1.427503   2.466804   2.843077   2.429067   1.368049
    21  Re   3.034970   4.398129   4.958213   4.429072   3.127215
    22  C    3.828827   5.042858   5.528205   4.978736   3.782381
    23  C    4.755344   6.176049   6.844498   6.328336   5.005062
    24  C    4.338107   5.456637   5.571799   4.577245   3.232734
    25  O    4.642574   5.716197   6.142973   5.613136   4.546194
    26  O    5.857103   7.287781   7.999985   7.495187   6.168233
    27  O    5.304289   6.284756   6.187661   5.010058   3.779768
    28  Cl   4.068894   5.131113   5.626141   5.215023   4.215624
                    6          7          8          9         10
     6  C    0.000000
     7  C    1.437995   0.000000
     8  C    2.448233   1.366495   0.000000
     9  C    2.816627   2.419727   1.443629   0.000000
    10  C    2.390664   2.753027   2.416789   1.371141   0.000000
    11  H    2.776634   2.776108   4.104249   5.152167   5.112617
    12  H    4.653600   5.120392   6.483052   7.363183   7.024561
    13  H    5.293803   6.311645   7.621199   8.087701   7.325162
    14  H    4.461320   5.815545   6.901261   6.927754   5.863098
    15  H    2.180785   1.091963   2.133188   3.419122   3.844753
    16  H    3.442422   2.140531   1.092604   2.209194   3.410447
    17  H    3.906783   3.416778   2.219507   1.090658   2.137075
    18  H    3.358432   3.845112   3.419934   2.140762   1.092462
    19  N    1.427719   2.466752   2.843190   2.429305   1.368349
    20  N    2.383906   3.758706   4.823485   4.923941   3.986847
    21  Re   3.034296   4.397069   4.956994   4.427786   3.126032
    22  C    3.834142   5.050951   5.544445   5.003108   3.807840
    23  C    4.336324   5.453340   5.566727   4.570471   3.225957
    24  C    4.754171   6.174368   6.841426   6.323851   5.000472
    25  O    4.650479   5.729207   6.168915   5.650987   4.583105
    26  O    5.301542   6.279736   6.179796   4.999532   3.769883
    27  O    5.856101   7.286166   7.996279   7.489361   6.162346
    28  Cl   4.063711   5.123257   5.610243   5.191069   4.191973
                   11         12         13         14         15
    11  H    0.000000
    12  H    2.468493   0.000000
    13  H    4.335754   2.570960   0.000000
    14  H    4.936853   4.332524   2.468092   0.000000
    15  H    2.120420   4.585692   6.183690   6.124444   0.000000
    16  H    4.585688   7.043561   8.437484   7.900786   2.468438
    17  H    6.184242   8.437877   9.169254   7.932295   4.335803
    18  H    6.125335   7.901500   7.932743   6.198375   4.936602
    19  N    4.177088   5.825762   5.964572   4.533281   3.448278
    20  N    3.448428   3.935611   3.400129   2.078221   4.176267
    21  Re   5.212953   6.050592   5.260776   3.158930   5.211949
    22  C    5.817955   6.564262   5.722652   3.722929   5.820565
    23  C    6.876502   7.934728   7.121338   4.871713   6.440702
    24  C    6.443241   6.615365   5.070641   2.612906   6.875789
    25  O    6.436121   7.109302   6.277613   4.455911   6.441004
    26  O    7.936124   9.087986   8.276058   5.989660   7.317139
    27  O    7.321099   7.166268   5.272956   2.891381   7.935989
    28  Cl   5.814267   6.586604   5.942152   4.290240   5.812165
                   16         17         18         19         20
    16  H    0.000000
    17  H    2.571149   0.000000
    18  H    4.332233   2.467651   0.000000
    19  N    3.935714   3.400346   2.078506   0.000000
    20  N    5.825343   5.964653   4.533939   2.619078   0.000000
    21  Re   6.049324   5.259409   3.157947   2.117616   2.118948
    22  C    6.579848   5.750604   3.753522   3.035343   3.021031
    23  C    6.610150   5.062859   2.604191   2.997399   4.018757
    24  C    7.931716   7.116047   4.866243   4.015513   3.001047
    25  O    7.135013   6.322172   4.500216   3.963969   3.944584
    26  O    7.157998   5.260343   2.878008   3.900281   5.184077
    27  O    9.084346   8.268922   5.982312   5.180354   3.905078
    28  Cl   6.571652   5.914449   4.263117   3.503969   3.516802
                   21         22         23         24         25
    21  Re   0.000000
    22  C    1.863721   0.000000
    23  C    1.921064   2.707399   0.000000
    24  C    1.920707   2.704252   2.727018   0.000000
    25  O    3.040724   1.177122   3.642728   3.637874   0.000000
    26  O    3.093870   3.652746   1.173133   3.672048   4.404727
    27  O    3.093514   3.650159   3.671035   1.173117   4.399834
    28  Cl   2.966889   4.825092   3.387865   3.381314   6.001368
                   26         27         28
    26  O    0.000000
    27  O    4.438546   0.000000
    28  Cl   4.087459   4.076822   0.000000
 Symmetry turned off by external request.
 Stoichiometry    C13H8ClN2O3Re
 Framework group  C1[X(C13H8ClN2O3Re)]
 Deg. of freedom    78
 Full point group                 C1      NOp   1
 Rotational constants (GHZ):           0.3226292           0.2703095           0.2059376
 Leave Link  202 at Mon Nov 17 10:46:11 2025, MaxMem=  2684354560 cpu:               0.1 elap:               0.0
 (Enter /home/programes/qq/gaussian/g16.A03/g16/l301.exe)
 General basis read from cards:  (5D, 7F)
 Centers:      21
 lanl2dz
 F 1 1.00
     Exponent=  8.6900000000D-01 Coefficients=  1.0000000000D+00
 ****
 Centers:       1      2      3      4      5      6      7      8      9     10
 Centers:      22     23     24     25     26     27     19     20     11     12
 Centers:      13     14     15     16     17     18     28
 cc-pVDZ
 ****
 ======================================================================================================
                                       Pseudopotential Parameters
 ======================================================================================================
  Center     Atomic      Valence      Angular      Power
  Number     Number     Electrons     Momentum     of R      Exponent        Coefficient   SO-Coeffient
 ======================================================================================================
    1          6
                                   No pseudopotential on this center.
    2          6
                                   No pseudopotential on this center.
    3          6
                                   No pseudopotential on this center.
    4          6
                                   No pseudopotential on this center.
    5          6
                                   No pseudopotential on this center.
    6          6
                                   No pseudopotential on this center.
    7          6
                                   No pseudopotential on this center.
    8          6
                                   No pseudopotential on this center.
    9          6
                                   No pseudopotential on this center.
   10          6
                                   No pseudopotential on this center.
   11          1
                                   No pseudopotential on this center.
   12          1
                                   No pseudopotential on this center.
   13          1
                                   No pseudopotential on this center.
   14          1
                                   No pseudopotential on this center.
   15          1
                                   No pseudopotential on this center.
   16          1
                                   No pseudopotential on this center.
   17          1
                                   No pseudopotential on this center.
   18          1
                                   No pseudopotential on this center.
   19          7
                                   No pseudopotential on this center.
   20          7
                                   No pseudopotential on this center.
   21         75           15
                                      G and up 
                                                     1     1833.8143836       -0.14971040    0.00000000
                                                     2      414.0589456    -1669.25557810    0.00000000
                                                     2       59.0349540     -346.66611290    0.00000000
                                                     2       11.9177094      -96.66848920    0.00000000
                                                     2        3.6531764      -11.07385670    0.00000000
                                                     2        1.2764184       -0.57985520    0.00000000
                                      S - G
                                                     0      247.0023085        3.14971040    0.00000000
                                                     1      631.7195767       45.29699690    0.00000000
                                                     2      249.2800441     1116.42795850    0.00000000
                                                     2       84.2947315      793.64190650    0.00000000
                                                     2       23.0407912      318.20991930    0.00000000
                                                     2        4.2997111      586.31050250    0.00000000
                                                     2        4.0974390     -475.69041640    0.00000000
                                      P - G
                                                     0      193.6897726        2.14971040    0.00000000
                                                     1       56.9308394       64.22957360    0.00000000
                                                     2       18.7227602      218.85046070    0.00000000
                                                     2        3.7340020      344.41891680    0.00000000
                                                     2        3.5127483     -260.47272670    0.00000000
                                      D - G
                                                     0      126.2340824        3.14971040    0.00000000
                                                     1       80.7090826       46.57148680    0.00000000
                                                     2       42.5529714      304.38345950    0.00000000
                                                     2       13.4074494      157.15896520    0.00000000
                                                     2        3.6904228       48.57012110    0.00000000
                                      F - G
                                                     0      112.7786459        3.95696100    0.00000000
                                                     1       56.7815968       52.35867810    0.00000000
                                                     2       28.5831966      236.03408240    0.00000000
                                                     2        8.5734158      116.57872660    0.00000000
                                                     2        2.0892721       11.10505300    0.00000000
   22          6
                                   No pseudopotential on this center.
   23          6
                                   No pseudopotential on this center.
   24          6
                                   No pseudopotential on this center.
   25          8
                                   No pseudopotential on this center.
   26          8
                                   No pseudopotential on this center.
   27          8
                                   No pseudopotential on this center.
   28         17
                                   No pseudopotential on this center.
 ======================================================================================================
 Ernie: Thresh=  0.10000D-02 Tol=  0.10000D-05 Strict=F.
 Ernie:  47 primitive shells out of 504 were deleted.
   339 basis functions,   774 primitive gaussians,   363 cartesian basis functions
    78 alpha electrons       78 beta electrons
       nuclear repulsion energy      1746.1790397352 Hartrees.
 IExCor=  402 DFT=T Ex+Corr=B3LYP ExCW=0 ScaHFX=  0.200000
 ScaDFX=  0.800000  0.720000  1.000000  0.810000 ScalE2=  1.000000  1.000000
 IRadAn=      5 IRanWt=     -1 IRanGd=            0 ICorTp=0 IEmpDi=141
 NAtoms=   28 NActive=   28 NUniq=   28 SFac= 1.00D+00 NAtFMM=   60 NAOKFM=F Big=F
 Integral buffers will be    131072 words long.
 Raffenetti 2 integral format.
 Two-electron integral symmetry is turned off.
 R6Disp:  Grimme-D3(BJ) Dispersion energy=       -0.0846332785 Hartrees.
 Nuclear repulsion after empirical dispersion term =     1746.0944064567 Hartrees.
 ------------------------------------------------------------------------------
 Polarizable Continuum Model (PCM)
 =================================
 Model                : PCM.
 Atomic radii         : UFF (Universal Force Field).
 Polarization charges : Total charges.
 Charge compensation  : None.
 Solution method      : On-the-fly selection.
 Cavity type          : Scaled VdW (van der Waals Surface) (Alpha=1.100).
 Cavity algorithm     : GePol (No added spheres)
                        Default sphere list used, NSphG=   28.
                        Lebedev-Laikov grids with approx.  5.0 points / Ang**2.
                        Smoothing algorithm: York/Karplus (Gamma=1.0000).
                        Polarization charges: spherical gaussians, with
                                              point-specific exponents (IZeta= 3).
                        Self-potential: point-specific (ISelfS= 7).
                        Self-field    : sphere-specific E.n sum rule (ISelfD= 2).
 1st derivatives      : Analytical E(r).r(x)/FMM algorithm (CHGder, D1EAlg=3).
                        Cavity 1st derivative terms included.
 Solvent              : n,n-DiMethylFormamide, Eps=  37.219000 Eps(inf)=   2.046330
 ------------------------------------------------------------------------------
 GePol: Number of generator spheres                  =      28
 GePol: Total number of spheres                      =      28
 GePol: Number of exposed spheres                    =      27 ( 96.43%)
 GePol: Number of points                             =    2591
 GePol: Average weight of points                     =       0.13
 GePol: Minimum weight of points                     =   0.19D-09
 GePol: Maximum weight of points                     =    0.21616
 GePol: Number of points with low weight             =     137
 GePol: Fraction of low-weight points (<1% of avg)   =       5.29%
 GePol: Cavity surface area                          =    345.262 Ang**2
 GePol: Cavity volume                                =    380.292 Ang**3
 Leave Link  301 at Mon Nov 17 10:46:11 2025, MaxMem=  2684354560 cpu:               1.6 elap:               0.1
 (Enter /home/programes/qq/gaussian/g16.A03/g16/l302.exe)
 NPDir=0 NMtPBC=     1 NCelOv=     1 NCel=       1 NClECP=     1 NCelD=      1
         NCelK=      1 NCelE2=     1 NClLst=     1 CellRange=     0.0.
 One-electron integrals computed using PRISM.
   1 Symmetry operations used in ECPInt.
 ECPInt:  NShTT=   11175 NPrTT=  105620 LenC2=   10444 LenP2D=   51011.
 LDataN:  DoStor=T MaxTD1= 7 Len=  274
 NBasis=   339 RedAO= T EigKep=  3.83D-04  NBF=   339
 NBsUse=   339 1.00D-06 EigRej= -1.00D+00 NBFU=   339
 Precomputing XC quadrature grid using
 IXCGrd= 4 IRadAn=           5 IRanWt=          -1 IRanGd=           0 AccXCQ= 0.00D+00.
 Defaulting to unpruned grid for atomic number  75.
 Generated NRdTot=       0 NPtTot=           0 NUsed=           0 NTot=          32
 NSgBfM=   363   363   363   363   363 MxSgAt=    28 MxSgA2=    28.
 Leave Link  302 at Mon Nov 17 10:46:12 2025, MaxMem=  2684354560 cpu:              12.2 elap:               0.4
 (Enter /home/programes/qq/gaussian/g16.A03/g16/l303.exe)
 DipDrv:  MaxL=1.
 Leave Link  303 at Mon Nov 17 10:46:12 2025, MaxMem=  2684354560 cpu:               1.4 elap:               0.1
 (Enter /home/programes/qq/gaussian/g16.A03/g16/l401.exe)
 ExpMin= 2.80D-02 ExpMax= 1.28D+05 ExpMxC= 1.24D+03 IAcc=3 IRadAn=         5 AccDes= 0.00D+00
 Harris functional with IExCor=  402 and IRadAn=       5 diagonalized for initial guess.
 HarFok:  IExCor=  402 AccDes= 0.00D+00 IRadAn=         5 IDoV= 1 UseB2=F ITyADJ=14
 ICtDFT=  3500011 ScaDFX=  1.000000  1.000000  1.000000  1.000000
 Defaulting to unpruned grid for atomic number  75.
 FoFCou: FMM=F IPFlag=           0 FMFlag=      100000 FMFlg1=           0
         NFxFlg=           0 DoJE=T BraDBF=F KetDBF=T FulRan=T
         wScrn=  0.000000 ICntrl=       500 IOpCl=  0 I1Cent=   200000004 NGrid=           0
         NMat0=    1 NMatS0=      1 NMatT0=    0 NMatD0=    1 NMtDS0=    0 NMtDT0=    0
 Symmetry not used in FoFCou.
 Harris En= -1374.71519991801    
 JPrj=0 DoOrth=F DoCkMO=F.
 Leave Link  401 at Mon Nov 17 10:46:13 2025, MaxMem=  2684354560 cpu:              25.6 elap:               0.8
 (Enter /home/programes/qq/gaussian/g16.A03/g16/l502.exe)
 Two-electron integral symmetry not used.
 Closed shell SCF:
 Using DIIS extrapolation, IDIIS=  1040.
 NGot=  2684354560 LenX=  2684076439 LenY=  2683944229
 Requested convergence on RMS density matrix=1.00D-08 within 128 cycles.
 Requested convergence on MAX density matrix=1.00D-06.
 Requested convergence on             energy=1.00D-06.
 No special actions if energy rises.
 Fock matrices will be formed incrementally for  20 cycles.

 Cycle   1  Pass 1  IDiag  1:
 FoFJK:  IHMeth= 1 ICntrl=       0 DoSepK=F KAlg= 0 I1Cent=           0 FoldK=F
 IRaf= 870000000 NMat=       1 IRICut=       1 DoRegI=T DoRafI=F ISym2E= 0 IDoP0=0 IntGTp=1.
 FoFCou: FMM=F IPFlag=           0 FMFlag=      100000 FMFlg1=           0
         NFxFlg=           0 DoJE=F BraDBF=F KetDBF=F FulRan=T
         wScrn=  0.000000 ICntrl=         0 IOpCl=  0 I1Cent=           0 NGrid=           0
         NMat0=    1 NMatS0=      1 NMatT0=    0 NMatD0=    1 NMtDS0=    0 NMtDT0=    0
 Symmetry not used in FoFCou.
 Defaulting to unpruned grid for atomic number  75.
 Defaulting to unpruned grid for atomic number  75.
 Defaulting to unpruned grid for atomic number  75.
 Defaulting to unpruned grid for atomic number  75.
 Defaulting to unpruned grid for atomic number  75.
 Defaulting to unpruned grid for atomic number  75.
 Defaulting to unpruned grid for atomic number  75.
 Defaulting to unpruned grid for atomic number  75.
 Defaulting to unpruned grid for atomic number  75.
 Defaulting to unpruned grid for atomic number  75.
 Defaulting to unpruned grid for atomic number  75.
 Defaulting to unpruned grid for atomic number  75.
 Defaulting to unpruned grid for atomic number  75.
 Defaulting to unpruned grid for atomic number  75.
 Defaulting to unpruned grid for atomic number  75.
 Defaulting to unpruned grid for atomic number  75.
 Defaulting to unpruned grid for atomic number  75.
 Defaulting to unpruned grid for atomic number  75.
 Defaulting to unpruned grid for atomic number  75.
 Defaulting to unpruned grid for atomic number  75.
 Defaulting to unpruned grid for atomic number  75.
 Defaulting to unpruned grid for atomic number  75.
 Defaulting to unpruned grid for atomic number  75.
 Defaulting to unpruned grid for atomic number  75.
 Defaulting to unpruned grid for atomic number  75.
 Defaulting to unpruned grid for atomic number  75.
 Defaulting to unpruned grid for atomic number  75.
 Defaulting to unpruned grid for atomic number  75.
 Defaulting to unpruned grid for atomic number  75.
 Defaulting to unpruned grid for atomic number  75.
 Defaulting to unpruned grid for atomic number  75.
 Defaulting to unpruned grid for atomic number  75.
 Inv3:  Mode=1 IEnd=    20139843.
 Iteration    1 A*A^-1 deviation from unit magnitude is 9.77D-15 for    593.
 Iteration    1 A*A^-1 deviation from orthogonality  is 2.59D-15 for   2587   2468.
 Iteration    1 A^-1*A deviation from unit magnitude is 9.33D-15 for    593.
 Iteration    1 A^-1*A deviation from orthogonality  is 2.22D-15 for   2221    229.
 E= -1374.59147162604    
 DIIS: error= 3.92D-02 at cycle   1 NSaved=   1.
 NSaved= 1 IEnMin= 1 EnMin= -1374.59147162604     IErMin= 1 ErrMin= 3.92D-02
 ErrMax= 3.92D-02  0.00D+00 EMaxC= 1.00D-01 BMatC= 4.48D-01 BMatP= 4.48D-01
 IDIUse=3 WtCom= 6.08D-01 WtEn= 3.92D-01
 Coeff-Com:  0.100D+01
 Coeff-En:   0.100D+01
 Coeff:      0.100D+01
 Gap=     0.172 Goal=   None    Shift=    0.000
 GapD=    0.172 DampG=1.000 DampE=0.250 DampFc=0.2500 IDamp=-1.
 Damping current iteration by 2.50D-01
 RMSDP=6.39D-03 MaxDP=5.01D-01              OVMax= 2.89D-01

 Cycle   2  Pass 1  IDiag  1:
 RMSU=  1.60D-03    CP:  9.95D-01
 E= -1374.71729138258     Delta-E=       -0.125819756533 Rises=F Damp=T
 DIIS: error= 1.22D-02 at cycle   2 NSaved=   2.
 NSaved= 2 IEnMin= 2 EnMin= -1374.71729138258     IErMin= 2 ErrMin= 1.22D-02
 ErrMax= 1.22D-02  0.00D+00 EMaxC= 1.00D-01 BMatC= 6.27D-02 BMatP= 4.48D-01
 IDIUse=3 WtCom= 8.78D-01 WtEn= 1.22D-01
 Coeff-Com: -0.818D-01 0.108D+01
 Coeff-En:   0.231D+00 0.769D+00
 Coeff:     -0.435D-01 0.104D+01
 Gap=     0.196 Goal=   None    Shift=    0.000
 RMSDP=2.24D-03 MaxDP=6.16D-02 DE=-1.26D-01 OVMax= 4.22D-01

 Cycle   3  Pass 1  IDiag  1:
 RMSU=  2.17D-03    CP:  9.69D-01  8.73D-01
 E= -1374.95904151912     Delta-E=       -0.241750136539 Rises=F Damp=F
 DIIS: error= 1.52D-02 at cycle   3 NSaved=   3.
 NSaved= 3 IEnMin= 3 EnMin= -1374.95904151912     IErMin= 2 ErrMin= 1.22D-02
 ErrMax= 1.52D-02  0.00D+00 EMaxC= 1.00D-01 BMatC= 7.86D-02 BMatP= 6.27D-02
 IDIUse=2 WtCom= 0.00D+00 WtEn= 1.00D+00
 Coeff-En:   0.000D+00 0.000D+00 0.100D+01
 Coeff:      0.000D+00 0.000D+00 0.100D+01
 Gap=     0.152 Goal=   None    Shift=    0.000
 RMSDP=2.72D-03 MaxDP=1.76D-01 DE=-2.42D-01 OVMax= 2.34D-01

 Cycle   4  Pass 1  IDiag  1:
 RMSU=  1.41D-03    CP:  9.84D-01  1.87D+00  2.37D-01
 E= -1374.40956778438     Delta-E=        0.549473734733 Rises=F Damp=F
 DIIS: error= 6.06D-02 at cycle   4 NSaved=   4.
 NSaved= 4 IEnMin= 3 EnMin= -1374.95904151912     IErMin= 2 ErrMin= 1.22D-02
 ErrMax= 6.06D-02  0.00D+00 EMaxC= 1.00D-01 BMatC= 7.26D-01 BMatP= 6.27D-02
 IDIUse=2 WtCom= 0.00D+00 WtEn= 1.00D+00
 Coeff-En:   0.000D+00 0.000D+00 0.835D+00 0.165D+00
 Coeff:      0.000D+00 0.000D+00 0.835D+00 0.165D+00
 Gap=     0.112 Goal=   None    Shift=    0.000
 RMSDP=1.48D-03 MaxDP=1.13D-01 DE= 5.49D-01 OVMax= 1.34D-01

 Cycle   5  Pass 1  IDiag  1:
 RMSU=  2.02D-04    CP:  9.80D-01  1.16D+00  5.65D-01  5.92D-01
 E= -1374.99122536329     Delta-E=       -0.581657578909 Rises=F Damp=F
 DIIS: error= 1.25D-02 at cycle   5 NSaved=   5.
 NSaved= 5 IEnMin= 5 EnMin= -1374.99122536329     IErMin= 2 ErrMin= 1.22D-02
 ErrMax= 1.25D-02  0.00D+00 EMaxC= 1.00D-01 BMatC= 5.10D-02 BMatP= 6.27D-02
 IDIUse=3 WtCom= 8.75D-01 WtEn= 1.25D-01
 Coeff-Com: -0.643D-01 0.145D+00 0.352D+00-0.102D+00 0.670D+00
 Coeff-En:   0.000D+00 0.000D+00 0.401D+00 0.000D+00 0.599D+00
 Coeff:     -0.563D-01 0.127D+00 0.358D+00-0.896D-01 0.661D+00
 Gap=     0.122 Goal=   None    Shift=    0.000
 RMSDP=5.62D-04 MaxDP=2.59D-02 DE=-5.82D-01 OVMax= 3.80D-02

 Cycle   6  Pass 1  IDiag  1:
 RMSU=  1.12D-04    CP:  9.76D-01  1.03D+00  7.32D-01  3.38D-01  8.85D-01
 E= -1375.03669021204     Delta-E=       -0.045464848744 Rises=F Damp=F
 DIIS: error= 1.10D-03 at cycle   6 NSaved=   6.
 NSaved= 6 IEnMin= 6 EnMin= -1375.03669021204     IErMin= 6 ErrMin= 1.10D-03
 ErrMax= 1.10D-03  0.00D+00 EMaxC= 1.00D-01 BMatC= 5.34D-04 BMatP= 5.10D-02
 IDIUse=3 WtCom= 9.89D-01 WtEn= 1.10D-02
 Coeff-Com: -0.302D-01 0.544D-01 0.177D+00-0.634D-01 0.406D+00 0.457D+00
 Coeff-En:   0.000D+00 0.000D+00 0.000D+00 0.000D+00 0.000D+00 0.100D+01
 Coeff:     -0.299D-01 0.538D-01 0.175D+00-0.627D-01 0.401D+00 0.463D+00
 Gap=     0.116 Goal=   None    Shift=    0.000
 RMSDP=6.66D-05 MaxDP=4.29D-03 DE=-4.55D-02 OVMax= 5.75D-03

 Cycle   7  Pass 1  IDiag  1:
 RMSU=  3.87D-05    CP:  9.76D-01  1.04D+00  7.32D-01  3.53D-01  8.85D-01
                    CP:  5.59D-01
 E= -1375.03710022704     Delta-E=       -0.000410014999 Rises=F Damp=F
 DIIS: error= 3.06D-04 at cycle   7 NSaved=   7.
 NSaved= 7 IEnMin= 7 EnMin= -1375.03710022704     IErMin= 7 ErrMin= 3.06D-04
 ErrMax= 3.06D-04  0.00D+00 EMaxC= 1.00D-01 BMatC= 7.18D-05 BMatP= 5.34D-04
 IDIUse=3 WtCom= 9.97D-01 WtEn= 3.06D-03
 Coeff-Com:  0.260D-02-0.742D-02 0.518D-01-0.128D-01 0.118D+00 0.279D+00
 Coeff-Com:  0.569D+00
 Coeff-En:   0.000D+00 0.000D+00 0.000D+00 0.000D+00 0.000D+00 0.803D-01
 Coeff-En:   0.920D+00
 Coeff:      0.259D-02-0.740D-02 0.516D-01-0.127D-01 0.118D+00 0.278D+00
 Coeff:      0.570D+00
 Gap=     0.116 Goal=   None    Shift=    0.000
 RMSDP=2.43D-05 MaxDP=1.11D-03 DE=-4.10D-04 OVMax= 2.20D-03

 Cycle   8  Pass 1  IDiag  1:
 RMSU=  1.34D-05    CP:  9.76D-01  1.03D+00  7.36D-01  3.54D-01  8.77D-01
                    CP:  6.41D-01  6.78D-01
 E= -1375.03716288156     Delta-E=       -0.000062654526 Rises=F Damp=F
 DIIS: error= 9.05D-05 at cycle   8 NSaved=   8.
 NSaved= 8 IEnMin= 8 EnMin= -1375.03716288156     IErMin= 8 ErrMin= 9.05D-05
 ErrMax= 9.05D-05  0.00D+00 EMaxC= 1.00D-01 BMatC= 4.11D-06 BMatP= 7.18D-05
 IDIUse=1 WtCom= 1.00D+00 WtEn= 0.00D+00
 Coeff-Com:  0.370D-02-0.752D-02 0.141D-01-0.283D-02 0.323D-01 0.101D+00
 Coeff-Com:  0.280D+00 0.579D+00
 Coeff:      0.370D-02-0.752D-02 0.141D-01-0.283D-02 0.323D-01 0.101D+00
 Coeff:      0.280D+00 0.579D+00
 Gap=     0.116 Goal=   None    Shift=    0.000
 RMSDP=6.56D-06 MaxDP=3.03D-04 DE=-6.27D-05 OVMax= 7.13D-04

 Cycle   9  Pass 1  IDiag  1:
 RMSU=  5.23D-06    CP:  9.76D-01  1.03D+00  7.36D-01  3.54D-01  8.77D-01
                    CP:  6.49D-01  7.22D-01  7.73D-01
 E= -1375.03716606732     Delta-E=       -0.000003185762 Rises=F Damp=F
 DIIS: error= 4.22D-05 at cycle   9 NSaved=   9.
 NSaved= 9 IEnMin= 9 EnMin= -1375.03716606732     IErMin= 9 ErrMin= 4.22D-05
 ErrMax= 4.22D-05  0.00D+00 EMaxC= 1.00D-01 BMatC= 8.57D-07 BMatP= 4.11D-06
 IDIUse=1 WtCom= 1.00D+00 WtEn= 0.00D+00
 Coeff-Com:  0.125D-02-0.196D-02 0.134D-03-0.497D-03 0.893D-03 0.704D-02
 Coeff-Com:  0.501D-01 0.317D+00 0.626D+00
 Coeff:      0.125D-02-0.196D-02 0.134D-03-0.497D-03 0.893D-03 0.704D-02
 Coeff:      0.501D-01 0.317D+00 0.626D+00
 Gap=     0.116 Goal=   None    Shift=    0.000
 RMSDP=2.47D-06 MaxDP=1.27D-04 DE=-3.19D-06 OVMax= 2.24D-04

 Cycle  10  Pass 1  IDiag  1:
 RMSU=  1.37D-06    CP:  9.76D-01  1.03D+00  7.36D-01  3.54D-01  8.80D-01
                    CP:  6.47D-01  7.28D-01  8.74D-01  7.41D-01
 E= -1375.03716683965     Delta-E=       -0.000000772327 Rises=F Damp=F
 DIIS: error= 1.64D-05 at cycle  10 NSaved=  10.
 NSaved=10 IEnMin=10 EnMin= -1375.03716683965     IErMin=10 ErrMin= 1.64D-05
 ErrMax= 1.64D-05  0.00D+00 EMaxC= 1.00D-01 BMatC= 7.95D-08 BMatP= 8.57D-07
 IDIUse=1 WtCom= 1.00D+00 WtEn= 0.00D+00
 Coeff-Com:  0.623D-03-0.825D-03-0.969D-03 0.145D-03-0.246D-02-0.492D-02
 Coeff-Com:  0.101D-02 0.107D+00 0.301D+00 0.599D+00
 Coeff:      0.623D-03-0.825D-03-0.969D-03 0.145D-03-0.246D-02-0.492D-02
 Coeff:      0.101D-02 0.107D+00 0.301D+00 0.599D+00
 Gap=     0.116 Goal=   None    Shift=    0.000
 RMSDP=8.43D-07 MaxDP=5.40D-05 DE=-7.72D-07 OVMax= 6.35D-05

 Cycle  11  Pass 1  IDiag  1:
 RMSU=  4.94D-07    CP:  9.76D-01  1.03D+00  7.36D-01  3.54D-01  8.79D-01
                    CP:  6.47D-01  7.30D-01  8.73D-01  7.83D-01  7.88D-01
 E= -1375.03716691066     Delta-E=       -0.000000071005 Rises=F Damp=F
 DIIS: error= 4.09D-06 at cycle  11 NSaved=  11.
 NSaved=11 IEnMin=11 EnMin= -1375.03716691066     IErMin=11 ErrMin= 4.09D-06
 ErrMax= 4.09D-06  0.00D+00 EMaxC= 1.00D-01 BMatC= 7.61D-09 BMatP= 7.95D-08
 IDIUse=1 WtCom= 1.00D+00 WtEn= 0.00D+00
 Coeff-Com:  0.272D-03-0.339D-03-0.438D-03 0.154D-03-0.136D-02-0.336D-02
 Coeff-Com: -0.476D-02 0.235D-01 0.981D-01 0.330D+00 0.559D+00
 Coeff:      0.272D-03-0.339D-03-0.438D-03 0.154D-03-0.136D-02-0.336D-02
 Coeff:     -0.476D-02 0.235D-01 0.981D-01 0.330D+00 0.559D+00
 Gap=     0.116 Goal=   None    Shift=    0.000
 RMSDP=2.49D-07 MaxDP=1.58D-05 DE=-7.10D-08 OVMax= 2.25D-05

 Cycle  12  Pass 1  IDiag  1:
 RMSU=  1.63D-07    CP:  9.76D-01  1.03D+00  7.36D-01  3.54D-01  8.79D-01
                    CP:  6.47D-01  7.30D-01  8.77D-01  7.92D-01  8.38D-01
                    CP:  8.00D-01
 E= -1375.03716691656     Delta-E=       -0.000000005901 Rises=F Damp=F
 DIIS: error= 1.74D-06 at cycle  12 NSaved=  12.
 NSaved=12 IEnMin=12 EnMin= -1375.03716691656     IErMin=12 ErrMin= 1.74D-06
 ErrMax= 1.74D-06  0.00D+00 EMaxC= 1.00D-01 BMatC= 1.20D-09 BMatP= 7.61D-09
 IDIUse=1 WtCom= 1.00D+00 WtEn= 0.00D+00
 Coeff-Com:  0.698D-04-0.759D-04-0.596D-04 0.432D-04-0.310D-03-0.110D-02
 Coeff-Com: -0.240D-02-0.133D-02 0.144D-01 0.104D+00 0.351D+00 0.536D+00
 Coeff:      0.698D-04-0.759D-04-0.596D-04 0.432D-04-0.310D-03-0.110D-02
 Coeff:     -0.240D-02-0.133D-02 0.144D-01 0.104D+00 0.351D+00 0.536D+00
 Gap=     0.116 Goal=   None    Shift=    0.000
 RMSDP=8.33D-08 MaxDP=4.25D-06 DE=-5.90D-09 OVMax= 6.50D-06

 Cycle  13  Pass 1  IDiag  1:
 RMSU=  5.44D-08    CP:  9.76D-01  1.03D+00  7.36D-01  3.54D-01  8.79D-01
                    CP:  6.47D-01  7.30D-01  8.78D-01  7.93D-01  8.61D-01
                    CP:  8.27D-01  7.04D-01
 E= -1375.03716691742     Delta-E=       -0.000000000863 Rises=F Damp=F
 DIIS: error= 5.12D-07 at cycle  13 NSaved=  13.
 NSaved=13 IEnMin=13 EnMin= -1375.03716691742     IErMin=13 ErrMin= 5.12D-07
 ErrMax= 5.12D-07  0.00D+00 EMaxC= 1.00D-01 BMatC= 1.09D-10 BMatP= 1.20D-09
 IDIUse=1 WtCom= 1.00D+00 WtEn= 0.00D+00
 Coeff-Com:  0.122D-04-0.733D-05 0.137D-04 0.312D-05-0.273D-04-0.296D-03
 Coeff-Com: -0.796D-03-0.272D-02-0.631D-03 0.265D-01 0.149D+00 0.312D+00
 Coeff-Com:  0.517D+00
 Coeff:      0.122D-04-0.733D-05 0.137D-04 0.312D-05-0.273D-04-0.296D-03
 Coeff:     -0.796D-03-0.272D-02-0.631D-03 0.265D-01 0.149D+00 0.312D+00
 Coeff:      0.517D+00
 Gap=     0.116 Goal=   None    Shift=    0.000
 RMSDP=3.00D-08 MaxDP=1.68D-06 DE=-8.63D-10 OVMax= 2.69D-06

 Cycle  14  Pass 1  IDiag  1:
 RMSU=  2.12D-08    CP:  9.76D-01  1.03D+00  7.36D-01  3.54D-01  8.79D-01
                    CP:  6.47D-01  7.30D-01  8.77D-01  7.94D-01  8.59D-01
                    CP:  8.53D-01  7.33D-01  7.60D-01
 E= -1375.03716691752     Delta-E=       -0.000000000101 Rises=F Damp=F
 DIIS: error= 1.03D-07 at cycle  14 NSaved=  14.
 NSaved=14 IEnMin=14 EnMin= -1375.03716691752     IErMin=14 ErrMin= 1.03D-07
 ErrMax= 1.03D-07  0.00D+00 EMaxC= 1.00D-01 BMatC= 7.23D-12 BMatP= 1.09D-10
 IDIUse=1 WtCom= 1.00D+00 WtEn= 0.00D+00
 Coeff-Com:  0.380D-06 0.863D-06 0.116D-04-0.946D-06 0.136D-04-0.229D-04
 Coeff-Com: -0.736D-04-0.111D-02-0.198D-02 0.621D-04 0.302D-01 0.858D-01
 Coeff-Com:  0.246D+00 0.641D+00
 Coeff:      0.380D-06 0.863D-06 0.116D-04-0.946D-06 0.136D-04-0.229D-04
 Coeff:     -0.736D-04-0.111D-02-0.198D-02 0.621D-04 0.302D-01 0.858D-01
 Coeff:      0.246D+00 0.641D+00
 Gap=     0.116 Goal=   None    Shift=    0.000
 RMSDP=1.01D-08 MaxDP=3.29D-07 DE=-1.01D-10 OVMax= 1.15D-06

 Cycle  15  Pass 1  IDiag  1:
 RMSU=  6.34D-09    CP:  9.76D-01  1.03D+00  7.36D-01  3.54D-01  8.79D-01
                    CP:  6.47D-01  7.30D-01  8.78D-01  7.94D-01  8.61D-01
                    CP:  8.57D-01  7.55D-01  8.26D-01  8.66D-01
 E= -1375.03716691754     Delta-E=       -0.000000000022 Rises=F Damp=F
 DIIS: error= 2.69D-08 at cycle  15 NSaved=  15.
 NSaved=15 IEnMin=15 EnMin= -1375.03716691754     IErMin=15 ErrMin= 2.69D-08
 ErrMax= 2.69D-08  0.00D+00 EMaxC= 1.00D-01 BMatC= 5.55D-13 BMatP= 7.23D-12
 IDIUse=1 WtCom= 1.00D+00 WtEn= 0.00D+00
 Coeff-Com: -0.976D-06 0.111D-05 0.410D-05-0.450D-06 0.811D-05 0.161D-04
 Coeff-Com:  0.461D-04-0.277D-03-0.967D-03-0.281D-02 0.814D-04 0.114D-01
 Coeff-Com:  0.665D-01 0.279D+00 0.647D+00
 Coeff:     -0.976D-06 0.111D-05 0.410D-05-0.450D-06 0.811D-05 0.161D-04
 Coeff:      0.461D-04-0.277D-03-0.967D-03-0.281D-02 0.814D-04 0.114D-01
 Coeff:      0.665D-01 0.279D+00 0.647D+00
 Gap=     0.116 Goal=   None    Shift=    0.000
 RMSDP=3.70D-09 MaxDP=1.39D-07 DE=-2.23D-11 OVMax= 4.51D-07

 Error on total polarization charges =  0.01123
 SCF Done:  E(RB3LYP) =  -1375.03716692     A.U. after   15 cycles
            NFock= 15  Conv=0.37D-08     -V/T= 2.0467
 KE= 1.313688808767D+03 PE=-6.693405695907D+03 EE= 2.258585313765D+03
 Leave Link  502 at Mon Nov 17 10:46:51 2025, MaxMem=  2684354560 cpu:            1155.8 elap:              38.0
 (Enter /home/programes/qq/gaussian/g16.A03/g16/l601.exe)
 Copying SCF densities to generalized density rwf, IOpCl= 0 IROHF=0.

 **********************************************************************

            Population analysis using the SCF density.

 **********************************************************************

 Alpha  occ. eigenvalues -- -101.46076 -19.21352 -19.21344 -19.19946 -14.40895
 Alpha  occ. eigenvalues --  -14.40892 -10.30070 -10.30069 -10.29386 -10.28064
 Alpha  occ. eigenvalues --  -10.28017 -10.26195 -10.26192 -10.23924 -10.23921
 Alpha  occ. eigenvalues --  -10.23674 -10.23671 -10.23168 -10.23167  -9.37484
 Alpha  occ. eigenvalues --   -7.13364  -7.13025  -7.13020  -3.24050  -1.84136
 Alpha  occ. eigenvalues --   -1.83582  -1.83404  -1.11715  -1.11673  -1.10393
 Alpha  occ. eigenvalues --   -0.99587  -0.96632  -0.84315  -0.83891  -0.83340
 Alpha  occ. eigenvalues --   -0.77552  -0.71698  -0.70665  -0.67897  -0.64235
 Alpha  occ. eigenvalues --   -0.63805  -0.59662  -0.56918  -0.56767  -0.56163
 Alpha  occ. eigenvalues --   -0.53743  -0.53258  -0.51758  -0.49387  -0.48634
 Alpha  occ. eigenvalues --   -0.48121  -0.46820  -0.46792  -0.46509  -0.46217
 Alpha  occ. eigenvalues --   -0.45207  -0.45147  -0.44803  -0.44452  -0.43521
 Alpha  occ. eigenvalues --   -0.43112  -0.42909  -0.42704  -0.41892  -0.40094
 Alpha  occ. eigenvalues --   -0.39999  -0.36903  -0.35081  -0.33726  -0.33277
 Alpha  occ. eigenvalues --   -0.32817  -0.28022  -0.27050  -0.25914  -0.25874
 Alpha  occ. eigenvalues --   -0.25451  -0.24042  -0.23971
 Alpha virt. eigenvalues --   -0.12370  -0.06353  -0.05819  -0.04243  -0.03730
 Alpha virt. eigenvalues --   -0.00617  -0.00513   0.00667   0.01716   0.02293
 Alpha virt. eigenvalues --    0.03191   0.03817   0.04427   0.05186   0.06041
 Alpha virt. eigenvalues --    0.07776   0.08361   0.08470   0.08481   0.10366
 Alpha virt. eigenvalues --    0.11520   0.11522   0.13213   0.14128   0.15486
 Alpha virt. eigenvalues --    0.17922   0.18056   0.20377   0.21020   0.23022
 Alpha virt. eigenvalues --    0.24051   0.26371   0.26811   0.27522   0.29464
 Alpha virt. eigenvalues --    0.32251   0.32629   0.34041   0.35337   0.35369
 Alpha virt. eigenvalues --    0.36132   0.38992   0.39840   0.39978   0.41476
 Alpha virt. eigenvalues --    0.42267   0.42330   0.43942   0.45348   0.45556
 Alpha virt. eigenvalues --    0.46098   0.46458   0.46895   0.47476   0.48778
 Alpha virt. eigenvalues --    0.49734   0.49917   0.50069   0.50508   0.51912
 Alpha virt. eigenvalues --    0.52239   0.52272   0.53372   0.55122   0.55597
 Alpha virt. eigenvalues --    0.56431   0.57622   0.58331   0.58712   0.60922
 Alpha virt. eigenvalues --    0.61454   0.61691   0.62236   0.63002   0.63515
 Alpha virt. eigenvalues --    0.63927   0.64355   0.65049   0.65759   0.66666
 Alpha virt. eigenvalues --    0.67274   0.67885   0.68314   0.68397   0.68859
 Alpha virt. eigenvalues --    0.69814   0.71306   0.72709   0.74637   0.75781
 Alpha virt. eigenvalues --    0.75808   0.78440   0.80396   0.81317   0.81880
 Alpha virt. eigenvalues --    0.81993   0.82744   0.82996   0.83973   0.85003
 Alpha virt. eigenvalues --    0.85371   0.86877   0.87626   0.87817   0.88424
 Alpha virt. eigenvalues --    0.88500   0.89734   0.89819   0.91803   0.92480
 Alpha virt. eigenvalues --    0.94191   0.94690   0.95607   0.95622   0.96220
 Alpha virt. eigenvalues --    0.98426   0.98619   0.99028   1.00246   1.01760
 Alpha virt. eigenvalues --    1.02030   1.03876   1.03944   1.04611   1.04985
 Alpha virt. eigenvalues --    1.06286   1.06687   1.07176   1.08127   1.08196
 Alpha virt. eigenvalues --    1.09256   1.09611   1.10333   1.12447   1.12992
 Alpha virt. eigenvalues --    1.13378   1.13805   1.13839   1.18441   1.22033
 Alpha virt. eigenvalues --    1.22476   1.23562   1.26244   1.27796   1.28006
 Alpha virt. eigenvalues --    1.33331   1.34831   1.35198   1.39165   1.39340
 Alpha virt. eigenvalues --    1.40160   1.40937   1.41466   1.43134   1.43194
 Alpha virt. eigenvalues --    1.43743   1.45210   1.45993   1.47039   1.48014
 Alpha virt. eigenvalues --    1.49440   1.51640   1.52297   1.52625   1.56664
 Alpha virt. eigenvalues --    1.56814   1.57519   1.58194   1.59483   1.59656
 Alpha virt. eigenvalues --    1.60275   1.61845   1.64287   1.64724   1.66822
 Alpha virt. eigenvalues --    1.67500   1.68290   1.68344   1.69009   1.69295
 Alpha virt. eigenvalues --    1.71207   1.72106   1.74840   1.75678   1.78029
 Alpha virt. eigenvalues --    1.78435   1.78611   1.80321   1.80916   1.81781
 Alpha virt. eigenvalues --    1.82107   1.83068   1.85475   1.87262   1.87287
 Alpha virt. eigenvalues --    1.87736   1.88627   1.90145   1.92537   1.93202
 Alpha virt. eigenvalues --    1.93385   1.97155   1.97260   1.97872   1.98683
 Alpha virt. eigenvalues --    1.99102   1.99604   2.01053   2.02116   2.03392
 Alpha virt. eigenvalues --    2.06692   2.08100   2.12142   2.14626   2.19836
 Alpha virt. eigenvalues --    2.20897   2.24061   2.28601   2.28912   2.29510
 Alpha virt. eigenvalues --    2.30518   2.31548   2.32705   2.34434   2.36085
 Alpha virt. eigenvalues --    2.36144   2.38272   2.39344   2.41497   2.45632
 Alpha virt. eigenvalues --    2.46033   2.48105   2.59301   2.59409   2.59972
 Alpha virt. eigenvalues --    2.60108   2.60793   2.61284   2.61961   2.62874
 Alpha virt. eigenvalues --    2.65931   2.66350   2.69466   2.74345   2.77165
 Alpha virt. eigenvalues --    2.79796   2.82684   2.87112   3.05191   3.06167
 Alpha virt. eigenvalues --    3.07099   3.07187   3.08011   3.08392   3.08884
 Alpha virt. eigenvalues --    3.38038   3.47351   3.47425   3.48550   3.49853
 Alpha virt. eigenvalues --   21.55177
          Condensed to atoms (all electrons):
               1          2          3          4          5          6
     1  C    5.053561   0.489935  -0.001220  -0.047438  -0.049054   0.194166
     2  C    0.489935   4.787538   0.488144   0.006410  -0.057997  -0.084626
     3  C   -0.001220   0.488144   4.660705   0.452939  -0.012404   0.012322
     4  C   -0.047438   0.006410   0.452939   4.709123   0.546389   0.001184
     5  C   -0.049054  -0.057997  -0.012404   0.546389   4.606056   0.005217
     6  C    0.194166  -0.084626   0.012322   0.001184   0.005217   5.053676
     7  C   -0.084576  -0.008305   0.000413  -0.000064  -0.000020   0.489929
     8  C    0.012327   0.000413  -0.000038   0.000001   0.000003  -0.001082
     9  C    0.001173  -0.000064   0.000001  -0.000000  -0.000000  -0.047472
    10  C    0.005230  -0.000020   0.000003  -0.000000   0.000046  -0.049080
    11  H   -0.038807   0.408341  -0.041409   0.008944  -0.000082  -0.024991
    12  H    0.009348  -0.034079   0.396059  -0.049581   0.009025  -0.000315
    13  H    0.000111   0.009009  -0.041070   0.404228  -0.039792   0.000007
    14  H    0.002093   0.001959   0.005545  -0.028997   0.381790  -0.001083
    15  H   -0.025019   0.002828   0.001018  -0.000026  -0.000014  -0.038729
    16  H   -0.000314   0.000022  -0.000000   0.000000  -0.000000   0.009361
    17  H    0.000007  -0.000001   0.000000   0.000000   0.000000   0.000109
    18  H   -0.001083   0.000011   0.000000  -0.000000   0.000004   0.002046
    19  N    0.004726   0.004567  -0.000128  -0.000017  -0.000103   0.324808
    20  N    0.325102  -0.031361  -0.036305  -0.012779   0.456935   0.004598
    21  Re  -0.062401  -0.001013   0.000550  -0.002266  -0.031075  -0.061991
    22  C   -0.002299  -0.000006   0.000034  -0.000050  -0.003184  -0.002236
    23  C    0.001407   0.000006  -0.000001   0.000004   0.000219  -0.001141
    24  C   -0.001162  -0.000011   0.000003   0.000184  -0.007196   0.001401
    25  O    0.000066  -0.000000  -0.000000   0.000001   0.000141   0.000063
    26  O   -0.000003  -0.000000   0.000000  -0.000000  -0.000000  -0.000010
    27  O   -0.000009   0.000000  -0.000000  -0.000002  -0.001427  -0.000003
    28  Cl   0.000127  -0.000091   0.000027  -0.000134   0.000228   0.000157
               7          8          9         10         11         12
     1  C   -0.084576   0.012327   0.001173   0.005230  -0.038807   0.009348
     2  C   -0.008305   0.000413  -0.000064  -0.000020   0.408341  -0.034079
     3  C    0.000413  -0.000038   0.000001   0.000003  -0.041409   0.396059
     4  C   -0.000064   0.000001  -0.000000  -0.000000   0.008944  -0.049581
     5  C   -0.000020   0.000003  -0.000000   0.000046  -0.000082   0.009025
     6  C    0.489929  -0.001082  -0.047472  -0.049080  -0.024991  -0.000315
     7  C    4.787663   0.487930   0.006529  -0.058090   0.002822   0.000022
     8  C    0.487930   4.660851   0.452741  -0.012218   0.001018  -0.000000
     9  C    0.006529   0.452741   4.708803   0.546321  -0.000026   0.000000
    10  C   -0.058090  -0.012218   0.546321   4.606903  -0.000014  -0.000000
    11  H    0.002822   0.001018  -0.000026  -0.000014   0.679662  -0.014702
    12  H    0.000022  -0.000000   0.000000  -0.000000  -0.014702   0.669236
    13  H   -0.000001   0.000000   0.000000   0.000000  -0.000179  -0.010752
    14  H    0.000011   0.000000  -0.000000   0.000004   0.000092  -0.000272
    15  H    0.408317  -0.041504   0.008959  -0.000090  -0.004271   0.000055
    16  H   -0.034134   0.396071  -0.049552   0.009032   0.000055  -0.000000
    17  H    0.009013  -0.041031   0.404243  -0.039873  -0.000000  -0.000000
    18  H    0.001963   0.005543  -0.029039   0.381659  -0.000001   0.000000
    19  N   -0.031256  -0.036429  -0.012569   0.456346   0.000133   0.000001
    20  N    0.004566  -0.000128  -0.000017  -0.000114   0.004131  -0.000237
    21  Re  -0.001048   0.000574  -0.002229  -0.030785  -0.000645   0.000355
    22  C   -0.000004   0.000033  -0.000050  -0.003041  -0.000003   0.000000
    23  C   -0.000012   0.000003   0.000186  -0.007281   0.000001  -0.000000
    24  C    0.000006  -0.000001   0.000004   0.000221  -0.000001   0.000000
    25  O   -0.000000  -0.000000   0.000001   0.000126   0.000000  -0.000000
    26  O    0.000000  -0.000000  -0.000002  -0.001504  -0.000000   0.000000
    27  O   -0.000000   0.000000  -0.000000  -0.000000   0.000000  -0.000000
    28  Cl  -0.000095   0.000029  -0.000145   0.000308  -0.000003  -0.000000
              13         14         15         16         17         18
     1  C    0.000111   0.002093  -0.025019  -0.000314   0.000007  -0.001083
     2  C    0.009009   0.001959   0.002828   0.000022  -0.000001   0.000011
     3  C   -0.041070   0.005545   0.001018  -0.000000   0.000000   0.000000
     4  C    0.404228  -0.028997  -0.000026   0.000000   0.000000  -0.000000
     5  C   -0.039792   0.381790  -0.000014  -0.000000   0.000000   0.000004
     6  C    0.000007  -0.001083  -0.038729   0.009361   0.000109   0.002046
     7  C   -0.000001   0.000011   0.408317  -0.034134   0.009013   0.001963
     8  C    0.000000   0.000000  -0.041504   0.396071  -0.041031   0.005543
     9  C    0.000000  -0.000000   0.008959  -0.049552   0.404243  -0.029039
    10  C    0.000000   0.000004  -0.000090   0.009032  -0.039873   0.381659
    11  H   -0.000179   0.000092  -0.004271   0.000055  -0.000000  -0.000001
    12  H   -0.010752  -0.000272   0.000055  -0.000000  -0.000000   0.000000
    13  H    0.660043  -0.010476  -0.000000  -0.000000  -0.000000  -0.000000
    14  H   -0.010476   0.643942  -0.000001   0.000000  -0.000000   0.000000
    15  H   -0.000000  -0.000001   0.679696  -0.014709  -0.000179   0.000092
    16  H   -0.000000   0.000000  -0.014709   0.669208  -0.010746  -0.000273
    17  H   -0.000000  -0.000000  -0.000179  -0.010746   0.660093  -0.010482
    18  H   -0.000000   0.000000   0.000092  -0.000273  -0.010482   0.643883
    19  N    0.000001  -0.000037   0.004144  -0.000239   0.004723  -0.032442
    20  N    0.004715  -0.032503   0.000134   0.000001   0.000001  -0.000038
    21  Re  -0.000189  -0.018155  -0.000648   0.000356  -0.000193  -0.018251
    22  C   -0.000007  -0.001092  -0.000003   0.000000  -0.000007  -0.001021
    23  C    0.000000   0.000184  -0.000001   0.000000  -0.000051   0.001282
    24  C   -0.000050   0.001220   0.000001  -0.000000   0.000000   0.000185
    25  O    0.000000  -0.000034   0.000000  -0.000000   0.000000  -0.000032
    26  O   -0.000000  -0.000001   0.000000  -0.000000  -0.000001   0.005956
    27  O   -0.000001   0.005720  -0.000000   0.000000  -0.000000  -0.000001
    28  Cl  -0.000003  -0.000589  -0.000003  -0.000000  -0.000004  -0.000596
              19         20         21         22         23         24
     1  C    0.004726   0.325102  -0.062401  -0.002299   0.001407  -0.001162
     2  C    0.004567  -0.031361  -0.001013  -0.000006   0.000006  -0.000011
     3  C   -0.000128  -0.036305   0.000550   0.000034  -0.000001   0.000003
     4  C   -0.000017  -0.012779  -0.002266  -0.000050   0.000004   0.000184
     5  C   -0.000103   0.456935  -0.031075  -0.003184   0.000219  -0.007196
     6  C    0.324808   0.004598  -0.061991  -0.002236  -0.001141   0.001401
     7  C   -0.031256   0.004566  -0.001048  -0.000004  -0.000012   0.000006
     8  C   -0.036429  -0.000128   0.000574   0.000033   0.000003  -0.000001
     9  C   -0.012569  -0.000017  -0.002229  -0.000050   0.000186   0.000004
    10  C    0.456346  -0.000114  -0.030785  -0.003041  -0.007281   0.000221
    11  H    0.000133   0.004131  -0.000645  -0.000003   0.000001  -0.000001
    12  H    0.000001  -0.000237   0.000355   0.000000  -0.000000   0.000000
    13  H    0.000001   0.004715  -0.000189  -0.000007   0.000000  -0.000050
    14  H   -0.000037  -0.032503  -0.018155  -0.001092   0.000184   0.001220
    15  H    0.004144   0.000134  -0.000648  -0.000003  -0.000001   0.000001
    16  H   -0.000239   0.000001   0.000356   0.000000   0.000000  -0.000000
    17  H    0.004723   0.000001  -0.000193  -0.000007  -0.000051   0.000000
    18  H   -0.032442  -0.000038  -0.018251  -0.001021   0.001282   0.000185
    19  N    6.609353  -0.021171   0.153293   0.002632   0.003852  -0.007669
    20  N   -0.021171   6.606619   0.154144   0.002468  -0.007653   0.003834
    21  Re   0.153293   0.154144  13.724145   0.136546   0.063255   0.063381
    22  C    0.002632   0.002468   0.136546   5.351511  -0.028342  -0.028095
    23  C    0.003852  -0.007653   0.063255  -0.028342   5.440986  -0.048895
    24  C   -0.007669   0.003834   0.063381  -0.028095  -0.048895   5.439865
    25  O   -0.000052  -0.000061  -0.009598   0.687393  -0.000886  -0.000913
    26  O   -0.000147   0.000006  -0.011313  -0.001111   0.695128  -0.000993
    27  O    0.000007  -0.000143  -0.011210  -0.001111  -0.001007   0.695274
    28  Cl  -0.003190  -0.002960   0.194498  -0.001838   0.005113   0.005065
              25         26         27         28
     1  C    0.000066  -0.000003  -0.000009   0.000127
     2  C   -0.000000  -0.000000   0.000000  -0.000091
     3  C   -0.000000   0.000000  -0.000000   0.000027
     4  C    0.000001  -0.000000  -0.000002  -0.000134
     5  C    0.000141  -0.000000  -0.001427   0.000228
     6  C    0.000063  -0.000010  -0.000003   0.000157
     7  C   -0.000000   0.000000  -0.000000  -0.000095
     8  C   -0.000000  -0.000000   0.000000   0.000029
     9  C    0.000001  -0.000002  -0.000000  -0.000145
    10  C    0.000126  -0.001504  -0.000000   0.000308
    11  H    0.000000  -0.000000   0.000000  -0.000003
    12  H   -0.000000   0.000000  -0.000000  -0.000000
    13  H    0.000000  -0.000000  -0.000001  -0.000003
    14  H   -0.000034  -0.000001   0.005720  -0.000589
    15  H    0.000000   0.000000  -0.000000  -0.000003
    16  H   -0.000000  -0.000000   0.000000  -0.000000
    17  H    0.000000  -0.000001  -0.000000  -0.000004
    18  H   -0.000032   0.005956  -0.000001  -0.000596
    19  N   -0.000052  -0.000147   0.000007  -0.003190
    20  N   -0.000061   0.000006  -0.000143  -0.002960
    21  Re  -0.009598  -0.011313  -0.011210   0.194498
    22  C    0.687393  -0.001111  -0.001111  -0.001838
    23  C   -0.000886   0.695128  -0.001007   0.005113
    24  C   -0.000913  -0.000993   0.695274   0.005065
    25  O    7.459108   0.000030   0.000030   0.000002
    26  O    0.000030   7.419754   0.000024  -0.000217
    27  O    0.000030   0.000024   7.419676  -0.000233
    28  Cl   0.000002  -0.000217  -0.000233  17.398135
 Mulliken charges:
               1
     1  C    0.214006
     2  C    0.018393
     3  C    0.114813
     4  C    0.011947
     5  C    0.196295
     6  C    0.213714
     7  C    0.018421
     8  C    0.114894
     9  C    0.012205
    10  C    0.195911
    11  H    0.019937
    12  H    0.025837
    13  H    0.024407
    14  H    0.050679
    15  H    0.019955
    16  H    0.025861
    17  H    0.024379
    18  H    0.050635
    19  N   -0.423138
    20  N   -0.421784
    21  Re   0.771914
    22  C   -0.107117
    23  C   -0.116354
    24  C   -0.115658
    25  O   -0.135385
    26  O   -0.105596
    27  O   -0.105585
    28  Cl  -0.593586
 Sum of Mulliken charges =  -0.00000
 Mulliken charges with hydrogens summed into heavy atoms:
               1
     1  C    0.214006
     2  C    0.038330
     3  C    0.140650
     4  C    0.036354
     5  C    0.246974
     6  C    0.213714
     7  C    0.038376
     8  C    0.140756
     9  C    0.036584
    10  C    0.246546
    19  N   -0.423138
    20  N   -0.421784
    21  Re   0.771914
    22  C   -0.107117
    23  C   -0.116354
    24  C   -0.115658
    25  O   -0.135385
    26  O   -0.105596
    27  O   -0.105585
    28  Cl  -0.593586
 Electronic spatial extent (au):  <R**2>=          15594.9767
 Charge=             -0.0000 electrons
 Dipole moment (field-independent basis, Debye):
    X=             12.5999    Y=             -7.5895    Z=              5.7624  Tot=             15.7976
 Quadrupole moment (field-independent basis, Debye-Ang):
   XX=           -221.2140   YY=           -114.7272   ZZ=           -169.5163
   XY=             48.3053   XZ=            -30.4081   YZ=              7.2854
 Traceless Quadrupole moment (field-independent basis, Debye-Ang):
   XX=            -52.7282   YY=             53.7586   ZZ=             -1.0305
   XY=             48.3053   XZ=            -30.4081   YZ=              7.2854
 Octapole moment (field-independent basis, Debye-Ang**2):
  XXX=           2290.3975  YYY=           -324.3430  ZZZ=             11.2790  XYY=            551.1867
  XXY=           -343.9420  XXZ=            154.6386  XZZ=            737.7040  YZZ=           -114.8960
  YYZ=              6.7179  XYZ=            -34.4009
 Hexadecapole moment (field-independent basis, Debye-Ang**3):
 XXXX=         -21613.5573 YYYY=          -2992.7503 ZZZZ=          -1530.4208 XXXY=           2594.8171
 XXXZ=           -768.5828 YYYX=           1644.2267 YYYZ=              4.1208 ZZZX=            -39.0453
 ZZZY=             -6.4221 XXYY=          -3522.3007 XXZZ=          -4002.8266 YYZZ=           -825.5727
 XXYZ=            160.7452 YYXZ=            -31.1414 ZZXY=            542.1278
 N-N= 1.746094406457D+03 E-N=-6.693405689759D+03  KE= 1.313688808767D+03

 Atomic contributions to Alpha molecular orbitals:
 Alpha occ 59 OE=-0.445 is O27-p=0.1273 O26-p=0.1255
 Alpha occ 60 OE=-0.435 is O26-p=0.0918
 Alpha occ 61 OE=-0.431 is O26-p=0.2474 O27-p=0.2465
 Alpha occ 62 OE=-0.429 is O25-p=0.2614 O26-p=0.1378 O27-p=0.1369 C22-p=0.1200
 Alpha occ 63 OE=-0.427 is O25-p=0.3722 C22-p=0.1616
 Alpha occ 64 OE=-0.419 is N19-p=0.1451 N20-p=0.1449 C10-p=0.1015 C5-p=0.1012 O25-p=0.1002
 Alpha occ 65 OE=-0.401 is C8-p=0.0781
 Alpha occ 66 OE=-0.400 is C4-p=0.0899
 Alpha occ 67 OE=-0.369 is N19-p=0.1383 N20-p=0.1365
 Alpha occ 68 OE=-0.351 is N20-p=0.1391 N19-p=0.1358
 Alpha occ 69 OE=-0.337 is C3-p=0.1671 C8-p=0.1661 C2-p=0.1096 C7-p=0.1089
 Alpha occ 70 OE=-0.333 is C6-p=0.1520 C1-p=0.1519 C10-p=0.1504 C5-p=0.1502 C4-p=0.1175 C9-p=0.1173
 Alpha occ 71 OE=-0.328 is C8-p=0.1652 C3-p=0.1641 N19-p=0.1190 N20-p=0.1183 C7-p=0.1099 C2-p=0.1094
 Alpha occ 72 OE=-0.280 is Cl28-p=0.6883 Re21-d=0.1443
 Alpha occ 73 OE=-0.271 is C9-p=0.1262 C4-p=0.1259 C2-p=0.1101 C7-p=0.1096
 Alpha occ 74 OE=-0.259 is Cl28-p=0.7102 Re21-d=0.1429
 Alpha occ 75 OE=-0.259 is Cl28-p=0.6617
 Alpha occ 76 OE=-0.255 is Re21-d=0.5859
 Alpha occ 77 OE=-0.240 is Re21-d=0.3835 Cl28-p=0.3344
 Alpha occ 78 OE=-0.240 is Re21-d=0.4132 Cl28-p=0.2572
 Alpha vir 79 OE=-0.124 is N19-p=0.1048 N20-p=0.1046 C6-p=0.1040 C1-p=0.1035
 Alpha vir 80 OE=-0.064 is C7-p=0.1387 C2-p=0.1377 C10-p=0.1268 C5-p=0.1257
 Alpha vir 81 OE=-0.058 is C3-p=0.1539 C8-p=0.1529 C5-p=0.1054 C10-p=0.1044
 Alpha vir 82 OE=-0.042 is Re21-p=0.1424 C22-p=0.1130 Re21-d=0.1073 C24-p=0.1035 C23-p=0.1020
 Alpha vir 83 OE=-0.037 is C23-p=0.2289 C24-p=0.2259 Re21-p=0.1323
 Alpha vir 84 OE=-0.006 is C9-p=0.1135 C4-p=0.1135 C6-p=0.1075 C1-p=0.1071
 Alpha vir 85 OE=-0.005 is C24-p=0.1746 C23-p=0.1737 C22-p=0.1576
 Alpha vir 86 OE=0.007 is Re21-d=0.2282 Re21-p=0.1879 C22-p=0.1369 C23-p=0.1254 C24-p=0.1196
 Alpha vir 87 OE=0.017 is C22-p=0.2134 Re21-d=0.1861 C24-p=0.1169 C23-p=0.1144 Re21-p=0.1012
 Alpha vir 88 OE=0.023 is Re21-p=0.5118 Re21-d=0.1190
 Alpha vir 89 OE=0.032 is Re21-p=0.5987
 Alpha vir 90 OE=0.038 is C22-p=0.2441 Re21-d=0.2092 Re21-p=0.1803
 Alpha vir 91 OE=0.044 is Re21-p=0.6407
 Alpha vir 92 OE=0.052 is H11-s=0.2093 H15-s=0.2091 H12-s=0.1204 H16-s=0.1204
 Alpha vir 93 OE=0.060 is Re21-p=0.3854 Re21-d=0.2391
 Alpha vir 94 OE=0.078 is H12-s=0.2695 H16-s=0.2691 Re21-p=0.2340
 Alpha vir 95 OE=0.084 is H13-s=0.1751 H18-s=0.1639 H14-s=0.1632 H17-s=0.1549 H15-s=0.1340 H11-s=0.1323
 Alpha vir 96 OE=0.085 is Re21-d=0.1956
 Alpha vir 97 OE=0.085 is Re21-d=0.1960
 Alpha vir 98 OE=0.104 is H16-s=0.2072 H12-s=0.2051 H11-s=0.1329 H15-s=0.1316
 
 No NMR shielding tensors so no spin-rotation constants.
 Leave Link  601 at Mon Nov 17 10:46:51 2025, MaxMem=  2684354560 cpu:               5.3 elap:               0.2
 (Enter /home/programes/qq/gaussian/g16.A03/g16/l701.exe)
 ... and contract with generalized density number  0.
 Compute integral first derivatives.
 R6Disp: Adding Grimme-D3(BJ) dispersion energy 1st derivatives to the gradient.
   1 Symmetry operations used in ECPInt.
 ECPInt:  NShTT=   11175 NPrTT=  105620 LenC2=   10444 LenP2D=   51011.
 LDataN:  DoStor=T MaxTD1= 8 Len=  415
 D1PCM: PCM CHGder 1st derivatives, ID1Alg=3 FixD1E=F DoIter=F DoCFld=F I1PDM=0.
 GePol: Maximum number of non-zero 1st derivatives   =     266
 Leave Link  701 at Mon Nov 17 10:46:53 2025, MaxMem=  2684354560 cpu:              46.1 elap:               1.6
 (Enter /home/programes/qq/gaussian/g16.A03/g16/l702.exe)
 L702 exits ... SP integral derivatives will be done elsewhere.
 Leave Link  702 at Mon Nov 17 10:46:53 2025, MaxMem=  2684354560 cpu:               0.2 elap:               0.0
 (Enter /home/programes/qq/gaussian/g16.A03/g16/l703.exe)
 Integral derivatives from FoFJK, PRISM(SPDF).
 Compute integral first derivatives, UseDBF=F ICtDFT=           0.
 Calling FoFJK, ICntrl=      2127 FMM=F ISym2X=0 I1Cent= 0 IOpClX= 0 NMat=1 NMatS=1 NMatT=0.
 FoFJK:  IHMeth= 1 ICntrl=    2127 DoSepK=F KAlg= 0 I1Cent=           0 FoldK=F
 IRaf=         0 NMat=       1 IRICut=       1 DoRegI=T DoRafI=F ISym2E= 0 IDoP0=0 IntGTp=1.
 FoFCou: FMM=F IPFlag=           0 FMFlag=      100000 FMFlg1=         800
         NFxFlg=           0 DoJE=F BraDBF=F KetDBF=F FulRan=T
         wScrn=  0.000000 ICntrl=      2127 IOpCl=  0 I1Cent=           0 NGrid=           0
         NMat0=    1 NMatS0=      1 NMatT0=    0 NMatD0=    1 NMtDS0=    0 NMtDT0=    0
 Symmetry not used in FoFCou.
 Defaulting to unpruned grid for atomic number  75.
 Defaulting to unpruned grid for atomic number  75.
 Defaulting to unpruned grid for atomic number  75.
 Defaulting to unpruned grid for atomic number  75.
 Defaulting to unpruned grid for atomic number  75.
 Defaulting to unpruned grid for atomic number  75.
 Defaulting to unpruned grid for atomic number  75.
 Defaulting to unpruned grid for atomic number  75.
 Defaulting to unpruned grid for atomic number  75.
 Defaulting to unpruned grid for atomic number  75.
 Defaulting to unpruned grid for atomic number  75.
 Defaulting to unpruned grid for atomic number  75.
 Defaulting to unpruned grid for atomic number  75.
 Defaulting to unpruned grid for atomic number  75.
 Defaulting to unpruned grid for atomic number  75.
 Defaulting to unpruned grid for atomic number  75.
 Defaulting to unpruned grid for atomic number  75.
 Defaulting to unpruned grid for atomic number  75.
 Defaulting to unpruned grid for atomic number  75.
 Defaulting to unpruned grid for atomic number  75.
 Defaulting to unpruned grid for atomic number  75.
 Defaulting to unpruned grid for atomic number  75.
 Defaulting to unpruned grid for atomic number  75.
 Defaulting to unpruned grid for atomic number  75.
 Defaulting to unpruned grid for atomic number  75.
 Defaulting to unpruned grid for atomic number  75.
 Defaulting to unpruned grid for atomic number  75.
 Defaulting to unpruned grid for atomic number  75.
 Defaulting to unpruned grid for atomic number  75.
 Defaulting to unpruned grid for atomic number  75.
 Defaulting to unpruned grid for atomic number  75.
 Defaulting to unpruned grid for atomic number  75.
 Leave Link  703 at Mon Nov 17 10:46:58 2025, MaxMem=  2684354560 cpu:             149.2 elap:               4.7
 (Enter /home/programes/qq/gaussian/g16.A03/g16/l716.exe)
 Dipole        = 4.95718587D+00-2.98595764D+00 2.26710538D+00
 -------------------------------------------------------------------
 Center     Atomic                   Forces (Hartrees/Bohr)
 Number     Number              X              Y              Z
 -------------------------------------------------------------------
      1        6           0.026680844    0.083976646    0.002443313
      2        6          -0.029886482   -0.024507843   -0.000197456
      3        6          -0.010534411    0.040656240    0.002459506
      4        6           0.028149819   -0.027574959   -0.003493254
      5        6          -0.023668919   -0.007184460   -0.000112426
      6        6          -0.061981683   -0.062836676    0.001728673
      7        6           0.007856029    0.037817737   -0.000012414
      8        6          -0.040993930   -0.009613934    0.002143372
      9        6           0.037611886   -0.012063696   -0.003293729
     10        6          -0.004542192    0.024404589    0.000258159
     11        1          -0.001009340    0.001535851   -0.000131821
     12        1          -0.001901464    0.000273838    0.000119704
     13        1          -0.000041048   -0.001553779    0.000353567
     14        1           0.001096906   -0.001892902    0.000040959
     15        1          -0.001894511    0.000226426   -0.000164925
     16        1          -0.001143815    0.001557486    0.000065783
     17        1           0.001359664    0.000723289    0.000334662
     18        1           0.002173543   -0.000053259   -0.000011504
     19        7           0.042571528   -0.027557598    0.002442210
     20        7           0.043832072   -0.024864624    0.002133701
     21       75          -0.011651644    0.007220921   -0.049005505
     22        6           0.002852938   -0.001787032    0.031369782
     23        6          -0.032965012   -0.008118228    0.004347827
     24        6          -0.008260178    0.033088374    0.004188934
     25        8          -0.000449280    0.000131209   -0.022031517
     26        8           0.028587037    0.008075008    0.000230194
     27        8           0.006303356   -0.029001066    0.000423841
     28       17           0.001848287   -0.001077555    0.023370363
 -------------------------------------------------------------------
 Cartesian Forces:  Max     0.083976646 RMS     0.021916528
 Leave Link  716 at Mon Nov 17 10:46:58 2025, MaxMem=  2684354560 cpu:               0.4 elap:               0.0
 (Enter /home/programes/qq/gaussian/g16.A03/g16/l103.exe)

 GradGradGradGradGradGradGradGradGradGradGradGradGradGradGradGradGradGrad
 Berny optimization.
 FormGI is forming the generalized inverse of G from B-inverse, IUseBI=4.
 Internal  Forces:  Max     0.045288821 RMS     0.009376014
 Search for a local minimum.
 Step number   1 out of a maximum of  168
 All quantities printed in internal units (Hartrees-Bohrs-Radians)
 RMS Force = .93760D-02 SwitMx=.10000D-02 MixMth= 1
 Mixed Optimization -- RFO/linear search
 Second derivative matrix not updated -- first step.
 ITU=  0
     Eigenvalues ---    0.00613   0.00892   0.01032   0.01512   0.01698
     Eigenvalues ---    0.01789   0.01842   0.01882   0.01933   0.01951
     Eigenvalues ---    0.02024   0.02025   0.02158   0.02160   0.02251
     Eigenvalues ---    0.02255   0.02314   0.02315   0.04606   0.04640
     Eigenvalues ---    0.04640   0.04693   0.04693   0.04693   0.04693
     Eigenvalues ---    0.04878   0.07256   0.08036   0.09673   0.12179
     Eigenvalues ---    0.14360   0.14373   0.15758   0.16000   0.16000
     Eigenvalues ---    0.16000   0.16000   0.16000   0.16000   0.16000
     Eigenvalues ---    0.16000   0.17277   0.17590   0.21999   0.21999
     Eigenvalues ---    0.22583   0.22594   0.24463   0.24506   0.24835
     Eigenvalues ---    0.24862   0.24980   0.24983   0.29588   0.34513
     Eigenvalues ---    0.34513   0.34522   0.34530   0.34581   0.34587
     Eigenvalues ---    0.34733   0.34737   0.35919   0.36881   0.38688
     Eigenvalues ---    0.38794   0.39106   0.40086   0.45288   0.47499
     Eigenvalues ---    0.47520   0.50142   0.50207   0.51485   0.51510
     Eigenvalues ---    1.17213   1.19571   1.19580
 RFO step:  Lambda=-3.53504541D-02 EMin= 6.12735740D-03
 Linear search not attempted -- first point.
 Maximum step size (   0.300) exceeded in Quadratic search.
    -- Step size scaled by   0.765
 Iteration  1 RMS(Cart)=  0.02485341 RMS(Int)=  0.00106107
 Iteration  2 RMS(Cart)=  0.00103264 RMS(Int)=  0.00005281
 Iteration  3 RMS(Cart)=  0.00000029 RMS(Int)=  0.00005281
 ITry= 1 IFail=0 DXMaxC= 1.76D-01 DCOld= 1.00D+10 DXMaxT= 3.00D-01 DXLimC= 3.00D+00 Rises=F
 Variable       Old X    -DE/DX   Delta X   Delta X   Delta X     New X
                                 (Linear)    (Quad)   (Total)
    R1        2.71750  -0.02580   0.00000  -0.04632  -0.04629   2.67121
    R2        2.63076   0.04529   0.00000   0.06994   0.06998   2.70074
    R3        2.69759  -0.04122   0.00000  -0.07153  -0.07144   2.62614
    R4        2.58232   0.01397   0.00000   0.02023   0.02021   2.60253
    R5        2.06360  -0.00183   0.00000  -0.00367  -0.00367   2.05993
    R6        2.72789  -0.03368   0.00000  -0.05840  -0.05846   2.66943
    R7        2.06473  -0.00188   0.00000  -0.00379  -0.00379   2.06094
    R8        2.59135   0.00974   0.00000   0.01437   0.01433   2.60568
    R9        2.06110  -0.00143   0.00000  -0.00286  -0.00286   2.05824
   R10        2.06458  -0.00216   0.00000  -0.00435  -0.00435   2.06023
   R11        2.58524  -0.01492   0.00000  -0.02162  -0.02159   2.56365
   R12        2.71742  -0.02582   0.00000  -0.04636  -0.04632   2.67109
   R13        2.69800  -0.04132   0.00000  -0.07178  -0.07170   2.62630
   R14        2.58230   0.01396   0.00000   0.02021   0.02019   2.60249
   R15        2.06351  -0.00189   0.00000  -0.00380  -0.00380   2.05971
   R16        2.72806  -0.03376   0.00000  -0.05855  -0.05861   2.66945
   R17        2.06472  -0.00189   0.00000  -0.00380  -0.00380   2.06093
   R18        2.59108   0.00981   0.00000   0.01446   0.01443   2.60551
   R19        2.06105  -0.00141   0.00000  -0.00282  -0.00282   2.05823
   R20        2.06445  -0.00216   0.00000  -0.00433  -0.00433   2.06012
   R21        2.58580  -0.01505   0.00000  -0.02183  -0.02181   2.56400
   R22        4.00171   0.00926   0.00000   0.03682   0.03680   4.03851
   R23        4.00423   0.00894   0.00000   0.03563   0.03561   4.03984
   R24        3.52192   0.00905   0.00000   0.02091   0.02091   3.54283
   R25        3.63029   0.00387   0.00000   0.01043   0.01043   3.64071
   R26        3.62961   0.00401   0.00000   0.01081   0.01081   3.64042
   R27        5.60661  -0.02339   0.00000  -0.21272  -0.21272   5.39389
   R28        2.22444  -0.02194   0.00000  -0.01390  -0.01390   2.21054
   R29        2.21690  -0.02961   0.00000  -0.01840  -0.01840   2.19850
   R30        2.21687  -0.02959   0.00000  -0.01838  -0.01838   2.19848
    A1        2.19448  -0.00849   0.00000  -0.02121  -0.02129   2.17319
    A2        2.07387   0.00812   0.00000   0.01702   0.01710   2.09098
    A3        2.01477   0.00036   0.00000   0.00421   0.00420   2.01898
    A4        2.12184  -0.00384   0.00000  -0.01062  -0.01060   2.11123
    A5        2.06746   0.00192   0.00000   0.00531   0.00530   2.07275
    A6        2.09389   0.00192   0.00000   0.00532   0.00531   2.09920
    A7        2.07433  -0.00255   0.00000  -0.00188  -0.00196   2.07236
    A8        2.10515   0.00169   0.00000   0.00256   0.00260   2.10775
    A9        2.10370   0.00086   0.00000  -0.00068  -0.00063   2.10307
   A10        2.06481  -0.00132   0.00000   0.00130   0.00120   2.06602
   A11        2.12317   0.00008   0.00000  -0.00294  -0.00289   2.12028
   A12        2.09520   0.00124   0.00000   0.00163   0.00168   2.09689
   A13        2.09907   0.00270   0.00000   0.00835   0.00835   2.10742
   A14        2.18048  -0.00491   0.00000  -0.01481  -0.01481   2.16566
   A15        2.00363   0.00222   0.00000   0.00646   0.00646   2.01009
   A16        2.19434  -0.00850   0.00000  -0.02119  -0.02128   2.17306
   A17        2.01518   0.00031   0.00000   0.00402   0.00402   2.01920
   A18        2.07360   0.00819   0.00000   0.01720   0.01728   2.09088
   A19        2.12215  -0.00388   0.00000  -0.01075  -0.01073   2.11142
   A20        2.06717   0.00189   0.00000   0.00519   0.00518   2.07235
   A21        2.09387   0.00199   0.00000   0.00556   0.00555   2.09942
   A22        2.07431  -0.00255   0.00000  -0.00187  -0.00195   2.07236
   A23        2.10516   0.00169   0.00000   0.00257   0.00261   2.10777
   A24        2.10371   0.00086   0.00000  -0.00070  -0.00066   2.10305
   A25        2.06471  -0.00133   0.00000   0.00129   0.00119   2.06590
   A26        2.12328   0.00005   0.00000  -0.00307  -0.00302   2.12026
   A27        2.09520   0.00128   0.00000   0.00178   0.00183   2.09703
   A28        2.09881   0.00272   0.00000   0.00844   0.00845   2.10726
   A29        2.18063  -0.00490   0.00000  -0.01477  -0.01477   2.16586
   A30        2.00374   0.00218   0.00000   0.00632   0.00632   2.01007
   A31        2.05086   0.00448   0.00000   0.00897   0.00904   2.05991
   A32        2.03077  -0.00034   0.00000  -0.00114  -0.00123   2.02954
   A33        2.20104  -0.00411   0.00000  -0.00737  -0.00746   2.19358
   A34        2.05096   0.00451   0.00000   0.00905   0.00912   2.06008
   A35        2.03036  -0.00031   0.00000  -0.00096  -0.00105   2.02930
   A36        2.20129  -0.00417   0.00000  -0.00761  -0.00769   2.19360
   A37        1.33292   0.00006   0.00000  -0.00521  -0.00529   1.32763
   A38        1.73054  -0.00291   0.00000  -0.01933  -0.01938   1.71116
   A39        1.67047   0.00136   0.00000   0.00777   0.00767   1.67813
   A40        1.49042   0.00022   0.00000   0.00372   0.00372   1.49414
   A41        1.71861  -0.00268   0.00000  -0.01759  -0.01767   1.70094
   A42        1.67260   0.00121   0.00000   0.00713   0.00702   1.67962
   A43        1.49720   0.00015   0.00000   0.00313   0.00312   1.50032
   A44        1.59399  -0.00124   0.00000  -0.00721  -0.00716   1.58683
   A45        1.59181  -0.00106   0.00000  -0.00653  -0.00651   1.58530
   A46        1.57852  -0.00134   0.00000  -0.00130  -0.00161   1.57692
   A47        1.48161   0.00342   0.00000   0.02014   0.02015   1.50176
   A48        1.47781   0.00346   0.00000   0.02082   0.02080   1.49861
   A49        3.00552   0.00127   0.00000   0.00192   0.00173   3.00725
   A50        3.00339   0.00143   0.00000   0.00256   0.00237   3.00576
   A51        3.22096  -0.00269   0.00000  -0.01562  -0.01566   3.20530
   A52        3.13158   0.00211   0.00000   0.01972   0.01972   3.15130
   A53        3.11179  -0.00064   0.00000  -0.00596  -0.00596   3.10582
   A54        3.11305  -0.00059   0.00000  -0.00549  -0.00549   3.10756
   A55        2.97528   0.00359   0.00000   0.02413   0.02415   2.99943
   A56        3.29601  -0.00346   0.00000  -0.02271  -0.02274   3.27327
   A57        3.08331   0.00201   0.00000   0.01190   0.01186   3.09517
   A58        3.15816  -0.00356   0.00000  -0.03332  -0.03332   3.12484
   A59        3.14504   0.00493   0.00000   0.04587   0.04587   3.19091
   A60        3.13551  -0.00501   0.00000  -0.04661  -0.04661   3.08890
    D1       -3.13942   0.00068   0.00000   0.00347   0.00345  -3.13596
    D2        0.00323   0.00043   0.00000   0.00164   0.00164   0.00487
    D3       -0.01043   0.00043   0.00000   0.00536   0.00535  -0.00508
    D4        3.13222   0.00018   0.00000   0.00353   0.00354   3.13576
    D5        0.00185  -0.00004   0.00000  -0.00055  -0.00056   0.00129
    D6        3.13105  -0.00020   0.00000   0.00151   0.00151   3.13255
    D7       -3.12752   0.00015   0.00000  -0.00247  -0.00248  -3.13000
    D8        0.00168  -0.00001   0.00000  -0.00041  -0.00041   0.00127
    D9        0.00341  -0.00047   0.00000  -0.00349  -0.00348  -0.00006
   D10       -3.10414  -0.00122   0.00000  -0.01729  -0.01737  -3.12150
   D11        3.13368  -0.00076   0.00000  -0.00199  -0.00193   3.13174
   D12        0.02613  -0.00151   0.00000  -0.01579  -0.01583   0.01030
   D13        0.00630  -0.00013   0.00000  -0.00271  -0.00269   0.00361
   D14       -3.13832  -0.00023   0.00000  -0.00241  -0.00239  -3.14071
   D15       -3.13637   0.00012   0.00000  -0.00085  -0.00085  -3.13721
   D16        0.00220   0.00002   0.00000  -0.00056  -0.00055   0.00165
   D17        0.00460  -0.00023   0.00000  -0.00185  -0.00182   0.00277
   D18       -3.13547  -0.00018   0.00000  -0.00129  -0.00129  -3.13676
   D19       -3.13397  -0.00014   0.00000  -0.00215  -0.00212  -3.13609
   D20        0.00915  -0.00008   0.00000  -0.00159  -0.00159   0.00756
   D21        3.13376   0.00035   0.00000   0.00395   0.00393   3.13769
   D22       -0.01218   0.00022   0.00000   0.00387   0.00387  -0.00831
   D23       -0.00933   0.00029   0.00000   0.00340   0.00340  -0.00593
   D24        3.12791   0.00017   0.00000   0.00332   0.00333   3.13125
   D25        0.00798   0.00016   0.00000  -0.00106  -0.00110   0.00688
   D26        3.11180   0.00111   0.00000   0.01444   0.01443   3.12623
   D27       -3.13775   0.00005   0.00000  -0.00113  -0.00115  -3.13890
   D28       -0.03393   0.00099   0.00000   0.01437   0.01437  -0.01956
   D29       -3.14094  -0.00066   0.00000  -0.00345  -0.00343   3.13881
   D30        0.00036  -0.00042   0.00000  -0.00187  -0.00186  -0.00150
   D31        0.01342  -0.00044   0.00000  -0.00548  -0.00548   0.00794
   D32       -3.12846  -0.00020   0.00000  -0.00390  -0.00391  -3.13237
   D33       -3.13806   0.00073   0.00000   0.00212   0.00205  -3.13601
   D34       -0.02877   0.00156   0.00000   0.01649   0.01652  -0.01225
   D35       -0.00795   0.00046   0.00000   0.00375   0.00373  -0.00422
   D36        3.10135   0.00129   0.00000   0.01812   0.01819   3.11954
   D37       -0.00591   0.00015   0.00000   0.00270   0.00268  -0.00323
   D38        3.13997   0.00021   0.00000   0.00196   0.00194  -3.14128
   D39        3.13598  -0.00009   0.00000   0.00108   0.00108   3.13706
   D40       -0.00133  -0.00003   0.00000   0.00035   0.00034  -0.00099
   D41       -0.00675   0.00025   0.00000   0.00191   0.00188  -0.00487
   D42        3.13560   0.00015   0.00000   0.00090   0.00090   3.13650
   D43        3.13056   0.00019   0.00000   0.00265   0.00263   3.13319
   D44       -0.01027   0.00009   0.00000   0.00165   0.00164  -0.00863
   D45       -3.13067  -0.00040   0.00000  -0.00467  -0.00465  -3.13532
   D46        0.01264  -0.00021   0.00000  -0.00373  -0.00373   0.00891
   D47        0.01017  -0.00031   0.00000  -0.00368  -0.00368   0.00649
   D48       -3.12970  -0.00012   0.00000  -0.00274  -0.00275  -3.13245
   D49       -0.00507  -0.00017   0.00000   0.00076   0.00080  -0.00426
   D50       -3.11084  -0.00119   0.00000  -0.01535  -0.01533  -3.12617
   D51        3.13816   0.00001   0.00000   0.00165   0.00168   3.13984
   D52        0.03240  -0.00101   0.00000  -0.01446  -0.01446   0.01794
   D53        0.03198  -0.00176   0.00000  -0.01877  -0.01874   0.01325
   D54       -1.65350   0.00035   0.00000  -0.00418  -0.00421  -1.65771
   D55        3.01916   0.00169   0.00000   0.00394   0.00400   3.02316
   D56        1.54638  -0.00166   0.00000  -0.01608  -0.01607   1.53031
   D57        3.13812  -0.00067   0.00000  -0.00263  -0.00266   3.13546
   D58        1.45263   0.00144   0.00000   0.01195   0.01187   1.46450
   D59       -0.15789   0.00279   0.00000   0.02008   0.02008  -0.13781
   D60       -1.63067  -0.00057   0.00000   0.00005   0.00001  -1.63066
   D61       -0.03108   0.00177   0.00000   0.01857   0.01853  -0.01256
   D62        1.66945  -0.00064   0.00000   0.00188   0.00193   1.67138
   D63       -3.00637  -0.00182   0.00000  -0.00556  -0.00562  -3.01199
   D64       -1.53686   0.00159   0.00000   0.01518   0.01514  -1.52173
   D65       -3.13529   0.00074   0.00000   0.00303   0.00304  -3.13225
   D66       -1.43476  -0.00166   0.00000  -0.01365  -0.01355  -1.44831
   D67        0.17261  -0.00285   0.00000  -0.02110  -0.02110   0.15150
   D68        1.64211   0.00056   0.00000  -0.00036  -0.00034   1.64177
         Item               Value     Threshold  Converged?
 Maximum Force            0.045289     0.000450     NO 
 RMS     Force            0.009376     0.000300     NO 
 Maximum Displacement     0.175662     0.001800     NO 
 RMS     Displacement     0.025378     0.001200     NO 
 Predicted change in Energy=-1.837460D-02
 Lowest energy point so far.  Saving SCF results.
 GradGradGradGradGradGradGradGradGradGradGradGradGradGradGradGradGradGrad

 Leave Link  103 at Mon Nov 17 10:46:58 2025, MaxMem=  2684354560 cpu:               3.5 elap:               0.1
 (Enter /home/programes/qq/gaussian/g16.A03/g16/l202.exe)
                          Input orientation:                          
 ---------------------------------------------------------------------
 Center     Atomic      Atomic             Coordinates (Angstroms)
 Number     Number       Type             X           Y           Z
 ---------------------------------------------------------------------
      1          6           0       -2.302773    0.276528    0.029752
      2          6           0       -0.894130    0.362226   -0.050818
      3          6           0       -0.256356    1.582728   -0.033755
      4          6           0       -1.036850    2.755490    0.070664
      5          6           0       -2.407010    2.625446    0.154487
      6          6           0       -3.041199   -0.947086    0.025229
      7          6           0       -2.459989   -2.232795   -0.058919
      8          6           0       -3.242469   -3.366075   -0.054053
      9          6           0       -4.644594   -3.222914    0.040968
     10          6           0       -5.168601   -1.950762    0.130781
     11          1           0       -0.316117   -0.558876   -0.126484
     12          1           0        0.830630    1.645098   -0.096925
     13          1           0       -0.579451    3.743879    0.083713
     14          1           0       -3.046129    3.504545    0.239965
     15          1           0       -1.375205   -2.314069   -0.126989
     16          1           0       -2.790386   -4.356438   -0.118845
     17          1           0       -5.305808   -4.088404    0.043991
     18          1           0       -6.244674   -1.795826    0.211605
     19          7           0       -4.421462   -0.818212    0.123967
     20          7           0       -3.060535    1.436789    0.133891
     21         75           0       -5.176638    1.174360    0.286816
     22          6           0       -5.297628    1.257059    2.155864
     23          6           0       -7.039440    0.700408    0.156216
     24          6           0       -5.629690    3.041517    0.146846
     25          8           0       -5.391808    1.318619    3.320205
     26          8           0       -8.149066    0.378305    0.020324
     27          8           0       -5.866036    4.171395    0.001977
     28         17           0       -5.179584    1.172078   -2.567504
 ---------------------------------------------------------------------
                    Distance matrix (angstroms):
                    1          2          3          4          5
     1  C    0.000000
     2  C    1.413546   0.000000
     3  C    2.428583   1.377197   0.000000
     4  C    2.783791   2.400592   1.412603   0.000000
     5  C    2.354536   2.730041   2.397501   1.378868   0.000000
     6  C    1.429169   2.515947   3.762817   4.210529   3.630687
     7  C    2.515806   3.030860   4.406228   5.188941   4.863214
     8  C    3.762792   4.406238   5.779959   6.507985   6.053081
     9  C    4.210742   5.189184   6.508180   6.982694   6.262825
    10  C    3.630977   4.863537   6.053328   6.262890   5.344962
    11  H    2.160813   1.090070   2.144443   3.397550   3.819775
    12  H    3.421585   2.150042   1.090604   2.179114   3.392139
    13  H    3.872373   3.398926   2.188324   1.089172   2.143799
    14  H    3.319166   3.819662   3.398696   2.151034   1.090226
    15  H    2.756110   2.720255   4.055310   5.084681   5.053974
    16  H    4.660924   5.085882   6.457727   7.327368   6.997741
    17  H    5.298212   6.267376   7.593731   8.066202   7.313756
    18  H    4.457163   5.775325   6.880028   6.917787   5.854790
    19  N    2.386665   3.723715   4.810145   4.922376   3.989702
    20  N    1.389696   2.425307   2.812975   2.416252   1.356623
    21  Re   3.021802   4.371892   4.947597   4.436727   3.129537
    22  C    3.801440   5.006093   5.505898   4.974694   3.772752
    23  C    4.757277   6.158089   6.842866   6.345216   5.016490
    24  C    4.327499   5.444557   5.570763   4.602368   3.249436
    25  O    4.631973   5.701543   6.139355   5.620479   4.542971
    26  O    5.847186   7.255303   7.984262   7.499144   6.167564
    27  O    5.278978   6.263578   6.178267   5.032946   3.791843
    28  Cl   3.977913   5.035344   5.552179   5.160365   4.148334
                    6          7          8          9         10
     6  C    0.000000
     7  C    1.413482   0.000000
     8  C    2.428641   1.377179   0.000000
     9  C    2.783975   2.400586   1.412614   0.000000
    10  C    2.354643   2.729855   2.397344   1.378776   0.000000
    11  H    2.756772   2.720800   4.055754   5.085356   5.054714
    12  H    4.661051   5.086027   6.457849   7.327662   6.998059
    13  H    5.297997   6.267168   7.593555   8.066190   7.313784
    14  H    4.456810   5.774942   6.879710   6.917615   5.854672
    15  H    2.160404   1.089952   2.144460   3.397515   3.819462
    16  H    3.421599   2.150026   1.090595   2.179106   3.391976
    17  H    3.872556   3.398906   2.188320   1.089168   2.143799
    18  H    3.319239   3.819420   3.398454   2.150803   1.090170
    19  N    1.389778   2.425256   2.813062   2.416458   1.356810
    20  N    2.386429   3.723395   4.809981   4.922470   3.989918
    21  Re   3.021434   4.371317   4.946993   4.436162   3.129025
    22  C    3.806486   5.013634   5.520939   4.996939   3.795750
    23  C    4.326353   5.442548   5.567538   4.597938   3.244902
    24  C    4.756473   6.156923   6.840790   6.342296   5.013552
    25  O    4.638497   5.711968   6.160489   5.651305   4.572865
    26  O    5.277025   6.260169   6.172569   5.024991   3.784167
    27  O    5.846289   7.253862   7.981208   7.494615   6.163101
    28  Cl   3.973136   5.028156   5.537570   5.138706   4.127105
                   11         12         13         14         15
    11  H    0.000000
    12  H    2.484634   0.000000
    13  H    4.315927   2.534924   0.000000
    14  H    4.909036   4.312806   2.483182   0.000000
    15  H    2.049968   4.532286   6.113620   6.064891   0.000000
    16  H    4.532498   7.009327   8.399071   7.873322   2.484768
    17  H    6.114217   8.399332   9.147934   7.924483   4.315917
    18  H    6.065652   7.873695   7.924610   6.190753   4.908661
    19  N    4.121145   5.805269   5.964506   4.537755   3.402976
    20  N    3.403278   3.903567   3.388357   2.070525   4.120355
    21  Re   5.176832   6.037891   5.270466   3.157694   5.176027
    22  C    5.772536   6.540732   5.721824   3.713638   5.774926
    23  C    6.846078   7.930606   7.141388   4.880239   6.422681
    24  C    6.424297   6.614011   5.099236   2.626377   6.845285
    25  O    6.416174   7.106483   6.286139   4.446163   6.419709
    26  O    7.890180   9.069369   8.284333   5.988455   7.290800
    27  O    7.293392   7.158023   5.304473   2.907439   7.889577
    28  Cl   5.710350   6.515380   5.899520   4.227755   5.708120
                   16         17         18         19         20
    16  H    0.000000
    17  H    2.534898   0.000000
    18  H    4.312544   2.483038   0.000000
    19  N    3.903640   3.388602   2.070631   0.000000
    20  N    5.805026   5.964653   4.538125   2.633865   0.000000
    21  Re   6.037258   5.269946   3.157271   2.137090   2.137790
    22  C    6.555296   5.747525   3.741276   3.033648   3.020804
    23  C    6.610735   5.094193   2.620287   3.026724   4.046534
    24  C    7.928554   7.138015   4.876708   4.044483   3.029171
    25  O    7.127463   6.322727   4.482248   3.965294   3.949860
    26  O    7.152105   5.294919   2.896574   3.916303   5.198695
    27  O    9.066320   8.278883   5.982895   5.195946   3.919988
    28  Cl   6.501438   5.874395   4.203132   3.432204   3.443541
                   21         22         23         24         25
    21  Re   0.000000
    22  C    1.874785   0.000000
    23  C    1.926581   2.709679   0.000000
    24  C    1.926428   2.707528   2.732814   0.000000
    25  O    3.044431   1.169765   3.620456   3.618725   0.000000
    26  O    3.088697   3.669256   1.163395   3.668237   4.401804
    27  O    3.088466   3.668197   3.667208   1.163388   4.401575
    28  Cl   2.854322   4.725606   3.331694   3.326423   5.893354
                   26         27         28
    26  O    0.000000
    27  O    4.427200   0.000000
    28  Cl   4.018053   4.008659   0.000000
 Symmetry turned off by external request.
 Stoichiometry    C13H8ClN2O3Re
 Framework group  C1[X(C13H8ClN2O3Re)]
 Deg. of freedom    78
 Full point group                 C1      NOp   1
 Rotational constants (GHZ):           0.3280732           0.2737292           0.2065818
 Leave Link  202 at Mon Nov 17 10:46:58 2025, MaxMem=  2684354560 cpu:               0.1 elap:               0.0
 (Enter /home/programes/qq/gaussian/g16.A03/g16/l301.exe)
 Basis read from rwf:  (5D, 7F)
 Pseudo-potential data read from rwf file.
   339 basis functions,   774 primitive gaussians,   363 cartesian basis functions
    78 alpha electrons       78 beta electrons
       nuclear repulsion energy      1756.0646409259 Hartrees.
 IExCor=  402 DFT=T Ex+Corr=B3LYP ExCW=0 ScaHFX=  0.200000
 ScaDFX=  0.800000  0.720000  1.000000  0.810000 ScalE2=  1.000000  1.000000
 IRadAn=      5 IRanWt=     -1 IRanGd=            0 ICorTp=0 IEmpDi=141
 NAtoms=   28 NActive=   28 NUniq=   28 SFac= 1.00D+00 NAtFMM=   60 NAOKFM=F Big=F
 Integral buffers will be    131072 words long.
 Raffenetti 2 integral format.
 Two-electron integral symmetry is turned off.
 R6Disp:  Grimme-D3(BJ) Dispersion energy=       -0.0815690188 Hartrees.
 Nuclear repulsion after empirical dispersion term =     1755.9830719071 Hartrees.
 No density basis found on file   724.
 ------------------------------------------------------------------------------
 Polarizable Continuum Model (PCM)
 =================================
 Model                : PCM.
 Atomic radii         : UFF (Universal Force Field).
 Polarization charges : Total charges.
 Charge compensation  : None.
 Solution method      : On-the-fly selection.
 Cavity type          : Scaled VdW (van der Waals Surface) (Alpha=1.100).
 Cavity algorithm     : GePol (No added spheres)
                        Default sphere list used, NSphG=   28.
                        Lebedev-Laikov grids with approx.  5.0 points / Ang**2.
                        Smoothing algorithm: York/Karplus (Gamma=1.0000).
                        Polarization charges: spherical gaussians, with
                                              point-specific exponents (IZeta= 3).
                        Self-potential: point-specific (ISelfS= 7).
                        Self-field    : sphere-specific E.n sum rule (ISelfD= 2).
 1st derivatives      : Analytical E(r).r(x)/FMM algorithm (CHGder, D1EAlg=3).
                        Cavity 1st derivative terms included.
 Solvent              : n,n-DiMethylFormamide, Eps=  37.219000 Eps(inf)=   2.046330
 ------------------------------------------------------------------------------
 GePol: Number of generator spheres                  =      28
 GePol: Total number of spheres                      =      28
 GePol: Number of exposed spheres                    =      27 ( 96.43%)
 GePol: Number of points                             =    2579
 GePol: Average weight of points                     =       0.13
 GePol: Minimum weight of points                     =   0.25D-08
 GePol: Maximum weight of points                     =    0.21616
 GePol: Number of points with low weight             =     141
 GePol: Fraction of low-weight points (<1% of avg)   =       5.47%
 GePol: Cavity surface area                          =    342.438 Ang**2
 GePol: Cavity volume                                =    378.135 Ang**3
 Leave Link  301 at Mon Nov 17 10:46:58 2025, MaxMem=  2684354560 cpu:               1.2 elap:               0.0
 (Enter /home/programes/qq/gaussian/g16.A03/g16/l302.exe)
 NPDir=0 NMtPBC=     1 NCelOv=     1 NCel=       1 NClECP=     1 NCelD=      1
         NCelK=      1 NCelE2=     1 NClLst=     1 CellRange=     0.0.
 One-electron integrals computed using PRISM.
   1 Symmetry operations used in ECPInt.
 ECPInt:  NShTT=   11175 NPrTT=  105620 LenC2=   10449 LenP2D=   51173.
 LDataN:  DoStor=T MaxTD1= 7 Len=  274
 NBasis=   339 RedAO= T EigKep=  3.67D-04  NBF=   339
 NBsUse=   339 1.00D-06 EigRej= -1.00D+00 NBFU=   339
 Precomputing XC quadrature grid using
 IXCGrd= 4 IRadAn=           5 IRanWt=          -1 IRanGd=           0 AccXCQ= 0.00D+00.
 Defaulting to unpruned grid for atomic number  75.
 Generated NRdTot=       0 NPtTot=           0 NUsed=           0 NTot=          32
 NSgBfM=   363   363   363   363   363 MxSgAt=    28 MxSgA2=    28.
 Leave Link  302 at Mon Nov 17 10:46:59 2025, MaxMem=  2684354560 cpu:              12.2 elap:               0.4
 (Enter /home/programes/qq/gaussian/g16.A03/g16/l303.exe)
 DipDrv:  MaxL=1.
 Leave Link  303 at Mon Nov 17 10:46:59 2025, MaxMem=  2684354560 cpu:               1.1 elap:               0.1
 (Enter /home/programes/qq/gaussian/g16.A03/g16/l401.exe)
 Initial guess from the checkpoint file:  "re-bpy-co3-cl.chk"
 B after Tr=    -0.000731    0.000134    0.016418
         Rot=    0.999999    0.000584    0.001094    0.000034 Ang=   0.14 deg.
 Guess basis will be translated and rotated to current coordinates.
 JPrj=2 DoOrth=T DoCkMO=T.
 Generating alternative initial guess.
 ExpMin= 2.80D-02 ExpMax= 1.28D+05 ExpMxC= 1.24D+03 IAcc=3 IRadAn=         5 AccDes= 0.00D+00
 Harris functional with IExCor=  402 and IRadAn=       5 diagonalized for initial guess.
 HarFok:  IExCor=  402 AccDes= 0.00D+00 IRadAn=         5 IDoV= 1 UseB2=F ITyADJ=14
 ICtDFT=  3500011 ScaDFX=  1.000000  1.000000  1.000000  1.000000
 Defaulting to unpruned grid for atomic number  75.
 FoFCou: FMM=F IPFlag=           0 FMFlag=      100000 FMFlg1=           0
         NFxFlg=           0 DoJE=T BraDBF=F KetDBF=T FulRan=T
         wScrn=  0.000000 ICntrl=       500 IOpCl=  0 I1Cent=   200000004 NGrid=           0
         NMat0=    1 NMatS0=      1 NMatT0=    0 NMatD0=    1 NMtDS0=    0 NMtDT0=    0
 Symmetry not used in FoFCou.
 Harris En= -1374.73514257448    
 Leave Link  401 at Mon Nov 17 10:47:00 2025, MaxMem=  2684354560 cpu:              31.1 elap:               1.0
 (Enter /home/programes/qq/gaussian/g16.A03/g16/l502.exe)
 Two-electron integral symmetry not used.
 Closed shell SCF:
 Using DIIS extrapolation, IDIIS=  1040.
 NGot=  2684354560 LenX=  2684076439 LenY=  2683944229
 Requested convergence on RMS density matrix=1.00D-08 within 128 cycles.
 Requested convergence on MAX density matrix=1.00D-06.
 Requested convergence on             energy=1.00D-06.
 No special actions if energy rises.
 Fock matrices will be formed incrementally for  20 cycles.

 Cycle   1  Pass 1  IDiag  1:
 FoFJK:  IHMeth= 1 ICntrl=       0 DoSepK=F KAlg= 0 I1Cent=           0 FoldK=F
 IRaf= 870000000 NMat=       1 IRICut=       1 DoRegI=T DoRafI=F ISym2E= 0 IDoP0=0 IntGTp=1.
 FoFCou: FMM=F IPFlag=           0 FMFlag=      100000 FMFlg1=           0
         NFxFlg=           0 DoJE=F BraDBF=F KetDBF=F FulRan=T
         wScrn=  0.000000 ICntrl=         0 IOpCl=  0 I1Cent=           0 NGrid=           0
         NMat0=    1 NMatS0=      1 NMatT0=    0 NMatD0=    1 NMtDS0=    0 NMtDT0=    0
 Symmetry not used in FoFCou.
 Defaulting to unpruned grid for atomic number  75.
 Defaulting to unpruned grid for atomic number  75.
 Defaulting to unpruned grid for atomic number  75.
 Defaulting to unpruned grid for atomic number  75.
 Defaulting to unpruned grid for atomic number  75.
 Defaulting to unpruned grid for atomic number  75.
 Defaulting to unpruned grid for atomic number  75.
 Defaulting to unpruned grid for atomic number  75.
 Defaulting to unpruned grid for atomic number  75.
 Defaulting to unpruned grid for atomic number  75.
 Defaulting to unpruned grid for atomic number  75.
 Defaulting to unpruned grid for atomic number  75.
 Defaulting to unpruned grid for atomic number  75.
 Defaulting to unpruned grid for atomic number  75.
 Defaulting to unpruned grid for atomic number  75.
 Defaulting to unpruned grid for atomic number  75.
 Defaulting to unpruned grid for atomic number  75.
 Defaulting to unpruned grid for atomic number  75.
 Defaulting to unpruned grid for atomic number  75.
 Defaulting to unpruned grid for atomic number  75.
 Defaulting to unpruned grid for atomic number  75.
 Defaulting to unpruned grid for atomic number  75.
 Defaulting to unpruned grid for atomic number  75.
 Defaulting to unpruned grid for atomic number  75.
 Defaulting to unpruned grid for atomic number  75.
 Defaulting to unpruned grid for atomic number  75.
 Defaulting to unpruned grid for atomic number  75.
 Defaulting to unpruned grid for atomic number  75.
 Defaulting to unpruned grid for atomic number  75.
 Defaulting to unpruned grid for atomic number  75.
 Defaulting to unpruned grid for atomic number  75.
 Defaulting to unpruned grid for atomic number  75.
 Inv3:  Mode=1 IEnd=    19953723.
 Iteration    1 A*A^-1 deviation from unit magnitude is 6.66D-15 for    674.
 Iteration    1 A*A^-1 deviation from orthogonality  is 3.12D-15 for   1758    922.
 Iteration    1 A^-1*A deviation from unit magnitude is 5.77D-15 for   2577.
 Iteration    1 A^-1*A deviation from orthogonality  is 2.72D-15 for   1424    960.
 E= -1375.04819244682    
 DIIS: error= 2.74D-03 at cycle   1 NSaved=   1.
 NSaved= 1 IEnMin= 1 EnMin= -1375.04819244682     IErMin= 1 ErrMin= 2.74D-03
 ErrMax= 2.74D-03  0.00D+00 EMaxC= 1.00D-01 BMatC= 4.32D-03 BMatP= 4.32D-03
 IDIUse=3 WtCom= 9.73D-01 WtEn= 2.74D-02
 Coeff-Com:  0.100D+01
 Coeff-En:   0.100D+01
 Coeff:      0.100D+01
 Gap=     0.560 Goal=   None    Shift=    0.000
 GapD=    0.560 DampG=2.000 DampE=1.000 DampFc=2.0000 IDamp=-1.
 RMSDP=4.16D-04 MaxDP=1.41D-02              OVMax= 2.07D-02

 Cycle   2  Pass 1  IDiag  1:
 RMSU=  4.16D-04    CP:  9.99D-01
 E= -1375.05399042489     Delta-E=       -0.005797978062 Rises=F Damp=F
 DIIS: error= 1.21D-03 at cycle   2 NSaved=   2.
 NSaved= 2 IEnMin= 2 EnMin= -1375.05399042489     IErMin= 2 ErrMin= 1.21D-03
 ErrMax= 1.21D-03  0.00D+00 EMaxC= 1.00D-01 BMatC= 4.80D-04 BMatP= 4.32D-03
 IDIUse=3 WtCom= 9.88D-01 WtEn= 1.21D-02
 Coeff-Com:  0.120D+00 0.880D+00
 Coeff-En:   0.000D+00 0.100D+01
 Coeff:      0.118D+00 0.882D+00
 Gap=     0.128 Goal=   None    Shift=    0.000
 RMSDP=1.65D-04 MaxDP=1.24D-02 DE=-5.80D-03 OVMax= 1.69D-02

 Cycle   3  Pass 1  IDiag  1:
 RMSU=  1.65D-04    CP:  1.00D+00  1.02D+00
 E= -1375.05244206240     Delta-E=        0.001548362483 Rises=F Damp=F
 DIIS: error= 3.31D-03 at cycle   3 NSaved=   3.
 NSaved= 3 IEnMin= 2 EnMin= -1375.05399042489     IErMin= 2 ErrMin= 1.21D-03
 ErrMax= 3.31D-03  0.00D+00 EMaxC= 1.00D-01 BMatC= 2.24D-03 BMatP= 4.80D-04
 IDIUse=3 WtCom= 1.48D-01 WtEn= 8.52D-01
 Coeff-Com:  0.217D-02 0.695D+00 0.302D+00
 Coeff-En:   0.000D+00 0.768D+00 0.232D+00
 Coeff:      0.322D-03 0.757D+00 0.242D+00
 Gap=     0.126 Goal=   None    Shift=    0.000
 RMSDP=1.11D-04 MaxDP=9.36D-03 DE= 1.55D-03 OVMax= 1.16D-02

 Cycle   4  Pass 1  IDiag  1:
 RMSU=  4.62D-05    CP:  9.99D-01  1.03D+00  3.96D-01
 E= -1375.05437142611     Delta-E=       -0.001929363704 Rises=F Damp=F
 DIIS: error= 3.74D-04 at cycle   4 NSaved=   4.
 NSaved= 4 IEnMin= 4 EnMin= -1375.05437142611     IErMin= 4 ErrMin= 3.74D-04
 ErrMax= 3.74D-04  0.00D+00 EMaxC= 1.00D-01 BMatC= 8.17D-05 BMatP= 4.80D-04
 IDIUse=3 WtCom= 9.96D-01 WtEn= 3.74D-03
 Coeff-Com: -0.148D-01 0.370D+00 0.105D+00 0.539D+00
 Coeff-En:   0.000D+00 0.456D-01 0.000D+00 0.954D+00
 Coeff:     -0.147D-01 0.369D+00 0.105D+00 0.541D+00
 Gap=     0.125 Goal=   None    Shift=    0.000
 RMSDP=3.05D-05 MaxDP=1.36D-03 DE=-1.93D-03 OVMax= 1.85D-03

 Cycle   5  Pass 1  IDiag  1:
 RMSU=  2.06D-05    CP:  9.99D-01  1.05D+00  3.43D-01  5.71D-01
 E= -1375.05443129351     Delta-E=       -0.000059867401 Rises=F Damp=F
 DIIS: error= 1.42D-04 at cycle   5 NSaved=   5.
 NSaved= 5 IEnMin= 5 EnMin= -1375.05443129351     IErMin= 5 ErrMin= 1.42D-04
 ErrMax= 1.42D-04  0.00D+00 EMaxC= 1.00D-01 BMatC= 1.42D-05 BMatP= 8.17D-05
 IDIUse=3 WtCom= 9.99D-01 WtEn= 1.42D-03
 Coeff-Com: -0.863D-02 0.135D+00 0.233D-01 0.349D+00 0.502D+00
 Coeff-En:   0.000D+00 0.000D+00 0.000D+00 0.107D+00 0.893D+00
 Coeff:     -0.862D-02 0.135D+00 0.233D-01 0.349D+00 0.502D+00
 Gap=     0.126 Goal=   None    Shift=    0.000
 RMSDP=1.08D-05 MaxDP=5.10D-04 DE=-5.99D-05 OVMax= 7.17D-04

 Cycle   6  Pass 1  IDiag  1:
 RMSU=  7.76D-06    CP:  9.99D-01  1.05D+00  3.34D-01  6.67D-01  7.21D-01
 E= -1375.05444301311     Delta-E=       -0.000011719603 Rises=F Damp=F
 DIIS: error= 5.25D-05 at cycle   6 NSaved=   6.
 NSaved= 6 IEnMin= 6 EnMin= -1375.05444301311     IErMin= 6 ErrMin= 5.25D-05
 ErrMax= 5.25D-05  0.00D+00 EMaxC= 1.00D-01 BMatC= 1.18D-06 BMatP= 1.42D-05
 IDIUse=1 WtCom= 1.00D+00 WtEn= 0.00D+00
 Coeff-Com: -0.320D-02 0.363D-01 0.341D-03 0.144D+00 0.290D+00 0.532D+00
 Coeff:     -0.320D-02 0.363D-01 0.341D-03 0.144D+00 0.290D+00 0.532D+00
 Gap=     0.126 Goal=   None    Shift=    0.000
 RMSDP=3.63D-06 MaxDP=1.32D-04 DE=-1.17D-05 OVMax= 3.11D-04

 Cycle   7  Pass 1  IDiag  1:
 RMSU=  2.47D-06    CP:  9.99D-01  1.05D+00  3.44D-01  6.85D-01  7.78D-01
                    CP:  8.04D-01
 E= -1375.05444393811     Delta-E=       -0.000000924997 Rises=F Damp=F
 DIIS: error= 1.83D-05 at cycle   7 NSaved=   7.
 NSaved= 7 IEnMin= 7 EnMin= -1375.05444393811     IErMin= 7 ErrMin= 1.83D-05
 ErrMax= 1.83D-05  0.00D+00 EMaxC= 1.00D-01 BMatC= 1.83D-07 BMatP= 1.18D-06
 IDIUse=1 WtCom= 1.00D+00 WtEn= 0.00D+00
 Coeff-Com: -0.421D-03-0.204D-02-0.550D-02 0.301D-01 0.895D-01 0.318D+00
 Coeff-Com:  0.570D+00
 Coeff:     -0.421D-03-0.204D-02-0.550D-02 0.301D-01 0.895D-01 0.318D+00
 Coeff:      0.570D+00
 Gap=     0.126 Goal=   None    Shift=    0.000
 RMSDP=1.54D-06 MaxDP=7.94D-05 DE=-9.25D-07 OVMax= 1.21D-04

 Cycle   8  Pass 1  IDiag  1:
 RMSU=  9.21D-07    CP:  9.99D-01  1.05D+00  3.40D-01  6.94D-01  7.97D-01
                    CP:  8.46D-01  6.60D-01
 E= -1375.05444412582     Delta-E=       -0.000000187714 Rises=F Damp=F
 DIIS: error= 4.75D-06 at cycle   8 NSaved=   8.
 NSaved= 8 IEnMin= 8 EnMin= -1375.05444412582     IErMin= 8 ErrMin= 4.75D-06
 ErrMax= 4.75D-06  0.00D+00 EMaxC= 1.00D-01 BMatC= 1.27D-08 BMatP= 1.83D-07
 IDIUse=1 WtCom= 1.00D+00 WtEn= 0.00D+00
 Coeff-Com:  0.177D-03-0.583D-02-0.284D-02-0.395D-02 0.562D-02 0.799D-01
 Coeff-Com:  0.272D+00 0.655D+00
 Coeff:      0.177D-03-0.583D-02-0.284D-02-0.395D-02 0.562D-02 0.799D-01
 Coeff:      0.272D+00 0.655D+00
 Gap=     0.126 Goal=   None    Shift=    0.000
 RMSDP=5.28D-07 MaxDP=2.11D-05 DE=-1.88D-07 OVMax= 5.31D-05

 Cycle   9  Pass 1  IDiag  1:
 RMSU=  3.69D-07    CP:  9.99D-01  1.05D+00  3.41D-01  6.98D-01  8.04D-01
                    CP:  8.65D-01  7.31D-01  7.78D-01
 E= -1375.05444413942     Delta-E=       -0.000000013598 Rises=F Damp=F
 DIIS: error= 1.91D-06 at cycle   9 NSaved=   9.
 NSaved= 9 IEnMin= 9 EnMin= -1375.05444413942     IErMin= 9 ErrMin= 1.91D-06
 ErrMax= 1.91D-06  0.00D+00 EMaxC= 1.00D-01 BMatC= 2.98D-09 BMatP= 1.27D-08
 IDIUse=1 WtCom= 1.00D+00 WtEn= 0.00D+00
 Coeff-Com:  0.165D-03-0.342D-02-0.121D-02-0.575D-02-0.616D-02 0.157D-01
 Coeff-Com:  0.106D+00 0.392D+00 0.502D+00
 Coeff:      0.165D-03-0.342D-02-0.121D-02-0.575D-02-0.616D-02 0.157D-01
 Coeff:      0.106D+00 0.392D+00 0.502D+00
 Gap=     0.126 Goal=   None    Shift=    0.000
 RMSDP=1.96D-07 MaxDP=7.49D-06 DE=-1.36D-08 OVMax= 2.03D-05

 Cycle  10  Pass 1  IDiag  1:
 RMSU=  1.15D-07    CP:  9.99D-01  1.05D+00  3.41D-01  6.97D-01  8.06D-01
                    CP:  8.70D-01  7.40D-01  8.74D-01  7.10D-01
 E= -1375.05444414234     Delta-E=       -0.000000002923 Rises=F Damp=F
 DIIS: error= 5.56D-07 at cycle  10 NSaved=  10.
 NSaved=10 IEnMin=10 EnMin= -1375.05444414234     IErMin=10 ErrMin= 5.56D-07
 ErrMax= 5.56D-07  0.00D+00 EMaxC= 1.00D-01 BMatC= 2.61D-10 BMatP= 2.98D-09
 IDIUse=1 WtCom= 1.00D+00 WtEn= 0.00D+00
 Coeff-Com:  0.521D-04-0.801D-03-0.235D-03-0.212D-02-0.371D-02-0.357D-02
 Coeff-Com:  0.136D-01 0.107D+00 0.259D+00 0.631D+00
 Coeff:      0.521D-04-0.801D-03-0.235D-03-0.212D-02-0.371D-02-0.357D-02
 Coeff:      0.136D-01 0.107D+00 0.259D+00 0.631D+00
 Gap=     0.126 Goal=   None    Shift=    0.000
 RMSDP=5.94D-08 MaxDP=2.42D-06 DE=-2.92D-09 OVMax= 7.19D-06

 Cycle  11  Pass 1  IDiag  1:
 RMSU=  4.26D-08    CP:  9.99D-01  1.05D+00  3.41D-01  6.98D-01  8.06D-01
                    CP:  8.72D-01  7.43D-01  8.88D-01  7.59D-01  7.89D-01
 E= -1375.05444414260     Delta-E=       -0.000000000253 Rises=F Damp=F
 DIIS: error= 3.53D-07 at cycle  11 NSaved=  11.
 NSaved=11 IEnMin=11 EnMin= -1375.05444414260     IErMin=11 ErrMin= 3.53D-07
 ErrMax= 3.53D-07  0.00D+00 EMaxC= 1.00D-01 BMatC= 5.10D-11 BMatP= 2.61D-10
 IDIUse=1 WtCom= 1.00D+00 WtEn= 0.00D+00
 Coeff-Com:  0.110D-04-0.287D-04 0.666D-05-0.490D-03-0.136D-02-0.406D-02
 Coeff-Com: -0.566D-02 0.118D-01 0.838D-01 0.377D+00 0.539D+00
 Coeff:      0.110D-04-0.287D-04 0.666D-05-0.490D-03-0.136D-02-0.406D-02
 Coeff:     -0.566D-02 0.118D-01 0.838D-01 0.377D+00 0.539D+00
 Gap=     0.126 Goal=   None    Shift=    0.000
 RMSDP=2.24D-08 MaxDP=1.19D-06 DE=-2.53D-10 OVMax= 2.05D-06

 Cycle  12  Pass 1  IDiag  1:
 RMSU=  1.23D-08    CP:  9.99D-01  1.05D+00  3.41D-01  6.98D-01  8.06D-01
                    CP:  8.72D-01  7.44D-01  8.92D-01  7.77D-01  8.33D-01
                    CP:  6.41D-01
 E= -1375.05444414259     Delta-E=        0.000000000008 Rises=F Damp=F
 DIIS: error= 8.25D-08 at cycle  12 NSaved=  12.
 NSaved=12 IEnMin=11 EnMin= -1375.05444414260     IErMin=12 ErrMin= 8.25D-08
 ErrMax= 8.25D-08  0.00D+00 EMaxC= 1.00D-01 BMatC= 4.02D-12 BMatP= 5.10D-11
 IDIUse=1 WtCom= 1.00D+00 WtEn= 0.00D+00
 Coeff-Com:  0.132D-05 0.623D-04 0.313D-04-0.989D-04-0.476D-03-0.221D-02
 Coeff-Com: -0.502D-02-0.384D-02 0.230D-01 0.161D+00 0.302D+00 0.526D+00
 Coeff:      0.132D-05 0.623D-04 0.313D-04-0.989D-04-0.476D-03-0.221D-02
 Coeff:     -0.502D-02-0.384D-02 0.230D-01 0.161D+00 0.302D+00 0.526D+00
 Gap=     0.126 Goal=   None    Shift=    0.000
 RMSDP=6.71D-09 MaxDP=3.73D-07 DE= 7.73D-12 OVMax= 4.93D-07

 Error on total polarization charges =  0.01123
 SCF Done:  E(RB3LYP) =  -1375.05444414     A.U. after   12 cycles
            NFock= 12  Conv=0.67D-08     -V/T= 2.0464
 KE= 1.314076386520D+03 PE=-6.713640094350D+03 EE= 2.268526191781D+03
 Leave Link  502 at Mon Nov 17 10:47:32 2025, MaxMem=  2684354560 cpu:             952.3 elap:              31.6
 (Enter /home/programes/qq/gaussian/g16.A03/g16/l701.exe)
 ... and contract with generalized density number  0.
 Compute integral first derivatives.
 R6Disp: Adding Grimme-D3(BJ) dispersion energy 1st derivatives to the gradient.
   1 Symmetry operations used in ECPInt.
 ECPInt:  NShTT=   11175 NPrTT=  105620 LenC2=   10449 LenP2D=   51173.
 LDataN:  DoStor=T MaxTD1= 8 Len=  415
 D1PCM: PCM CHGder 1st derivatives, ID1Alg=3 FixD1E=F DoIter=F DoCFld=F I1PDM=0.
 GePol: Maximum number of non-zero 1st derivatives   =     260
 Leave Link  701 at Mon Nov 17 10:47:33 2025, MaxMem=  2684354560 cpu:              45.1 elap:               1.5
 (Enter /home/programes/qq/gaussian/g16.A03/g16/l702.exe)
 L702 exits ... SP integral derivatives will be done elsewhere.
 Leave Link  702 at Mon Nov 17 10:47:33 2025, MaxMem=  2684354560 cpu:               0.2 elap:               0.0
 (Enter /home/programes/qq/gaussian/g16.A03/g16/l703.exe)
 Integral derivatives from FoFJK, PRISM(SPDF).
 Compute integral first derivatives, UseDBF=F ICtDFT=           0.
 Calling FoFJK, ICntrl=      2127 FMM=F ISym2X=0 I1Cent= 0 IOpClX= 0 NMat=1 NMatS=1 NMatT=0.
 FoFJK:  IHMeth= 1 ICntrl=    2127 DoSepK=F KAlg= 0 I1Cent=           0 FoldK=F
 IRaf=         0 NMat=       1 IRICut=       1 DoRegI=T DoRafI=F ISym2E= 0 IDoP0=0 IntGTp=1.
 FoFCou: FMM=F IPFlag=           0 FMFlag=      100000 FMFlg1=         800
         NFxFlg=           0 DoJE=F BraDBF=F KetDBF=F FulRan=T
         wScrn=  0.000000 ICntrl=      2127 IOpCl=  0 I1Cent=           0 NGrid=           0
         NMat0=    1 NMatS0=      1 NMatT0=    0 NMatD0=    1 NMtDS0=    0 NMtDT0=    0
 Symmetry not used in FoFCou.
 Defaulting to unpruned grid for atomic number  75.
 Defaulting to unpruned grid for atomic number  75.
 Defaulting to unpruned grid for atomic number  75.
 Defaulting to unpruned grid for atomic number  75.
 Defaulting to unpruned grid for atomic number  75.
 Defaulting to unpruned grid for atomic number  75.
 Defaulting to unpruned grid for atomic number  75.
 Defaulting to unpruned grid for atomic number  75.
 Defaulting to unpruned grid for atomic number  75.
 Defaulting to unpruned grid for atomic number  75.
 Defaulting to unpruned grid for atomic number  75.
 Defaulting to unpruned grid for atomic number  75.
 Defaulting to unpruned grid for atomic number  75.
 Defaulting to unpruned grid for atomic number  75.
 Defaulting to unpruned grid for atomic number  75.
 Defaulting to unpruned grid for atomic number  75.
 Defaulting to unpruned grid for atomic number  75.
 Defaulting to unpruned grid for atomic number  75.
 Defaulting to unpruned grid for atomic number  75.
 Defaulting to unpruned grid for atomic number  75.
 Defaulting to unpruned grid for atomic number  75.
 Defaulting to unpruned grid for atomic number  75.
 Defaulting to unpruned grid for atomic number  75.
 Defaulting to unpruned grid for atomic number  75.
 Defaulting to unpruned grid for atomic number  75.
 Defaulting to unpruned grid for atomic number  75.
 Defaulting to unpruned grid for atomic number  75.
 Defaulting to unpruned grid for atomic number  75.
 Defaulting to unpruned grid for atomic number  75.
 Defaulting to unpruned grid for atomic number  75.
 Defaulting to unpruned grid for atomic number  75.
 Defaulting to unpruned grid for atomic number  75.
 Leave Link  703 at Mon Nov 17 10:47:38 2025, MaxMem=  2684354560 cpu:             150.4 elap:               4.7
 (Enter /home/programes/qq/gaussian/g16.A03/g16/l716.exe)
 Dipole        = 4.82050249D+00-2.90126498D+00 2.10964821D+00
 -------------------------------------------------------------------
 Center     Atomic                   Forces (Hartrees/Bohr)
 Number     Number              X              Y              Z
 -------------------------------------------------------------------
      1        6           0.025220057    0.038531637    0.000009952
      2        6          -0.013060222   -0.016025648   -0.000388969
      3        6          -0.002901905    0.019364504    0.001171205
      4        6           0.013526458   -0.011967273   -0.001839833
      5        6          -0.007837660    0.002640478   -0.000551874
      6        6          -0.022371698   -0.040297501   -0.000348341
      7        6           0.008118432    0.019038029   -0.000325570
      8        6          -0.018530368   -0.006492590    0.001050286
      9        6           0.016927441   -0.006387530   -0.001776460
     10        6          -0.005937709    0.005798168   -0.000378406
     11        1           0.000460606    0.001449958   -0.000145105
     12        1          -0.000332049   -0.000545449   -0.000059654
     13        1          -0.000406144    0.000039419    0.000352541
     14        1           0.001064319   -0.000203130    0.000085623
     15        1          -0.001125659   -0.001039695   -0.000181703
     16        1           0.000329137    0.000542199   -0.000096082
     17        1          -0.000208427    0.000331788    0.000331769
     18        1           0.000649920   -0.000829466    0.000055559
     19        7           0.028631168   -0.029838881    0.000737787
     20        7           0.039588574   -0.011445950    0.000534064
     21       75          -0.057381639    0.034984762    0.018459262
     22        6           0.001710871   -0.001545735    0.015434256
     23        6          -0.011678475   -0.002575778   -0.000743825
     24        6          -0.003212258    0.011601135   -0.000835199
     25        8           0.000136861    0.000093234   -0.003421421
     26        8           0.005576718    0.001746691    0.001523899
     27        8           0.001104382   -0.005746711    0.001597294
     28       17           0.001939271   -0.001220665   -0.030251057
 -------------------------------------------------------------------
 Cartesian Forces:  Max     0.057381639 RMS     0.014008264
 Leave Link  716 at Mon Nov 17 10:47:38 2025, MaxMem=  2684354560 cpu:               0.6 elap:               0.0
 (Enter /home/programes/qq/gaussian/g16.A03/g16/l103.exe)

 GradGradGradGradGradGradGradGradGradGradGradGradGradGradGradGradGradGrad
 Berny optimization.
 Using GEDIIS/GDIIS optimizer.
 FormGI is forming the generalized inverse of G from B-inverse, IUseBI=4.
 Internal  Forces:  Max     0.040718057 RMS     0.006483962
 Search for a local minimum.
 Step number   2 out of a maximum of  168
 All quantities printed in internal units (Hartrees-Bohrs-Radians)
 RMS Force = .64840D-02 SwitMx=.10000D-02 MixMth= 1
 Mixed Optimization -- RFO/linear search
 Update second derivatives using D2CorX and points    1    2
 DE= -1.73D-02 DEPred=-1.84D-02 R= 9.40D-01
 TightC=F SS=  1.41D+00  RLast= 3.08D-01 DXNew= 5.0454D-01 9.2337D-01
 Trust test= 9.40D-01 RLast= 3.08D-01 DXMaxT set to 5.05D-01
 ITU=  1  0
 Use linear search instead of GDIIS.
     Eigenvalues ---    0.00609   0.00895   0.01033   0.01507   0.01691
     Eigenvalues ---    0.01788   0.01841   0.01878   0.01934   0.01951
     Eigenvalues ---    0.02025   0.02025   0.02159   0.02160   0.02250
     Eigenvalues ---    0.02253   0.02314   0.02315   0.04555   0.04602
     Eigenvalues ---    0.04640   0.04672   0.04693   0.04693   0.04693
     Eigenvalues ---    0.06763   0.07225   0.08214   0.09540   0.11201
     Eigenvalues ---    0.12234   0.14277   0.15743   0.15997   0.16000
     Eigenvalues ---    0.16000   0.16000   0.16000   0.16000   0.16000
     Eigenvalues ---    0.16022   0.17262   0.17394   0.22000   0.22002
     Eigenvalues ---    0.22600   0.22872   0.23975   0.24484   0.24764
     Eigenvalues ---    0.24850   0.24990   0.24994   0.29274   0.34513
     Eigenvalues ---    0.34516   0.34524   0.34533   0.34581   0.34586
     Eigenvalues ---    0.34734   0.34739   0.35912   0.36697   0.38474
     Eigenvalues ---    0.38679   0.39119   0.42957   0.46236   0.47445
     Eigenvalues ---    0.49765   0.50135   0.50190   0.51499   0.59137
     Eigenvalues ---    1.17512   1.19576   1.20418
 RFO step:  Lambda=-4.29204889D-02 EMin= 6.09119940D-03
 Quartic linear search produced a step of  0.11247.
 Maximum step size (   0.505) exceeded in Quadratic search.
    -- Step size scaled by   0.905
 Iteration  1 RMS(Cart)=  0.05769819 RMS(Int)=  0.00373261
 Iteration  2 RMS(Cart)=  0.00738701 RMS(Int)=  0.00030931
 Iteration  3 RMS(Cart)=  0.00001649 RMS(Int)=  0.00030926
 Iteration  4 RMS(Cart)=  0.00000000 RMS(Int)=  0.00030926
 ITry= 1 IFail=0 DXMaxC= 2.15D-01 DCOld= 1.00D+10 DXMaxT= 5.05D-01 DXLimC= 3.00D+00 Rises=F
 Variable       Old X    -DE/DX   Delta X   Delta X   Delta X     New X
                                 (Linear)    (Quad)   (Total)
    R1        2.67121  -0.00992  -0.00521  -0.08229  -0.08738   2.58384
    R2        2.70074   0.02733   0.00787   0.14671   0.15393   2.85467
    R3        2.62614  -0.00605  -0.00804  -0.10658  -0.11472   2.51143
    R4        2.60253   0.00825   0.00227   0.04101   0.04321   2.64574
    R5        2.05993  -0.00097  -0.00041  -0.00710  -0.00751   2.05242
    R6        2.66943  -0.01276  -0.00658  -0.10546  -0.11223   2.55721
    R7        2.06094  -0.00036  -0.00043  -0.00583  -0.00626   2.05468
    R8        2.60568   0.00675   0.00161   0.03071   0.03220   2.63789
    R9        2.05824  -0.00013  -0.00032  -0.00408  -0.00440   2.05384
   R10        2.06023  -0.00078  -0.00049  -0.00756  -0.00805   2.05218
   R11        2.56365   0.00143  -0.00243  -0.02726  -0.02962   2.53403
   R12        2.67109  -0.00997  -0.00521  -0.08245  -0.08754   2.58356
   R13        2.62630  -0.00609  -0.00806  -0.10696  -0.11512   2.51118
   R14        2.60249   0.00826   0.00227   0.04099   0.04319   2.64568
   R15        2.05971  -0.00103  -0.00043  -0.00741  -0.00784   2.05187
   R16        2.66945  -0.01278  -0.00659  -0.10571  -0.11250   2.55696
   R17        2.06093  -0.00035  -0.00043  -0.00582  -0.00625   2.05467
   R18        2.60551   0.00680   0.00162   0.03092   0.03243   2.63794
   R19        2.05823  -0.00014  -0.00032  -0.00403  -0.00435   2.05388
   R20        2.06012  -0.00076  -0.00049  -0.00747  -0.00796   2.05216
   R21        2.56400   0.00135  -0.00245  -0.02767  -0.03005   2.53395
   R22        4.03851   0.04072   0.00414   0.23108   0.23561   4.27412
   R23        4.03984   0.04064   0.00400   0.22978   0.23417   4.27401
   R24        3.54283   0.01179   0.00235   0.05841   0.06076   3.60359
   R25        3.64071   0.00605   0.00117   0.03183   0.03301   3.67372
   R26        3.64042   0.00612   0.00122   0.03249   0.03371   3.67413
   R27        5.39389   0.03025  -0.02392   0.15753   0.13361   5.52749
   R28        2.21054  -0.00341  -0.00156  -0.02280  -0.02437   2.18617
   R29        2.19850  -0.00598  -0.00207  -0.03121  -0.03328   2.16522
   R30        2.19848  -0.00601  -0.00207  -0.03120  -0.03327   2.16521
    A1        2.17319  -0.00586  -0.00239  -0.05047  -0.05261   2.12057
    A2        2.09098   0.00632   0.00192   0.03830   0.04086   2.13184
    A3        2.01898  -0.00046   0.00047   0.01216   0.01174   2.03072
    A4        2.11123  -0.00230  -0.00119  -0.02000  -0.02119   2.09005
    A5        2.07275   0.00235   0.00060   0.01535   0.01594   2.08869
    A6        2.09920  -0.00005   0.00060   0.00465   0.00525   2.10444
    A7        2.07236  -0.00033  -0.00022  -0.00390  -0.00443   2.06793
    A8        2.10775  -0.00038   0.00029   0.00136   0.00181   2.10956
    A9        2.10307   0.00071  -0.00007   0.00254   0.00262   2.10569
   A10        2.06602   0.00123   0.00014   0.00555   0.00533   2.07135
   A11        2.12028  -0.00019  -0.00032  -0.00347  -0.00362   2.11666
   A12        2.09689  -0.00104   0.00019  -0.00208  -0.00171   2.09517
   A13        2.10742   0.00002   0.00094   0.00878   0.00976   2.11718
   A14        2.16566  -0.00155  -0.00167  -0.02219  -0.02393   2.14173
   A15        2.01009   0.00154   0.00073   0.01341   0.01418   2.02426
   A16        2.17306  -0.00589  -0.00239  -0.05056  -0.05271   2.12035
   A17        2.01920  -0.00045   0.00045   0.01199   0.01155   2.03075
   A18        2.09088   0.00634   0.00194   0.03857   0.04116   2.13204
   A19        2.11142  -0.00229  -0.00121  -0.02013  -0.02133   2.09010
   A20        2.07235   0.00231   0.00058   0.01502   0.01560   2.08795
   A21        2.09942  -0.00002   0.00062   0.00510   0.00572   2.10514
   A22        2.07236  -0.00036  -0.00022  -0.00396  -0.00450   2.06787
   A23        2.10777  -0.00037   0.00029   0.00139   0.00184   2.10961
   A24        2.10305   0.00073  -0.00007   0.00257   0.00265   2.10570
   A25        2.06590   0.00124   0.00013   0.00557   0.00535   2.07124
   A26        2.12026  -0.00022  -0.00034  -0.00375  -0.00391   2.11635
   A27        2.09703  -0.00102   0.00021  -0.00182  -0.00144   2.09559
   A28        2.10726   0.00003   0.00095   0.00895   0.00994   2.11720
   A29        2.16586  -0.00157  -0.00166  -0.02217  -0.02391   2.14195
   A30        2.01007   0.00153   0.00071   0.01321   0.01396   2.02403
   A31        2.05991  -0.00336   0.00102   0.00217   0.00326   2.06317
   A32        2.02954   0.00521  -0.00014   0.01519   0.01512   2.04466
   A33        2.19358  -0.00184  -0.00084  -0.01713  -0.01823   2.17535
   A34        2.06008  -0.00337   0.00103   0.00228   0.00338   2.06346
   A35        2.02930   0.00523  -0.00012   0.01536   0.01532   2.04462
   A36        2.19360  -0.00184  -0.00087  -0.01739  -0.01852   2.17508
   A37        1.32763  -0.00950  -0.00060  -0.05427  -0.05367   1.27396
   A38        1.71116  -0.00197  -0.00218  -0.03271  -0.03555   1.67560
   A39        1.67813   0.00567   0.00086   0.03013   0.03007   1.70820
   A40        1.49414  -0.00111   0.00042  -0.00267  -0.00235   1.49179
   A41        1.70094  -0.00158  -0.00199  -0.02906  -0.03215   1.66880
   A42        1.67962   0.00561   0.00079   0.02915   0.02901   1.70863
   A43        1.50032  -0.00113   0.00035  -0.00345  -0.00343   1.49689
   A44        1.58683  -0.00004  -0.00081  -0.00435  -0.00478   1.58205
   A45        1.58530   0.00025  -0.00073  -0.00246  -0.00318   1.58212
   A46        1.57692  -0.00128  -0.00018   0.00482   0.00394   1.58086
   A47        1.50176   0.00260   0.00227   0.03454   0.03692   1.53868
   A48        1.49861   0.00272   0.00234   0.03585   0.03798   1.53658
   A49        3.00725  -0.00389   0.00019  -0.02511  -0.02466   2.98259
   A50        3.00576  -0.00383   0.00027  -0.02414  -0.02361   2.98216
   A51        3.20530  -0.00308  -0.00176  -0.03538  -0.03791   3.16739
   A52        3.15130  -0.00003   0.00222   0.01225   0.01447   3.16577
   A53        3.10582   0.00037  -0.00067  -0.00012  -0.00079   3.10503
   A54        3.10756   0.00031  -0.00062  -0.00040  -0.00101   3.10655
   A55        2.99943   0.00183   0.00272   0.03455   0.03710   3.03653
   A56        3.27327  -0.00173  -0.00256  -0.03252  -0.03493   3.23834
   A57        3.09517   0.00258   0.00133   0.02825   0.02892   3.12409
   A58        3.12484  -0.00062  -0.00375  -0.02755  -0.03129   3.09354
   A59        3.19091  -0.00175   0.00516   0.01193   0.01709   3.20801
   A60        3.08890   0.00180  -0.00524  -0.01188  -0.01713   3.07177
    D1       -3.13596   0.00038   0.00039   0.00613   0.00650  -3.12947
    D2        0.00487   0.00026   0.00018   0.00408   0.00428   0.00916
    D3       -0.00508   0.00024   0.00060   0.00494   0.00554   0.00046
    D4        3.13576   0.00012   0.00040   0.00290   0.00332   3.13909
    D5        0.00129  -0.00005  -0.00006  -0.00082  -0.00089   0.00040
    D6        3.13255  -0.00011   0.00017  -0.00131  -0.00110   3.13146
    D7       -3.13000   0.00005  -0.00028   0.00015  -0.00018  -3.13017
    D8        0.00127  -0.00002  -0.00005  -0.00033  -0.00038   0.00089
    D9       -0.00006  -0.00019  -0.00039  -0.00421  -0.00460  -0.00466
   D10       -3.12150  -0.00086  -0.00195  -0.01619  -0.01834  -3.13984
   D11        3.13174  -0.00036  -0.00022  -0.00569  -0.00591   3.12584
   D12        0.01030  -0.00103  -0.00178  -0.01767  -0.01965  -0.00934
   D13        0.00361  -0.00007  -0.00030  -0.00158  -0.00180   0.00181
   D14       -3.14071  -0.00011  -0.00027  -0.00222  -0.00242   3.14006
   D15       -3.13721   0.00004  -0.00010   0.00049   0.00043  -3.13678
   D16        0.00165   0.00001  -0.00006  -0.00014  -0.00019   0.00146
   D17        0.00277  -0.00014  -0.00021  -0.00249  -0.00264   0.00014
   D18       -3.13676  -0.00012  -0.00014  -0.00239  -0.00254  -3.13930
   D19       -3.13609  -0.00011  -0.00024  -0.00186  -0.00202  -3.13812
   D20        0.00756  -0.00009  -0.00018  -0.00176  -0.00193   0.00563
   D21        3.13769   0.00021   0.00044   0.00367   0.00403  -3.14147
   D22       -0.00831   0.00019   0.00043   0.00338   0.00378  -0.00454
   D23       -0.00593   0.00019   0.00038   0.00357   0.00393  -0.00200
   D24        3.13125   0.00017   0.00038   0.00328   0.00368   3.13493
   D25        0.00688  -0.00003  -0.00012   0.00005  -0.00012   0.00676
   D26        3.12623   0.00080   0.00162   0.01372   0.01519   3.14142
   D27       -3.13890  -0.00005  -0.00013  -0.00023  -0.00036  -3.13927
   D28       -0.01956   0.00078   0.00162   0.01344   0.01495  -0.00461
   D29        3.13881  -0.00036  -0.00039  -0.00585  -0.00620   3.13262
   D30       -0.00150  -0.00026  -0.00021  -0.00410  -0.00432  -0.00582
   D31        0.00794  -0.00024  -0.00062  -0.00518  -0.00577   0.00217
   D32       -3.13237  -0.00015  -0.00044  -0.00342  -0.00389  -3.13626
   D33       -3.13601   0.00035   0.00023   0.00553   0.00572  -3.13029
   D34       -0.01225   0.00106   0.00186   0.01823   0.02027   0.00802
   D35       -0.00422   0.00021   0.00042   0.00451   0.00492   0.00070
   D36        3.11954   0.00092   0.00205   0.01722   0.01947   3.13900
   D37       -0.00323   0.00009   0.00030   0.00168   0.00190  -0.00133
   D38       -3.14128   0.00009   0.00022   0.00177   0.00191  -3.13937
   D39        3.13706  -0.00001   0.00012  -0.00009   0.00000   3.13707
   D40       -0.00099  -0.00001   0.00004  -0.00000   0.00002  -0.00096
   D41       -0.00487   0.00014   0.00021   0.00256   0.00271  -0.00216
   D42        3.13650   0.00010   0.00010   0.00197   0.00208   3.13857
   D43        3.13319   0.00014   0.00030   0.00247   0.00269   3.13588
   D44       -0.00863   0.00009   0.00018   0.00188   0.00206  -0.00657
   D45       -3.13532  -0.00025  -0.00052  -0.00438  -0.00481  -3.14014
   D46        0.00891  -0.00019  -0.00042  -0.00331  -0.00369   0.00523
   D47        0.00649  -0.00020  -0.00041  -0.00380  -0.00419   0.00230
   D48       -3.13245  -0.00014  -0.00031  -0.00273  -0.00307  -3.13552
   D49       -0.00426   0.00001   0.00009  -0.00033  -0.00019  -0.00445
   D50       -3.12617  -0.00085  -0.00172  -0.01475  -0.01632   3.14070
   D51        3.13984   0.00007   0.00019   0.00069   0.00089   3.14073
   D52        0.01794  -0.00080  -0.00163  -0.01373  -0.01525   0.00269
   D53        0.01325  -0.00124  -0.00211  -0.02097  -0.02268  -0.00943
   D54       -1.65771   0.00105  -0.00047   0.00783   0.00672  -1.65099
   D55        3.02316   0.00048   0.00045   0.01156   0.01226   3.03542
   D56        1.53031  -0.00153  -0.00181  -0.02043  -0.02221   1.50810
   D57        3.13546  -0.00048  -0.00030  -0.00689  -0.00681   3.12865
   D58        1.46450   0.00181   0.00133   0.02190   0.02258   1.48708
   D59       -0.13781   0.00125   0.00226   0.02563   0.02812  -0.10969
   D60       -1.63066  -0.00076   0.00000  -0.00635  -0.00634  -1.63701
   D61       -0.01256   0.00124   0.00208   0.02081   0.02248   0.00993
   D62        1.67138  -0.00142   0.00022  -0.01186  -0.01072   1.66066
   D63       -3.01199  -0.00059  -0.00063  -0.01374  -0.01461  -3.02660
   D64       -1.52173   0.00158   0.00170   0.01972   0.02101  -1.50072
   D65       -3.13225   0.00052   0.00034   0.00749   0.00745  -3.12480
   D66       -1.44831  -0.00213  -0.00152  -0.02518  -0.02575  -1.47406
   D67        0.15150  -0.00131  -0.00237  -0.02705  -0.02965   0.12186
   D68        1.64177   0.00086  -0.00004   0.00640   0.00597   1.64774
         Item               Value     Threshold  Converged?
 Maximum Force            0.040718     0.000450     NO 
 RMS     Force            0.006484     0.000300     NO 
 Maximum Displacement     0.215443     0.001800     NO 
 RMS     Displacement     0.063676     0.001200     NO 
 Predicted change in Energy=-2.803029D-02
 Lowest energy point so far.  Saving SCF results.
 GradGradGradGradGradGradGradGradGradGradGradGradGradGradGradGradGradGrad

 Leave Link  103 at Mon Nov 17 10:47:38 2025, MaxMem=  2684354560 cpu:               4.8 elap:               0.2
 (Enter /home/programes/qq/gaussian/g16.A03/g16/l202.exe)
                          Input orientation:                          
 ---------------------------------------------------------------------
 Center     Atomic      Atomic             Coordinates (Angstroms)
 Number     Number       Type             X           Y           Z
 ---------------------------------------------------------------------
      1          6           0       -2.301961    0.323298    0.029076
      2          6           0       -0.937258    0.334647   -0.054503
      3          6           0       -0.249988    1.554221   -0.032693
      4          6           0       -0.966721    2.697084    0.073841
      5          6           0       -2.357429    2.610351    0.157356
      6          6           0       -3.082273   -0.970180    0.024782
      7          6           0       -2.455401   -2.182020   -0.062399
      8          6           0       -3.213720   -3.358860   -0.052403
      9          6           0       -4.559480   -3.258448    0.045996
     10          6           0       -5.131588   -1.988299    0.135714
     11          1           0       -0.395654   -0.603368   -0.134479
     12          1           0        0.835006    1.584361   -0.096592
     13          1           0       -0.479979    3.668653    0.092927
     14          1           0       -2.974102    3.500044    0.243895
     15          1           0       -1.372833   -2.222369   -0.135824
     16          1           0       -2.733926   -4.332305   -0.118704
     17          1           0       -5.191801   -4.142396    0.055105
     18          1           0       -6.206600   -1.858133    0.217619
     19          7           0       -4.403153   -0.862578    0.122577
     20          7           0       -3.013458    1.441125    0.131287
     21         75           0       -5.261055    1.225508    0.262203
     22          6           0       -5.343163    1.280519    2.166579
     23          6           0       -7.143093    0.746662    0.172974
     24          6           0       -5.716573    3.113209    0.165992
     25          8           0       -5.441371    1.346045    3.317410
     26          8           0       -8.236693    0.429302    0.045923
     27          8           0       -5.947930    4.227302    0.031502
     28         17           0       -5.210804    1.191636   -2.662192
 ---------------------------------------------------------------------
                    Distance matrix (angstroms):
                    1          2          3          4          5
     1  C    0.000000
     2  C    1.367307   0.000000
     3  C    2.393654   1.400063   0.000000
     4  C    2.723918   2.366104   1.353216   0.000000
     5  C    2.291319   2.690836   2.364918   1.395910   0.000000
     6  C    1.510626   2.511962   3.794436   4.234005   3.655569
     7  C    2.511679   2.939121   4.338689   5.102978   4.798407
     8  C    3.794236   4.338695   5.737809   6.460604   6.033963
     9  C    4.233862   5.103031   6.460626   6.955362   6.269309
    10  C    3.655357   4.798402   6.033889   6.269191   5.370662
    11  H    2.125904   1.086096   2.164895   3.355965   3.776470
    12  H    3.383288   2.168980   1.087292   2.124482   3.362854
    13  H    3.809868   3.368448   2.130611   1.086843   2.156147
    14  H    3.254172   3.775913   3.359097   2.168696   1.085969
    15  H    2.714939   2.595125   3.941326   4.940639   4.940706
    16  H    4.677934   5.001257   6.389720   7.250682   6.958335
    17  H    5.319236   6.177140   7.541927   8.039287   7.324187
    18  H    4.476650   5.713869   6.869355   6.944567   5.898059
    19  N    2.414550   3.671122   4.807682   4.947993   4.030811
    20  N    1.328990   2.359962   2.770640   2.402055   1.340949
    21  Re   3.102349   4.425964   5.030488   4.543382   3.218669
    22  C    3.838503   5.023931   5.554471   5.053658   3.836671
    23  C    4.861738   6.223656   6.943295   6.477773   5.135773
    24  C    4.411567   5.532709   5.688011   4.768935   3.396585
    25  O    4.659941   5.716621   6.181989   5.689336   4.592942
    26  O    5.935702   7.300740   8.065921   7.615518   6.271773
    27  O    5.341755   6.345628   6.294127   5.211123   3.939806
    28  Cl   4.056883   5.079141   5.626316   5.269202   4.254921
                    6          7          8          9         10
     6  C    0.000000
     7  C    1.367159   0.000000
     8  C    2.393538   1.400035   0.000000
     9  C    2.723740   2.365923   1.353083   0.000000
    10  C    2.290974   2.690492   2.364750   1.395936   0.000000
    11  H    2.716218   2.596131   3.942203   4.941606   4.941670
    12  H    4.678193   5.001357   6.389802   7.250766   6.958312
    13  H    5.319338   6.177119   7.541910   8.039233   7.323961
    14  H    4.476898   5.713906   6.869481   6.944768   5.898165
    15  H    2.125078   1.085805   2.165048   3.355776   3.775812
    16  H    3.383166   2.168979   1.087287   2.124368   3.362718
    17  H    3.809722   3.368199   2.130326   1.086865   2.156446
    18  H    3.253777   3.775553   3.358932   2.168719   1.085957
    19  N    1.328859   2.359847   2.770702   2.402186   1.340909
    20  N    2.414637   3.670984   4.807671   4.948075   4.030811
    21  Re   3.102339   4.425868   5.030605   4.543657   3.218900
    22  C    3.842469   5.029581   5.566170   5.070824   3.854134
    23  C    4.411322   5.532362   5.687361   4.767818   3.395225
    24  C    4.861434   6.223090   6.942596   6.476981   5.135027
    25  O    4.666009   5.725938   6.201145   5.716751   4.619199
    26  O    5.341071   6.344609   6.292066   5.207821   3.936310
    27  O    5.935137   7.299725   8.064291   7.613439   6.269846
    28  Cl   4.052644   5.072743   5.613053   5.249930   4.236336
                   11         12         13         14         15
    11  H    0.000000
    12  H    2.510402   0.000000
    13  H    4.278901   2.471716   0.000000
    14  H    4.861024   4.277275   2.504370   0.000000
    15  H    1.891044   4.400828   5.962689   5.954349   0.000000
    16  H    4.401447   6.909753   8.315070   7.844415   2.510915
    17  H    5.963530   8.315116   9.122236   7.959945   4.278723
    18  H    5.955292   7.844342   7.959592   6.257779   4.860338
    19  N    4.024092   5.785660   5.993683   4.592318   3.331462
    20  N    3.332189   3.857865   3.373703   2.062372   4.022958
    21  Re   5.212895   6.117146   5.371806   3.225524   5.211962
    22  C    5.772499   6.586656   5.801188   3.772990   5.773630
    23  C    6.888036   8.026486   7.276093   4.996662   6.496645
    24  C    6.497338   6.732720   5.266476   2.770714   6.886767
    25  O    6.416776   7.148784   6.356667   4.491506   6.419611
    26  O    7.910806   9.146048   8.406082   6.096189   7.360500
    27  O    7.361433   7.280781   5.496758   3.068822   7.909347
    28  Cl   5.726871   6.579389   6.008910   4.333235   5.724333
                   16         17         18         19         20
    16  H    0.000000
    17  H    2.471321   0.000000
    18  H    4.277161   2.504812   0.000000
    19  N    3.857919   3.373977   2.062179   0.000000
    20  N    5.785597   5.993888   4.592245   2.690423   0.000000
    21  Re   6.117251   5.372344   3.225661   2.261768   2.261707
    22  C    6.598063   5.821447   3.794088   3.107158   3.097698
    23  C    6.732142   5.265389   2.768387   3.177965   4.187827
    24  C    8.025765   7.275402   4.995701   4.187343   3.178662
    25  O    7.168040   6.389672   4.523388   4.020307   4.006892
    26  O    7.278767   5.492893   3.063187   4.046091   5.321020
    27  O    9.144356   8.403816   6.093772   5.319916   4.047698
    28  Cl   6.566444   5.986315   4.311150   3.553454   3.562878
                   21         22         23         24         25
    21  Re   0.000000
    22  C    1.906939   0.000000
    23  C    1.944048   2.738469   0.000000
    24  C    1.944265   2.738710   2.763251   0.000000
    25  O    3.062897   1.156871   3.625272   3.623540   0.000000
    26  O    3.087903   3.687040   1.145784   3.683583   4.399644
    27  O    3.088006   3.688879   3.682836   1.145782   4.399481
    28  Cl   2.925023   4.831403   3.459756   3.456424   5.986038
                   26         27         28
    26  O    0.000000
    27  O    4.434348   0.000000
    28  Cl   4.131713   4.124877   0.000000
 Symmetry turned off by external request.
 Stoichiometry    C13H8ClN2O3Re
 Framework group  C1[X(C13H8ClN2O3Re)]
 Deg. of freedom    78
 Full point group                 C1      NOp   1
 Rotational constants (GHZ):           0.3250917           0.2609603           0.2007558
 Leave Link  202 at Mon Nov 17 10:47:39 2025, MaxMem=  2684354560 cpu:               0.1 elap:               0.0
 (Enter /home/programes/qq/gaussian/g16.A03/g16/l301.exe)
 Basis read from rwf:  (5D, 7F)
 Pseudo-potential data read from rwf file.
   339 basis functions,   774 primitive gaussians,   363 cartesian basis functions
    78 alpha electrons       78 beta electrons
       nuclear repulsion energy      1740.8875169341 Hartrees.
 IExCor=  402 DFT=T Ex+Corr=B3LYP ExCW=0 ScaHFX=  0.200000
 ScaDFX=  0.800000  0.720000  1.000000  0.810000 ScalE2=  1.000000  1.000000
 IRadAn=      5 IRanWt=     -1 IRanGd=            0 ICorTp=0 IEmpDi=141
 NAtoms=   28 NActive=   28 NUniq=   28 SFac= 1.00D+00 NAtFMM=   60 NAOKFM=F Big=F
 Integral buffers will be    131072 words long.
 Raffenetti 2 integral format.
 Two-electron integral symmetry is turned off.
 R6Disp:  Grimme-D3(BJ) Dispersion energy=       -0.0833169034 Hartrees.
 Nuclear repulsion after empirical dispersion term =     1740.8042000306 Hartrees.
 No density basis found on file   724.
 ------------------------------------------------------------------------------
 Polarizable Continuum Model (PCM)
 =================================
 Model                : PCM.
 Atomic radii         : UFF (Universal Force Field).
 Polarization charges : Total charges.
 Charge compensation  : None.
 Solution method      : On-the-fly selection.
 Cavity type          : Scaled VdW (van der Waals Surface) (Alpha=1.100).
 Cavity algorithm     : GePol (No added spheres)
                        Default sphere list used, NSphG=   28.
                        Lebedev-Laikov grids with approx.  5.0 points / Ang**2.
                        Smoothing algorithm: York/Karplus (Gamma=1.0000).
                        Polarization charges: spherical gaussians, with
                                              point-specific exponents (IZeta= 3).
                        Self-potential: point-specific (ISelfS= 7).
                        Self-field    : sphere-specific E.n sum rule (ISelfD= 2).
 1st derivatives      : Analytical E(r).r(x)/FMM algorithm (CHGder, D1EAlg=3).
                        Cavity 1st derivative terms included.
 Solvent              : n,n-DiMethylFormamide, Eps=  37.219000 Eps(inf)=   2.046330
 ------------------------------------------------------------------------------
 GePol: Number of generator spheres                  =      28
 GePol: Total number of spheres                      =      28
 GePol: Number of exposed spheres                    =      27 ( 96.43%)
 GePol: Number of points                             =    2620
 GePol: Average weight of points                     =       0.13
 GePol: Minimum weight of points                     =   0.13D-11
 GePol: Maximum weight of points                     =    0.21616
 GePol: Number of points with low weight             =     146
 GePol: Fraction of low-weight points (<1% of avg)   =       5.57%
 GePol: Cavity surface area                          =    346.256 Ang**2
 GePol: Cavity volume                                =    379.494 Ang**3
 Leave Link  301 at Mon Nov 17 10:47:39 2025, MaxMem=  2684354560 cpu:               1.2 elap:               0.0
 (Enter /home/programes/qq/gaussian/g16.A03/g16/l302.exe)
 NPDir=0 NMtPBC=     1 NCelOv=     1 NCel=       1 NClECP=     1 NCelD=      1
         NCelK=      1 NCelE2=     1 NClLst=     1 CellRange=     0.0.
 One-electron integrals computed using PRISM.
   1 Symmetry operations used in ECPInt.
 ECPInt:  NShTT=   11175 NPrTT=  105620 LenC2=   10421 LenP2D=   50888.
 LDataN:  DoStor=T MaxTD1= 7 Len=  274
 NBasis=   339 RedAO= T EigKep=  3.29D-04  NBF=   339
 NBsUse=   339 1.00D-06 EigRej= -1.00D+00 NBFU=   339
 Precomputing XC quadrature grid using
 IXCGrd= 4 IRadAn=           5 IRanWt=          -1 IRanGd=           0 AccXCQ= 0.00D+00.
 Defaulting to unpruned grid for atomic number  75.
 Generated NRdTot=       0 NPtTot=           0 NUsed=           0 NTot=          32
 NSgBfM=   363   363   363   363   363 MxSgAt=    28 MxSgA2=    28.
 Leave Link  302 at Mon Nov 17 10:47:39 2025, MaxMem=  2684354560 cpu:              12.0 elap:               0.4
 (Enter /home/programes/qq/gaussian/g16.A03/g16/l303.exe)
 DipDrv:  MaxL=1.
 Leave Link  303 at Mon Nov 17 10:47:39 2025, MaxMem=  2684354560 cpu:               1.2 elap:               0.1
 (Enter /home/programes/qq/gaussian/g16.A03/g16/l401.exe)
 Initial guess from the checkpoint file:  "re-bpy-co3-cl.chk"
 B after Tr=    -0.070340    0.041807   -0.001216
         Rot=    0.999999    0.000656    0.001225    0.000048 Ang=   0.16 deg.
 Guess basis will be translated and rotated to current coordinates.
 JPrj=2 DoOrth=T DoCkMO=T.
 Generating alternative initial guess.
 ExpMin= 2.80D-02 ExpMax= 1.28D+05 ExpMxC= 1.24D+03 IAcc=3 IRadAn=         5 AccDes= 0.00D+00
 Harris functional with IExCor=  402 and IRadAn=       5 diagonalized for initial guess.
 HarFok:  IExCor=  402 AccDes= 0.00D+00 IRadAn=         5 IDoV= 1 UseB2=F ITyADJ=14
 ICtDFT=  3500011 ScaDFX=  1.000000  1.000000  1.000000  1.000000
 Defaulting to unpruned grid for atomic number  75.
 FoFCou: FMM=F IPFlag=           0 FMFlag=      100000 FMFlg1=           0
         NFxFlg=           0 DoJE=T BraDBF=F KetDBF=T FulRan=T
         wScrn=  0.000000 ICntrl=       500 IOpCl=  0 I1Cent=   200000004 NGrid=           0
         NMat0=    1 NMatS0=      1 NMatT0=    0 NMatD0=    1 NMtDS0=    0 NMtDT0=    0
 Symmetry not used in FoFCou.
 Harris En= -1374.74252505130    
 Leave Link  401 at Mon Nov 17 10:47:40 2025, MaxMem=  2684354560 cpu:              30.6 elap:               1.0
 (Enter /home/programes/qq/gaussian/g16.A03/g16/l502.exe)
 Two-electron integral symmetry not used.
 Closed shell SCF:
 Using DIIS extrapolation, IDIIS=  1040.
 NGot=  2684354560 LenX=  2684076439 LenY=  2683944229
 Requested convergence on RMS density matrix=1.00D-08 within 128 cycles.
 Requested convergence on MAX density matrix=1.00D-06.
 Requested convergence on             energy=1.00D-06.
 No special actions if energy rises.
 Fock matrices will be formed incrementally for  20 cycles.

 Cycle   1  Pass 1  IDiag  1:
 FoFJK:  IHMeth= 1 ICntrl=       0 DoSepK=F KAlg= 0 I1Cent=           0 FoldK=F
 IRaf= 870000000 NMat=       1 IRICut=       1 DoRegI=T DoRafI=F ISym2E= 0 IDoP0=0 IntGTp=1.
 FoFCou: FMM=F IPFlag=           0 FMFlag=      100000 FMFlg1=           0
         NFxFlg=           0 DoJE=F BraDBF=F KetDBF=F FulRan=T
         wScrn=  0.000000 ICntrl=         0 IOpCl=  0 I1Cent=           0 NGrid=           0
         NMat0=    1 NMatS0=      1 NMatT0=    0 NMatD0=    1 NMtDS0=    0 NMtDT0=    0
 Symmetry not used in FoFCou.
 Defaulting to unpruned grid for atomic number  75.
 Defaulting to unpruned grid for atomic number  75.
 Defaulting to unpruned grid for atomic number  75.
 Defaulting to unpruned grid for atomic number  75.
 Defaulting to unpruned grid for atomic number  75.
 Defaulting to unpruned grid for atomic number  75.
 Defaulting to unpruned grid for atomic number  75.
 Defaulting to unpruned grid for atomic number  75.
 Defaulting to unpruned grid for atomic number  75.
 Defaulting to unpruned grid for atomic number  75.
 Defaulting to unpruned grid for atomic number  75.
 Defaulting to unpruned grid for atomic number  75.
 Defaulting to unpruned grid for atomic number  75.
 Defaulting to unpruned grid for atomic number  75.
 Defaulting to unpruned grid for atomic number  75.
 Defaulting to unpruned grid for atomic number  75.
 Defaulting to unpruned grid for atomic number  75.
 Defaulting to unpruned grid for atomic number  75.
 Defaulting to unpruned grid for atomic number  75.
 Defaulting to unpruned grid for atomic number  75.
 Defaulting to unpruned grid for atomic number  75.
 Defaulting to unpruned grid for atomic number  75.
 Defaulting to unpruned grid for atomic number  75.
 Defaulting to unpruned grid for atomic number  75.
 Defaulting to unpruned grid for atomic number  75.
 Defaulting to unpruned grid for atomic number  75.
 Defaulting to unpruned grid for atomic number  75.
 Defaulting to unpruned grid for atomic number  75.
 Defaulting to unpruned grid for atomic number  75.
 Defaulting to unpruned grid for atomic number  75.
 Defaulting to unpruned grid for atomic number  75.
 Defaulting to unpruned grid for atomic number  75.
 Inv3:  Mode=1 IEnd=    20593200.
 Iteration    1 A*A^-1 deviation from unit magnitude is 5.77D-15 for   1269.
 Iteration    1 A*A^-1 deviation from orthogonality  is 2.73D-15 for   2198   1244.
 Iteration    1 A^-1*A deviation from unit magnitude is 5.33D-15 for   2601.
 Iteration    1 A^-1*A deviation from orthogonality  is 2.28D-15 for   1316    133.
 E= -1375.02694863065    
 DIIS: error= 7.80D-03 at cycle   1 NSaved=   1.
 NSaved= 1 IEnMin= 1 EnMin= -1375.02694863065     IErMin= 1 ErrMin= 7.80D-03
 ErrMax= 7.80D-03  0.00D+00 EMaxC= 1.00D-01 BMatC= 1.83D-02 BMatP= 1.83D-02
 IDIUse=3 WtCom= 9.22D-01 WtEn= 7.80D-02
 Coeff-Com:  0.100D+01
 Coeff-En:   0.100D+01
 Coeff:      0.100D+01
 Gap=     0.570 Goal=   None    Shift=    0.000
 GapD=    0.570 DampG=2.000 DampE=1.000 DampFc=2.0000 IDamp=-1.
 RMSDP=8.82D-04 MaxDP=2.74D-02              OVMax= 4.50D-02

 Cycle   2  Pass 1  IDiag  1:
 RMSU=  8.80D-04    CP:  9.97D-01
 E= -1375.04707982752     Delta-E=       -0.020131196870 Rises=F Damp=F
 DIIS: error= 1.10D-03 at cycle   2 NSaved=   2.
 NSaved= 2 IEnMin= 2 EnMin= -1375.04707982752     IErMin= 2 ErrMin= 1.10D-03
 ErrMax= 1.10D-03  0.00D+00 EMaxC= 1.00D-01 BMatC= 1.19D-03 BMatP= 1.83D-02
 IDIUse=3 WtCom= 9.89D-01 WtEn= 1.10D-02
 Coeff-Com:  0.811D-01 0.919D+00
 Coeff-En:   0.000D+00 0.100D+01
 Coeff:      0.802D-01 0.920D+00
 Gap=     0.148 Goal=   None    Shift=    0.000
 RMSDP=2.19D-04 MaxDP=7.00D-03 DE=-2.01D-02 OVMax= 1.42D-02

 Cycle   3  Pass 1  IDiag  1:
 RMSU=  2.18D-04    CP:  9.97D-01  9.81D-01
 E= -1375.04673962884     Delta-E=        0.000340198677 Rises=F Damp=F
 DIIS: error= 1.57D-03 at cycle   3 NSaved=   3.
 NSaved= 3 IEnMin= 2 EnMin= -1375.04707982752     IErMin= 2 ErrMin= 1.10D-03
 ErrMax= 1.57D-03  0.00D+00 EMaxC= 1.00D-01 BMatC= 1.59D-03 BMatP= 1.19D-03
 IDIUse=3 WtCom= 2.01D-01 WtEn= 7.99D-01
 Coeff-Com: -0.773D-03 0.540D+00 0.461D+00
 Coeff-En:   0.000D+00 0.564D+00 0.436D+00
 Coeff:     -0.156D-03 0.559D+00 0.441D+00
 Gap=     0.147 Goal=   None    Shift=    0.000
 RMSDP=1.27D-04 MaxDP=6.31D-03 DE= 3.40D-04 OVMax= 8.56D-03

 Cycle   4  Pass 1  IDiag  1:
 RMSU=  5.56D-05    CP:  9.97D-01  1.02D+00  4.99D-01
 E= -1375.04812311002     Delta-E=       -0.001383481173 Rises=F Damp=F
 DIIS: error= 5.03D-04 at cycle   4 NSaved=   4.
 NSaved= 4 IEnMin= 4 EnMin= -1375.04812311002     IErMin= 4 ErrMin= 5.03D-04
 ErrMax= 5.03D-04  0.00D+00 EMaxC= 1.00D-01 BMatC= 1.20D-04 BMatP= 1.19D-03
 IDIUse=3 WtCom= 9.95D-01 WtEn= 5.03D-03
 Coeff-Com: -0.714D-02 0.224D+00 0.259D+00 0.524D+00
 Coeff-En:   0.000D+00 0.000D+00 0.000D+00 0.100D+01
 Coeff:     -0.711D-02 0.222D+00 0.258D+00 0.527D+00
 Gap=     0.147 Goal=   None    Shift=    0.000
 RMSDP=3.35D-05 MaxDP=1.67D-03 DE=-1.38D-03 OVMax= 2.40D-03

 Cycle   5  Pass 1  IDiag  1:
 RMSU=  2.72D-05    CP:  9.97D-01  1.02D+00  5.27D-01  6.69D-01
 E= -1375.04820319384     Delta-E=       -0.000080083822 Rises=F Damp=F
 DIIS: error= 3.59D-04 at cycle   5 NSaved=   5.
 NSaved= 5 IEnMin= 5 EnMin= -1375.04820319384     IErMin= 5 ErrMin= 3.59D-04
 ErrMax= 3.59D-04  0.00D+00 EMaxC= 1.00D-01 BMatC= 3.46D-05 BMatP= 1.20D-04
 IDIUse=3 WtCom= 9.96D-01 WtEn= 3.59D-03
 Coeff-Com: -0.571D-02 0.114D+00 0.147D+00 0.384D+00 0.361D+00
 Coeff-En:   0.000D+00 0.000D+00 0.000D+00 0.214D+00 0.786D+00
 Coeff:     -0.569D-02 0.114D+00 0.146D+00 0.383D+00 0.362D+00
 Gap=     0.147 Goal=   None    Shift=    0.000
 RMSDP=2.06D-05 MaxDP=1.86D-03 DE=-8.01D-05 OVMax= 2.03D-03

 Cycle   6  Pass 1  IDiag  1:
 RMSU=  1.59D-05    CP:  9.97D-01  1.02D+00  5.42D-01  7.26D-01  5.63D-01
 E= -1375.04822779304     Delta-E=       -0.000024599202 Rises=F Damp=F
 DIIS: error= 1.74D-04 at cycle   6 NSaved=   6.
 NSaved= 6 IEnMin= 6 EnMin= -1375.04822779304     IErMin= 6 ErrMin= 1.74D-04
 ErrMax= 1.74D-04  0.00D+00 EMaxC= 1.00D-01 BMatC= 7.91D-06 BMatP= 3.46D-05
 IDIUse=3 WtCom= 9.98D-01 WtEn= 1.74D-03
 Coeff-Com: -0.206D-02 0.307D-01 0.510D-01 0.185D+00 0.304D+00 0.431D+00
 Coeff-En:   0.000D+00 0.000D+00 0.000D+00 0.000D+00 0.239D+00 0.761D+00
 Coeff:     -0.206D-02 0.307D-01 0.509D-01 0.185D+00 0.304D+00 0.432D+00
 Gap=     0.147 Goal=   None    Shift=    0.000
 RMSDP=9.66D-06 MaxDP=9.23D-04 DE=-2.46D-05 OVMax= 1.00D-03

 Cycle   7  Pass 1  IDiag  1:
 RMSU=  5.01D-06    CP:  9.97D-01  1.02D+00  5.44D-01  7.35D-01  7.01D-01
                    CP:  5.43D-01
 E= -1375.04823497126     Delta-E=       -0.000007178221 Rises=F Damp=F
 DIIS: error= 4.15D-05 at cycle   7 NSaved=   7.
 NSaved= 7 IEnMin= 7 EnMin= -1375.04823497126     IErMin= 7 ErrMin= 4.15D-05
 ErrMax= 4.15D-05  0.00D+00 EMaxC= 1.00D-01 BMatC= 6.93D-07 BMatP= 7.91D-06
 IDIUse=1 WtCom= 1.00D+00 WtEn= 0.00D+00
 Coeff-Com: -0.501D-03 0.148D-03 0.782D-02 0.552D-01 0.121D+00 0.283D+00
 Coeff-Com:  0.533D+00
 Coeff:     -0.501D-03 0.148D-03 0.782D-02 0.552D-01 0.121D+00 0.283D+00
 Coeff:      0.533D+00
 Gap=     0.147 Goal=   None    Shift=    0.000
 RMSDP=2.82D-06 MaxDP=2.24D-04 DE=-7.18D-06 OVMax= 2.77D-04

 Cycle   8  Pass 1  IDiag  1:
 RMSU=  1.45D-06    CP:  9.97D-01  1.02D+00  5.44D-01  7.57D-01  6.99D-01
                    CP:  6.17D-01  6.69D-01
 E= -1375.04823566972     Delta-E=       -0.000000698458 Rises=F Damp=F
 DIIS: error= 8.17D-06 at cycle   8 NSaved=   8.
 NSaved= 8 IEnMin= 8 EnMin= -1375.04823566972     IErMin= 8 ErrMin= 8.17D-06
 ErrMax= 8.17D-06  0.00D+00 EMaxC= 1.00D-01 BMatC= 3.90D-08 BMatP= 6.93D-07
 IDIUse=1 WtCom= 1.00D+00 WtEn= 0.00D+00
 Coeff-Com:  0.669D-04-0.496D-02-0.362D-02 0.145D-04 0.122D-01 0.789D-01
 Coeff-Com:  0.253D+00 0.664D+00
 Coeff:      0.669D-04-0.496D-02-0.362D-02 0.145D-04 0.122D-01 0.789D-01
 Coeff:      0.253D+00 0.664D+00
 Gap=     0.147 Goal=   None    Shift=    0.000
 RMSDP=8.07D-07 MaxDP=3.31D-05 DE=-6.98D-07 OVMax= 9.51D-05

 Cycle   9  Pass 1  IDiag  1:
 RMSU=  5.32D-07    CP:  9.97D-01  1.02D+00  5.45D-01  7.58D-01  7.07D-01
                    CP:  6.31D-01  7.22D-01  7.98D-01
 E= -1375.04823571104     Delta-E=       -0.000000041320 Rises=F Damp=F
 DIIS: error= 2.66D-06 at cycle   9 NSaved=   9.
 NSaved= 9 IEnMin= 9 EnMin= -1375.04823571104     IErMin= 9 ErrMin= 2.66D-06
 ErrMax= 2.66D-06  0.00D+00 EMaxC= 1.00D-01 BMatC= 4.83D-09 BMatP= 3.90D-08
 IDIUse=1 WtCom= 1.00D+00 WtEn= 0.00D+00
 Coeff-Com:  0.718D-04-0.253D-02-0.233D-02-0.405D-02-0.354D-02 0.205D-01
 Coeff-Com:  0.881D-01 0.340D+00 0.564D+00
 Coeff:      0.718D-04-0.253D-02-0.233D-02-0.405D-02-0.354D-02 0.205D-01
 Coeff:      0.881D-01 0.340D+00 0.564D+00
 Gap=     0.147 Goal=   None    Shift=    0.000
 RMSDP=2.28D-07 MaxDP=9.70D-06 DE=-4.13D-08 OVMax= 2.45D-05

 Cycle  10  Pass 1  IDiag  1:
 RMSU=  1.62D-07    CP:  9.97D-01  1.02D+00  5.45D-01  7.59D-01  7.09D-01
                    CP:  6.33D-01  7.30D-01  8.62D-01  8.21D-01
 E= -1375.04823571508     Delta-E=       -0.000000004043 Rises=F Damp=F
 DIIS: error= 1.41D-06 at cycle  10 NSaved=  10.
 NSaved=10 IEnMin=10 EnMin= -1375.04823571508     IErMin=10 ErrMin= 1.41D-06
 ErrMax= 1.41D-06  0.00D+00 EMaxC= 1.00D-01 BMatC= 9.74D-10 BMatP= 4.83D-09
 IDIUse=1 WtCom= 1.00D+00 WtEn= 0.00D+00
 Coeff-Com:  0.312D-04-0.699D-03-0.763D-03-0.216D-02-0.399D-02 0.144D-02
 Coeff-Com:  0.135D-01 0.986D-01 0.335D+00 0.559D+00
 Coeff:      0.312D-04-0.699D-03-0.763D-03-0.216D-02-0.399D-02 0.144D-02
 Coeff:      0.135D-01 0.986D-01 0.335D+00 0.559D+00
 Gap=     0.147 Goal=   None    Shift=    0.000
 RMSDP=8.67D-08 MaxDP=4.22D-06 DE=-4.04D-09 OVMax= 7.51D-06

 Cycle  11  Pass 1  IDiag  1:
 RMSU=  6.21D-08    CP:  9.97D-01  1.02D+00  5.45D-01  7.59D-01  7.09D-01
                    CP:  6.35D-01  7.32D-01  8.80D-01  8.62D-01  7.91D-01
 E= -1375.04823571580     Delta-E=       -0.000000000720 Rises=F Damp=F
 DIIS: error= 4.61D-07 at cycle  11 NSaved=  11.
 NSaved=11 IEnMin=11 EnMin= -1375.04823571580     IErMin=11 ErrMin= 4.61D-07
 ErrMax= 4.61D-07  0.00D+00 EMaxC= 1.00D-01 BMatC= 1.25D-10 BMatP= 9.74D-10
 IDIUse=1 WtCom= 1.00D+00 WtEn= 0.00D+00
 Coeff-Com:  0.716D-05-0.205D-04-0.907D-04-0.636D-03-0.189D-02-0.224D-02
 Coeff-Com: -0.575D-02 0.639D-02 0.113D+00 0.327D+00 0.565D+00
 Coeff:      0.716D-05-0.205D-04-0.907D-04-0.636D-03-0.189D-02-0.224D-02
 Coeff:     -0.575D-02 0.639D-02 0.113D+00 0.327D+00 0.565D+00
 Gap=     0.147 Goal=   None    Shift=    0.000
 RMSDP=3.50D-08 MaxDP=1.27D-06 DE=-7.20D-10 OVMax= 2.57D-06

 Cycle  12  Pass 1  IDiag  1:
 RMSU=  2.18D-08    CP:  9.97D-01  1.02D+00  5.45D-01  7.59D-01  7.09D-01
                    CP:  6.35D-01  7.33D-01  8.80D-01  8.92D-01  8.09D-01
                    CP:  6.85D-01
 E= -1375.04823571593     Delta-E=       -0.000000000129 Rises=F Damp=F
 DIIS: error= 1.13D-07 at cycle  12 NSaved=  12.
 NSaved=12 IEnMin=12 EnMin= -1375.04823571593     IErMin=12 ErrMin= 1.13D-07
 ErrMax= 1.13D-07  0.00D+00 EMaxC= 1.00D-01 BMatC= 1.09D-11 BMatP= 1.25D-10
 IDIUse=1 WtCom= 1.00D+00 WtEn= 0.00D+00
 Coeff-Com:  0.774D-06 0.582D-04 0.223D-04-0.152D-03-0.651D-03-0.153D-02
 Coeff-Com: -0.481D-02-0.744D-02 0.251D-01 0.118D+00 0.308D+00 0.564D+00
 Coeff:      0.774D-06 0.582D-04 0.223D-04-0.152D-03-0.651D-03-0.153D-02
 Coeff:     -0.481D-02-0.744D-02 0.251D-01 0.118D+00 0.308D+00 0.564D+00
 Gap=     0.147 Goal=   None    Shift=    0.000
 RMSDP=1.07D-08 MaxDP=4.20D-07 DE=-1.29D-10 OVMax= 1.14D-06

 Cycle  13  Pass 1  IDiag  1:
 RMSU=  7.71D-09    CP:  9.97D-01  1.02D+00  5.45D-01  7.59D-01  7.09D-01
                    CP:  6.35D-01  7.33D-01  8.82D-01  8.94D-01  8.30D-01
                    CP:  7.06D-01  8.08D-01
 E= -1375.04823571599     Delta-E=       -0.000000000061 Rises=F Damp=F
 DIIS: error= 4.84D-08 at cycle  13 NSaved=  13.
 NSaved=13 IEnMin=13 EnMin= -1375.04823571599     IErMin=13 ErrMin= 4.84D-08
 ErrMax= 4.84D-08  0.00D+00 EMaxC= 1.00D-01 BMatC= 1.28D-12 BMatP= 1.09D-11
 IDIUse=1 WtCom= 1.00D+00 WtEn= 0.00D+00
 Coeff-Com: -0.486D-06 0.379D-04 0.273D-04 0.248D-05-0.994D-04-0.601D-03
 Coeff-Com: -0.196D-02-0.518D-02-0.417D-03 0.250D-01 0.105D+00 0.305D+00
 Coeff-Com:  0.574D+00
 Coeff:     -0.486D-06 0.379D-04 0.273D-04 0.248D-05-0.994D-04-0.601D-03
 Coeff:     -0.196D-02-0.518D-02-0.417D-03 0.250D-01 0.105D+00 0.305D+00
 Coeff:      0.574D+00
 Gap=     0.147 Goal=   None    Shift=    0.000
 RMSDP=3.55D-09 MaxDP=1.45D-07 DE=-6.09D-11 OVMax= 2.66D-07

 Error on total polarization charges =  0.01127
 SCF Done:  E(RB3LYP) =  -1375.04823572     A.U. after   13 cycles
            NFock= 13  Conv=0.36D-08     -V/T= 2.0460
 KE= 1.314622031254D+03 PE=-6.683652118045D+03 EE= 2.253177651044D+03
 Leave Link  502 at Mon Nov 17 10:48:15 2025, MaxMem=  2684354560 cpu:            1043.1 elap:              34.7
 (Enter /home/programes/qq/gaussian/g16.A03/g16/l701.exe)
 ... and contract with generalized density number  0.
 Compute integral first derivatives.
 R6Disp: Adding Grimme-D3(BJ) dispersion energy 1st derivatives to the gradient.
   1 Symmetry operations used in ECPInt.
 ECPInt:  NShTT=   11175 NPrTT=  105620 LenC2=   10421 LenP2D=   50888.
 LDataN:  DoStor=T MaxTD1= 8 Len=  415
 D1PCM: PCM CHGder 1st derivatives, ID1Alg=3 FixD1E=F DoIter=F DoCFld=F I1PDM=0.
 GePol: Maximum number of non-zero 1st derivatives   =     260
 Leave Link  701 at Mon Nov 17 10:48:17 2025, MaxMem=  2684354560 cpu:              45.6 elap:               1.5
 (Enter /home/programes/qq/gaussian/g16.A03/g16/l702.exe)
 L702 exits ... SP integral derivatives will be done elsewhere.
 Leave Link  702 at Mon Nov 17 10:48:17 2025, MaxMem=  2684354560 cpu:               0.2 elap:               0.0
 (Enter /home/programes/qq/gaussian/g16.A03/g16/l703.exe)
 Integral derivatives from FoFJK, PRISM(SPDF).
 Compute integral first derivatives, UseDBF=F ICtDFT=           0.
 Calling FoFJK, ICntrl=      2127 FMM=F ISym2X=0 I1Cent= 0 IOpClX= 0 NMat=1 NMatS=1 NMatT=0.
 FoFJK:  IHMeth= 1 ICntrl=    2127 DoSepK=F KAlg= 0 I1Cent=           0 FoldK=F
 IRaf=         0 NMat=       1 IRICut=       1 DoRegI=T DoRafI=F ISym2E= 0 IDoP0=0 IntGTp=1.
 FoFCou: FMM=F IPFlag=           0 FMFlag=      100000 FMFlg1=         800
         NFxFlg=           0 DoJE=F BraDBF=F KetDBF=F FulRan=T
         wScrn=  0.000000 ICntrl=      2127 IOpCl=  0 I1Cent=           0 NGrid=           0
         NMat0=    1 NMatS0=      1 NMatT0=    0 NMatD0=    1 NMtDS0=    0 NMtDT0=    0
 Symmetry not used in FoFCou.
 Defaulting to unpruned grid for atomic number  75.
 Defaulting to unpruned grid for atomic number  75.
 Defaulting to unpruned grid for atomic number  75.
 Defaulting to unpruned grid for atomic number  75.
 Defaulting to unpruned grid for atomic number  75.
 Defaulting to unpruned grid for atomic number  75.
 Defaulting to unpruned grid for atomic number  75.
 Defaulting to unpruned grid for atomic number  75.
 Defaulting to unpruned grid for atomic number  75.
 Defaulting to unpruned grid for atomic number  75.
 Defaulting to unpruned grid for atomic number  75.
 Defaulting to unpruned grid for atomic number  75.
 Defaulting to unpruned grid for atomic number  75.
 Defaulting to unpruned grid for atomic number  75.
 Defaulting to unpruned grid for atomic number  75.
 Defaulting to unpruned grid for atomic number  75.
 Defaulting to unpruned grid for atomic number  75.
 Defaulting to unpruned grid for atomic number  75.
 Defaulting to unpruned grid for atomic number  75.
 Defaulting to unpruned grid for atomic number  75.
 Defaulting to unpruned grid for atomic number  75.
 Defaulting to unpruned grid for atomic number  75.
 Defaulting to unpruned grid for atomic number  75.
 Defaulting to unpruned grid for atomic number  75.
 Defaulting to unpruned grid for atomic number  75.
 Defaulting to unpruned grid for atomic number  75.
 Defaulting to unpruned grid for atomic number  75.
 Defaulting to unpruned grid for atomic number  75.
 Defaulting to unpruned grid for atomic number  75.
 Defaulting to unpruned grid for atomic number  75.
 Defaulting to unpruned grid for atomic number  75.
 Defaulting to unpruned grid for atomic number  75.
 Leave Link  703 at Mon Nov 17 10:48:22 2025, MaxMem=  2684354560 cpu:             147.1 elap:               4.6
 (Enter /home/programes/qq/gaussian/g16.A03/g16/l716.exe)
 Dipole        = 4.65391073D+00-2.80326393D+00 2.48784724D+00
 -------------------------------------------------------------------
 Center     Atomic                   Forces (Hartrees/Bohr)
 Number     Number              X              Y              Z
 -------------------------------------------------------------------
      1        6          -0.017204434   -0.038836926   -0.000837880
      2        6           0.026687963    0.000943754   -0.001654545
      3        6           0.016053479   -0.032363718   -0.002712020
      4        6          -0.020630171    0.029375422    0.002737229
      5        6          -0.001936154    0.007010480   -0.000452905
      6        6           0.026420411    0.033506429   -0.000586326
      7        6           0.011507597   -0.023996619   -0.001787837
      8        6           0.036307115    0.000828268   -0.002442811
      9        6          -0.035738318    0.004549931    0.002543419
     10        6          -0.007263001   -0.001538288   -0.000374180
     11        1           0.002748229    0.001440106   -0.000221797
     12        1           0.002363178   -0.001944319   -0.000368702
     13        1          -0.000977021    0.002847870    0.000429860
     14        1          -0.000480560    0.002228123    0.000255583
     15        1           0.000201740   -0.003202811   -0.000270871
     16        1           0.002831385   -0.001193571   -0.000391210
     17        1          -0.002986748   -0.000412712    0.000404709
     18        1          -0.002235819   -0.000617110    0.000274006
     19        7          -0.030411009    0.012768926    0.003598959
     20        7          -0.025399346    0.020796107    0.003613072
     21       75           0.002880679   -0.001667152   -0.012301058
     22        6           0.000348702   -0.000211553   -0.024016875
     23        6           0.037537970    0.012225465   -0.000992246
     24        6           0.006586375   -0.038937183   -0.000692042
     25        8           0.000719341   -0.000472179    0.011849082
     26        8          -0.024241161   -0.007370052   -0.000161917
     27        8          -0.004761238    0.024811563   -0.000285336
     28       17           0.001070818   -0.000568250    0.024844637
 -------------------------------------------------------------------
 Cartesian Forces:  Max     0.038937183 RMS     0.014863844
 Leave Link  716 at Mon Nov 17 10:48:22 2025, MaxMem=  2684354560 cpu:               0.3 elap:               0.0
 (Enter /home/programes/qq/gaussian/g16.A03/g16/l103.exe)

 GradGradGradGradGradGradGradGradGradGradGradGradGradGradGradGradGradGrad
 Berny optimization.
 Using GEDIIS/GDIIS optimizer.
 FormGI is forming the generalized inverse of G from B-inverse, IUseBI=4.
 Internal  Forces:  Max     0.040824310 RMS     0.008169748
 Search for a local minimum.
 Step number   3 out of a maximum of  168
 All quantities printed in internal units (Hartrees-Bohrs-Radians)
 RMS Force = .81697D-02 SwitMx=.10000D-02 MixMth= 1
 Mixed Optimization -- RFO/linear search
 Update second derivatives using D2CorX and points    1    3    2
 DE=  6.21D-03 DEPred=-2.80D-02 R=-2.21D-01
 Trust test=-2.21D-01 RLast= 5.25D-01 DXMaxT set to 2.52D-01
 ITU= -1  1  0
 Use linear search instead of GDIIS.
     Eigenvalues ---    0.00613   0.00894   0.01034   0.01494   0.01683
     Eigenvalues ---    0.01783   0.01838   0.01869   0.01935   0.01950
     Eigenvalues ---    0.02025   0.02025   0.02159   0.02160   0.02248
     Eigenvalues ---    0.02250   0.02314   0.02315   0.04369   0.04640
     Eigenvalues ---    0.04649   0.04693   0.04693   0.04693   0.04734
     Eigenvalues ---    0.06975   0.08012   0.08196   0.10011   0.12264
     Eigenvalues ---    0.14021   0.15729   0.15916   0.15999   0.16000
     Eigenvalues ---    0.16000   0.16000   0.16000   0.16000   0.16005
     Eigenvalues ---    0.17415   0.17878   0.20688   0.22000   0.22001
     Eigenvalues ---    0.22631   0.23412   0.24506   0.24684   0.24850
     Eigenvalues ---    0.24866   0.24997   0.28876   0.31243   0.34513
     Eigenvalues ---    0.34516   0.34524   0.34534   0.34583   0.34589
     Eigenvalues ---    0.34735   0.34740   0.35917   0.37759   0.38675
     Eigenvalues ---    0.39159   0.39807   0.45109   0.46743   0.47308
     Eigenvalues ---    0.50037   0.50161   0.50170   0.51500   0.56831
     Eigenvalues ---    1.17508   1.19576   1.22208
 RFO step:  Lambda=-3.53775893D-03 EMin= 6.12958569D-03
 Quartic linear search produced a step of -0.62090.
 Iteration  1 RMS(Cart)=  0.04380273 RMS(Int)=  0.00056757
 Iteration  2 RMS(Cart)=  0.00082925 RMS(Int)=  0.00015614
 Iteration  3 RMS(Cart)=  0.00000055 RMS(Int)=  0.00015614
 ITry= 1 IFail=0 DXMaxC= 1.72D-01 DCOld= 1.00D+10 DXMaxT= 2.52D-01 DXLimC= 3.00D+00 Rises=F
 Variable       Old X    -DE/DX   Delta X   Delta X   Delta X     New X
                                 (Linear)    (Quad)   (Total)
    R1        2.58384   0.02666   0.05425   0.01013   0.06438   2.64822
    R2        2.85467  -0.00971  -0.09558   0.02880  -0.06638   2.78829
    R3        2.51143   0.03145   0.07123   0.01640   0.08775   2.59918
    R4        2.64574  -0.00126  -0.02683   0.00917  -0.01761   2.62813
    R5        2.05242   0.00014   0.00466  -0.00137   0.00330   2.05572
    R6        2.55721   0.04062   0.06968   0.01833   0.08806   2.64527
    R7        2.05468   0.00233   0.00389   0.00179   0.00568   2.06036
    R8        2.63789  -0.00048  -0.02000   0.00720  -0.01280   2.62509
    R9        2.05384   0.00211   0.00273   0.00191   0.00464   2.05848
   R10        2.05218   0.00212   0.00500   0.00098   0.00598   2.05816
   R11        2.53403   0.00474   0.01839   0.00225   0.02059   2.55461
   R12        2.58356   0.02680   0.05435   0.01019   0.06454   2.64810
   R13        2.51118   0.03159   0.07148   0.01652   0.08812   2.59930
   R14        2.64568  -0.00121  -0.02682   0.00921  -0.01755   2.62813
   R15        2.05187   0.00034   0.00487  -0.00124   0.00363   2.05550
   R16        2.55696   0.04082   0.06985   0.01849   0.08839   2.64535
   R17        2.05467   0.00234   0.00388   0.00182   0.00570   2.06038
   R18        2.63794  -0.00048  -0.02013   0.00726  -0.01288   2.62506
   R19        2.05388   0.00208   0.00270   0.00186   0.00456   2.05844
   R20        2.05216   0.00216   0.00494   0.00106   0.00600   2.05816
   R21        2.53395   0.00477   0.01866   0.00219   0.02079   2.55474
   R22        4.27412  -0.01391  -0.14629   0.05482  -0.09171   4.18241
   R23        4.27401  -0.01374  -0.14540   0.05515  -0.09050   4.18351
   R24        3.60359  -0.01220  -0.03773   0.00289  -0.03484   3.56875
   R25        3.67372  -0.01400  -0.02049  -0.01070  -0.03120   3.64252
   R26        3.67413  -0.01408  -0.02093  -0.01070  -0.03163   3.64250
   R27        5.52749  -0.02482  -0.08296  -0.04324  -0.12620   5.40129
   R28        2.18617   0.01170   0.01513  -0.00019   0.01494   2.20111
   R29        2.16522   0.02520   0.02066   0.00209   0.02275   2.18797
   R30        2.16521   0.02512   0.02066   0.00206   0.02271   2.18793
    A1        2.12057   0.00858   0.03267  -0.00018   0.03226   2.15283
    A2        2.13184  -0.00526  -0.02537   0.00346  -0.02218   2.10965
    A3        2.03072  -0.00332  -0.00729  -0.00328  -0.01007   2.02065
    A4        2.09005  -0.00312   0.01316  -0.00796   0.00528   2.09532
    A5        2.08869   0.00474  -0.00990   0.01402   0.00408   2.09278
    A6        2.10444  -0.00163  -0.00326  -0.00606  -0.00936   2.09509
    A7        2.06793   0.00215   0.00275   0.00247   0.00537   2.07330
    A8        2.10956  -0.00315  -0.00112  -0.00733  -0.00853   2.10104
    A9        2.10569   0.00100  -0.00163   0.00486   0.00316   2.10885
   A10        2.07135   0.00176  -0.00331   0.00349   0.00027   2.07162
   A11        2.11666   0.00136   0.00225   0.00450   0.00671   2.12337
   A12        2.09517  -0.00311   0.00106  -0.00800  -0.00698   2.08820
   A13        2.11718  -0.00027  -0.00606  -0.00092  -0.00697   2.11022
   A14        2.14173  -0.00126   0.01486  -0.00578   0.00905   2.15078
   A15        2.02426   0.00152  -0.00880   0.00670  -0.00208   2.02218
   A16        2.12035   0.00863   0.03273  -0.00019   0.03230   2.15266
   A17        2.03075  -0.00331  -0.00717  -0.00322  -0.00988   2.02086
   A18        2.13204  -0.00532  -0.02555   0.00341  -0.02241   2.10962
   A19        2.09010  -0.00314   0.01324  -0.00798   0.00535   2.09544
   A20        2.08795   0.00485  -0.00969   0.01417   0.00444   2.09239
   A21        2.10514  -0.00171  -0.00355  -0.00619  -0.00978   2.09535
   A22        2.06787   0.00215   0.00279   0.00243   0.00537   2.07323
   A23        2.10961  -0.00315  -0.00114  -0.00734  -0.00855   2.10106
   A24        2.10570   0.00100  -0.00165   0.00491   0.00319   2.10889
   A25        2.07124   0.00181  -0.00332   0.00360   0.00036   2.07160
   A26        2.11635   0.00137   0.00243   0.00449   0.00688   2.12323
   A27        2.09559  -0.00318   0.00089  -0.00809  -0.00724   2.08836
   A28        2.11720  -0.00023  -0.00617  -0.00085  -0.00701   2.11019
   A29        2.14195  -0.00134   0.01484  -0.00593   0.00889   2.15084
   A30        2.02403   0.00157  -0.00867   0.00678  -0.00188   2.02215
   A31        2.06317   0.00583  -0.00203   0.00447   0.00244   2.06561
   A32        2.04466   0.00043  -0.00939   0.00858  -0.00089   2.04377
   A33        2.17535  -0.00626   0.01132  -0.01304  -0.00159   2.17376
   A34        2.06346   0.00572  -0.00210   0.00432   0.00222   2.06568
   A35        2.04462   0.00044  -0.00951   0.00855  -0.00104   2.04359
   A36        2.17508  -0.00616   0.01150  -0.01285  -0.00123   2.17385
   A37        1.27396   0.00576   0.03333  -0.01066   0.02194   1.29590
   A38        1.67560  -0.00091   0.02208  -0.00554   0.01683   1.69243
   A39        1.70820  -0.00180  -0.01867   0.00872  -0.00954   1.69866
   A40        1.49179  -0.00144   0.00146  -0.00895  -0.00740   1.48439
   A41        1.66880  -0.00086   0.01996  -0.00434   0.01612   1.68492
   A42        1.70863  -0.00162  -0.01801   0.00910  -0.00850   1.70013
   A43        1.49689  -0.00152   0.00213  -0.00961  -0.00728   1.48961
   A44        1.58205   0.00096   0.00297   0.00577   0.00853   1.59059
   A45        1.58212   0.00091   0.00198   0.00606   0.00801   1.59013
   A46        1.58086  -0.00241  -0.00245  -0.00754  -0.00987   1.57099
   A47        1.53868   0.00105  -0.02293   0.00639  -0.01661   1.52207
   A48        1.53658   0.00107  -0.02358   0.00672  -0.01676   1.51982
   A49        2.98259   0.00414   0.01531  -0.00157   0.01344   2.99603
   A50        2.98216   0.00397   0.01466  -0.00194   0.01240   2.99456
   A51        3.16739  -0.00235   0.02354  -0.01449   0.00943   3.17682
   A52        3.16577  -0.00214  -0.00898  -0.02203  -0.03101   3.13476
   A53        3.10503  -0.00035   0.00049  -0.00002   0.00048   3.10551
   A54        3.10655  -0.00050   0.00063  -0.00143  -0.00080   3.10575
   A55        3.03653  -0.00037  -0.02303  -0.00117  -0.02418   3.01235
   A56        3.23834   0.00050   0.02169   0.00224   0.02390   3.26224
   A57        3.12409   0.00166  -0.01796   0.01049  -0.00714   3.11695
   A58        3.09354   0.00365   0.01943   0.03582   0.05525   3.14879
   A59        3.20801  -0.00555  -0.01061  -0.05908  -0.06969   3.13832
   A60        3.07177   0.00561   0.01063   0.05990   0.07053   3.14230
    D1       -3.12947  -0.00025  -0.00403  -0.00116  -0.00515  -3.13462
    D2        0.00916  -0.00016  -0.00266   0.00002  -0.00261   0.00654
    D3        0.00046   0.00005  -0.00344  -0.00084  -0.00426  -0.00380
    D4        3.13909   0.00015  -0.00206   0.00033  -0.00172   3.13737
    D5        0.00040  -0.00004   0.00055  -0.00002   0.00054   0.00094
    D6        3.13146   0.00027   0.00068   0.00033   0.00098   3.13244
    D7       -3.13017  -0.00030   0.00011  -0.00036  -0.00022  -3.13039
    D8        0.00089  -0.00000   0.00024  -0.00001   0.00023   0.00111
    D9       -0.00466   0.00004   0.00285   0.00153   0.00436  -0.00029
   D10       -3.13984  -0.00022   0.01138  -0.00196   0.00952  -3.13032
   D11        3.12584   0.00040   0.00367   0.00185   0.00547   3.13131
   D12       -0.00934   0.00014   0.01220  -0.00164   0.01063   0.00129
   D13        0.00181  -0.00006   0.00112   0.00043   0.00154   0.00335
   D14        3.14006   0.00003   0.00150   0.00124   0.00272  -3.14041
   D15       -3.13678  -0.00017  -0.00027  -0.00079  -0.00103  -3.13782
   D16        0.00146  -0.00007   0.00012   0.00002   0.00015   0.00161
   D17        0.00014  -0.00006   0.00164  -0.00076   0.00086   0.00100
   D18       -3.13930  -0.00005   0.00158  -0.00023   0.00136  -3.13795
   D19       -3.13812  -0.00014   0.00126  -0.00154  -0.00030  -3.13842
   D20        0.00563  -0.00013   0.00120  -0.00101   0.00019   0.00582
   D21       -3.14147   0.00003  -0.00250   0.00054  -0.00192   3.13980
   D22       -0.00454   0.00016  -0.00234   0.00155  -0.00078  -0.00532
   D23       -0.00200   0.00003  -0.00244   0.00003  -0.00239  -0.00439
   D24        3.13493   0.00016  -0.00228   0.00104  -0.00124   3.13368
   D25        0.00676  -0.00015   0.00007  -0.00192  -0.00183   0.00493
   D26        3.14142   0.00016  -0.00943   0.00194  -0.00741   3.13401
   D27       -3.13927  -0.00003   0.00022  -0.00098  -0.00076  -3.14002
   D28       -0.00461   0.00028  -0.00928   0.00289  -0.00633  -0.01094
   D29        3.13262   0.00026   0.00385   0.00049   0.00429   3.13690
   D30       -0.00582   0.00016   0.00268  -0.00041   0.00224  -0.00358
   D31        0.00217  -0.00008   0.00358   0.00016   0.00372   0.00589
   D32       -3.13626  -0.00018   0.00242  -0.00073   0.00168  -3.13459
   D33       -3.13029  -0.00042  -0.00355  -0.00093  -0.00442  -3.13471
   D34        0.00802  -0.00015  -0.01259   0.00165  -0.01100  -0.00298
   D35        0.00070  -0.00003  -0.00305  -0.00060  -0.00363  -0.00293
   D36        3.13900   0.00025  -0.01209   0.00198  -0.01021   3.12879
   D37       -0.00133   0.00006  -0.00118  -0.00042  -0.00158  -0.00291
   D38       -3.13937  -0.00005  -0.00119  -0.00109  -0.00225   3.14157
   D39        3.13707   0.00017  -0.00000   0.00052   0.00050   3.13757
   D40       -0.00096   0.00006  -0.00001  -0.00015  -0.00018  -0.00114
   D41       -0.00216   0.00006  -0.00168   0.00109  -0.00057  -0.00273
   D42        3.13857   0.00005  -0.00129   0.00062  -0.00067   3.13791
   D43        3.13588   0.00015  -0.00167   0.00173   0.00008   3.13596
   D44       -0.00657   0.00014  -0.00128   0.00127  -0.00001  -0.00658
   D45       -3.14014  -0.00002   0.00299  -0.00024   0.00271  -3.13743
   D46        0.00523  -0.00018   0.00229  -0.00161   0.00067   0.00589
   D47        0.00230  -0.00002   0.00260   0.00021   0.00280   0.00510
   D48       -3.13552  -0.00017   0.00190  -0.00116   0.00076  -3.13476
   D49       -0.00445   0.00015   0.00011   0.00134   0.00143  -0.00302
   D50        3.14070  -0.00016   0.01013  -0.00150   0.00854  -3.13394
   D51        3.14073   0.00001  -0.00055   0.00005  -0.00050   3.14023
   D52        0.00269  -0.00030   0.00947  -0.00279   0.00661   0.00930
   D53       -0.00943   0.00012   0.01408  -0.00181   0.01215   0.00272
   D54       -1.65099   0.00027  -0.00417   0.00198  -0.00191  -1.65290
   D55        3.03542  -0.00038  -0.00761  -0.00405  -0.01176   3.02366
   D56        1.50810  -0.00139   0.01379  -0.00851   0.00523   1.51333
   D57        3.12865   0.00045   0.00423   0.00099   0.00512   3.13377
   D58        1.48708   0.00059  -0.01402   0.00478  -0.00893   1.47815
   D59       -0.10969  -0.00006  -0.01746  -0.00125  -0.01878  -0.12847
   D60       -1.63701  -0.00107   0.00394  -0.00571  -0.00179  -1.63880
   D61        0.00993  -0.00013  -0.01396   0.00181  -0.01203  -0.00210
   D62        1.66066  -0.00039   0.00666  -0.00348   0.00274   1.66341
   D63       -3.02660   0.00025   0.00907   0.00298   0.01215  -3.01445
   D64       -1.50072   0.00125  -0.01304   0.00769  -0.00511  -1.50583
   D65       -3.12480  -0.00045  -0.00463  -0.00200  -0.00653  -3.13133
   D66       -1.47406  -0.00072   0.01599  -0.00729   0.00824  -1.46582
   D67        0.12186  -0.00008   0.01841  -0.00083   0.01765   0.13951
   D68        1.64774   0.00092  -0.00371   0.00388   0.00039   1.64813
         Item               Value     Threshold  Converged?
 Maximum Force            0.040824     0.000450     NO 
 RMS     Force            0.008170     0.000300     NO 
 Maximum Displacement     0.171787     0.001800     NO 
 RMS     Displacement     0.043976     0.001200     NO 
 Predicted change in Energy=-4.810032D-03
 GradGradGradGradGradGradGradGradGradGradGradGradGradGradGradGradGradGrad

 Leave Link  103 at Mon Nov 17 10:48:22 2025, MaxMem=  2684354560 cpu:               3.2 elap:               0.1
 (Enter /home/programes/qq/gaussian/g16.A03/g16/l202.exe)
                          Input orientation:                          
 ---------------------------------------------------------------------
 Center     Atomic      Atomic             Coordinates (Angstroms)
 Number     Number       Type             X           Y           Z
 ---------------------------------------------------------------------
      1          6           0       -2.285853    0.293347    0.028444
      2          6           0       -0.887804    0.349770   -0.049837
      3          6           0       -0.238265    1.579380   -0.031654
      4          6           0       -1.005599    2.745747    0.069709
      5          6           0       -2.387608    2.630095    0.149533
      6          6           0       -3.048174   -0.969961    0.023868
      7          6           0       -2.445897   -2.232587   -0.058102
      8          6           0       -3.230862   -3.380611   -0.051371
      9          6           0       -4.621126   -3.246114    0.041809
     10          6           0       -5.163514   -1.970124    0.127363
     11          1           0       -0.311191   -0.569657   -0.124458
     12          1           0        0.849127    1.629547   -0.093371
     13          1           0       -0.545793    3.733132    0.084676
     14          1           0       -3.019142    3.513678    0.231100
     15          1           0       -1.363294   -2.313275   -0.125959
     16          1           0       -2.767776   -4.365637   -0.114932
     17          1           0       -5.280188   -4.113372    0.047655
     18          1           0       -6.239984   -1.823919    0.205103
     19          7           0       -4.414655   -0.844604    0.118664
     20          7           0       -3.034146    1.443074    0.128331
     21         75           0       -5.231035    1.207252    0.266397
     22          6           0       -5.336781    1.276679    2.150658
     23          6           0       -7.096643    0.739153    0.140715
     24          6           0       -5.690295    3.074615    0.134476
     25          8           0       -5.391341    1.316491    3.313472
     26          8           0       -8.206455    0.417504    0.067124
     27          8           0       -5.925677    4.205418    0.054569
     28         17           0       -5.173028    1.169990   -2.591013
 ---------------------------------------------------------------------
                    Distance matrix (angstroms):
                    1          2          3          4          5
     1  C    0.000000
     2  C    1.401375   0.000000
     3  C    2.418700   1.390745   0.000000
     4  C    2.766771   2.401848   1.399817   0.000000
     5  C    2.342094   2.736611   2.399272   1.389136   0.000000
     6  C    1.475501   2.532651   3.794445   4.240366   3.662313
     7  C    2.532479   3.016006   4.405160   5.184073   4.867462
     8  C    3.794389   4.405187   5.792887   6.519105   6.072893
     9  C    4.240456   5.184253   6.519222   6.998230   6.287292
    10  C    3.662516   4.867752   6.073084   6.287371   5.372910
    11  H    2.160427   1.087840   2.152276   3.392906   3.824263
    12  H    3.410039   2.157928   1.090297   2.170831   3.396550
    13  H    3.855268   3.403263   2.178704   1.089299   2.147832
    14  H    3.308974   3.825159   3.397620   2.161046   1.089131
    15  H    2.769375   2.706233   4.053067   5.075425   5.055890
    16  H    4.686037   5.076771   6.461315   7.328789   7.011044
    17  H    5.327812   6.262761   7.604913   8.082086   7.338374
    18  H    4.488783   5.782365   6.903559   6.949746   5.889153
    19  N    2.415548   3.727412   4.831204   4.951231   4.022860
    20  N    1.375424   2.415335   2.803770   2.411514   1.351843
    21  Re   3.092886   4.438349   5.015483   4.501107   3.181700
    22  C    3.844332   5.049231   5.554185   5.024704   3.812329
    23  C    4.832706   6.223954   6.911804   6.413445   5.074519
    24  C    4.397377   5.524733   5.655790   4.696672   3.332502
    25  O    4.634899   5.703354   6.149242   5.639105   4.556147
    26  O    5.922030   7.319899   8.053059   7.567896   6.225859
    27  O    5.343529   6.344847   6.264995   5.132060   3.874092
    28  Cl   3.995728   5.049107   5.574030   5.189405   4.171458
                    6          7          8          9         10
     6  C    0.000000
     7  C    1.401314   0.000000
     8  C    2.418733   1.390746   0.000000
     9  C    2.766834   2.401841   1.399859   0.000000
    10  C    2.342157   2.736553   2.399284   1.389120   0.000000
    11  H    2.770076   2.706789   4.053552   5.076082   5.056655
    12  H    4.686165   5.076860   6.461406   7.328984   7.011291
    13  H    5.327728   6.262634   7.604831   8.082082   7.338412
    14  H    4.488519   5.782024   6.903321   6.949602   5.889072
    15  H    2.160038   1.087725   2.152343   3.392905   3.824081
    16  H    3.410060   2.157948   1.090305   2.170900   3.396579
    17  H    3.855319   3.403195   2.178642   1.089281   2.147900
    18  H    3.309039   3.825099   3.397629   2.161019   1.089131
    19  N    1.375489   2.415315   2.803856   2.411594   1.351910
    20  N    2.415336   3.727100   4.831038   4.951210   4.022950
    21  Re   3.092565   4.437881   5.014993   4.500544   3.181133
    22  C    3.848161   5.054777   5.565444   5.041335   3.829552
    23  C    4.396000   5.522698   5.652753   4.692581   3.328265
    24  C    4.832352   6.223311   6.910376   6.411187   5.072173
    25  O    4.641098   5.713065   6.168680   5.666955   4.583125
    26  O    5.341796   6.342136   6.260690   5.126141   3.868318
    27  O    5.921614   7.319117   8.051155   7.564875   6.222822
    28  Cl   3.991491   5.042857   5.561454   5.170911   4.153309
                   11         12         13         14         15
    11  H    0.000000
    12  H    2.486725   0.000000
    13  H    4.314252   2.530331   0.000000
    14  H    4.912539   4.314943   2.487379   0.000000
    15  H    2.036450   4.521251   6.105057   6.068172   0.000000
    16  H    4.521545   7.001763   8.400423   7.890914   2.486942
    17  H    6.105609   8.400566   9.164250   7.957252   4.314226
    18  H    6.068967   7.891198   7.957331   6.234134   4.912350
    19  N    4.119844   5.820119   5.993740   4.577632   3.395238
    20  N    3.395507   3.894064   3.382037   2.073207   4.119050
    21  Re   5.245478   6.105419   5.325841   3.195828   5.244757
    22  C    5.817358   6.589813   5.766802   3.749709   5.818879
    23  C    6.915609   7.998928   7.202824   4.932764   6.500748
    24  C    6.502501   6.701058   5.186716   2.708721   6.915210
    25  O    6.417542   7.116743   6.304333   4.467211   6.421064
    26  O    7.959044   9.137744   8.347421   6.043293   7.370433
    27  O    7.372641   7.249480   5.400658   2.992927   7.958724
    28  Cl   5.722563   6.535730   5.927927   4.253989   5.720464
                   16         17         18         19         20
    16  H    0.000000
    17  H    2.530274   0.000000
    18  H    4.314972   2.487487   0.000000
    19  N    3.894156   3.382163   2.073247   0.000000
    20  N    5.819902   5.993772   4.577830   2.671960   0.000000
    21  Re   6.104929   5.325345   3.195267   2.213237   2.213819
    22  C    6.600637   5.786058   3.770233   3.078823   3.069140
    23  C    6.698009   5.182197   2.703210   3.114776   4.123049
    24  C    7.997542   7.200200   4.929784   4.121624   3.117225
    25  O    7.136079   6.337297   4.499369   3.978825   3.964533
    26  O    7.245054   5.393723   2.984966   3.996664   5.273359
    27  O    9.135866   8.343798   6.039400   5.271624   3.999617
    28  Cl   6.523756   5.906603   4.233220   3.460646   3.470479
                   21         22         23         24         25
    21  Re   0.000000
    22  C    1.888502   0.000000
    23  C    1.927538   2.725053   0.000000
    24  C    1.927529   2.724433   2.726212   0.000000
    25  O    3.053244   1.164775   3.647980   3.645050   0.000000
    26  O    3.084888   3.648880   1.157824   3.660032   4.389968
    27  O    3.084866   3.649370   3.659723   1.157802   4.387694
    28  Cl   2.858242   4.745697   3.368717   3.365034   5.910336
                   26         27         28
    26  O    0.000000
    27  O    4.421583   0.000000
    28  Cl   4.102878   4.096267   0.000000
 Symmetry turned off by external request.
 Stoichiometry    C13H8ClN2O3Re
 Framework group  C1[X(C13H8ClN2O3Re)]
 Deg. of freedom    78
 Full point group                 C1      NOp   1
 Rotational constants (GHZ):           0.3265846           0.2664067           0.2020766
 Leave Link  202 at Mon Nov 17 10:48:22 2025, MaxMem=  2684354560 cpu:               0.1 elap:               0.0
 (Enter /home/programes/qq/gaussian/g16.A03/g16/l301.exe)
 Basis read from rwf:  (5D, 7F)
 Pseudo-potential data read from rwf file.
   339 basis functions,   774 primitive gaussians,   363 cartesian basis functions
    78 alpha electrons       78 beta electrons
       nuclear repulsion energy      1744.6830929793 Hartrees.
 IExCor=  402 DFT=T Ex+Corr=B3LYP ExCW=0 ScaHFX=  0.200000
 ScaDFX=  0.800000  0.720000  1.000000  0.810000 ScalE2=  1.000000  1.000000
 IRadAn=      5 IRanWt=     -1 IRanGd=            0 ICorTp=0 IEmpDi=141
 NAtoms=   28 NActive=   28 NUniq=   28 SFac= 1.00D+00 NAtFMM=   60 NAOKFM=F Big=F
 Integral buffers will be    131072 words long.
 Raffenetti 2 integral format.
 Two-electron integral symmetry is turned off.
 R6Disp:  Grimme-D3(BJ) Dispersion energy=       -0.0841060668 Hartrees.
 Nuclear repulsion after empirical dispersion term =     1744.5989869124 Hartrees.
 No density basis found on file   724.
 ------------------------------------------------------------------------------
 Polarizable Continuum Model (PCM)
 =================================
 Model                : PCM.
 Atomic radii         : UFF (Universal Force Field).
 Polarization charges : Total charges.
 Charge compensation  : None.
 Solution method      : On-the-fly selection.
 Cavity type          : Scaled VdW (van der Waals Surface) (Alpha=1.100).
 Cavity algorithm     : GePol (No added spheres)
                        Default sphere list used, NSphG=   28.
                        Lebedev-Laikov grids with approx.  5.0 points / Ang**2.
                        Smoothing algorithm: York/Karplus (Gamma=1.0000).
                        Polarization charges: spherical gaussians, with
                                              point-specific exponents (IZeta= 3).
                        Self-potential: point-specific (ISelfS= 7).
                        Self-field    : sphere-specific E.n sum rule (ISelfD= 2).
 1st derivatives      : Analytical E(r).r(x)/FMM algorithm (CHGder, D1EAlg=3).
                        Cavity 1st derivative terms included.
 Solvent              : n,n-DiMethylFormamide, Eps=  37.219000 Eps(inf)=   2.046330
 ------------------------------------------------------------------------------
 GePol: Number of generator spheres                  =      28
 GePol: Total number of spheres                      =      28
 GePol: Number of exposed spheres                    =      27 ( 96.43%)
 GePol: Number of points                             =    2603
 GePol: Average weight of points                     =       0.13
 GePol: Minimum weight of points                     =   0.77D-08
 GePol: Maximum weight of points                     =    0.21616
 GePol: Number of points with low weight             =     132
 GePol: Fraction of low-weight points (<1% of avg)   =       5.07%
 GePol: Cavity surface area                          =    345.112 Ang**2
 GePol: Cavity volume                                =    380.192 Ang**3
 Leave Link  301 at Mon Nov 17 10:48:22 2025, MaxMem=  2684354560 cpu:               1.2 elap:               0.0
 (Enter /home/programes/qq/gaussian/g16.A03/g16/l302.exe)
 NPDir=0 NMtPBC=     1 NCelOv=     1 NCel=       1 NClECP=     1 NCelD=      1
         NCelK=      1 NCelE2=     1 NClLst=     1 CellRange=     0.0.
 One-electron integrals computed using PRISM.
   1 Symmetry operations used in ECPInt.
 ECPInt:  NShTT=   11175 NPrTT=  105620 LenC2=   10444 LenP2D=   50925.
 LDataN:  DoStor=T MaxTD1= 7 Len=  274
 NBasis=   339 RedAO= T EigKep=  3.71D-04  NBF=   339
 NBsUse=   339 1.00D-06 EigRej= -1.00D+00 NBFU=   339
 Precomputing XC quadrature grid using
 IXCGrd= 4 IRadAn=           5 IRanWt=          -1 IRanGd=           0 AccXCQ= 0.00D+00.
 Defaulting to unpruned grid for atomic number  75.
 Generated NRdTot=       0 NPtTot=           0 NUsed=           0 NTot=          32
 NSgBfM=   363   363   363   363   363 MxSgAt=    28 MxSgA2=    28.
 Leave Link  302 at Mon Nov 17 10:48:22 2025, MaxMem=  2684354560 cpu:              12.2 elap:               0.4
 (Enter /home/programes/qq/gaussian/g16.A03/g16/l303.exe)
 DipDrv:  MaxL=1.
 Leave Link  303 at Mon Nov 17 10:48:23 2025, MaxMem=  2684354560 cpu:               1.2 elap:               0.1
 (Enter /home/programes/qq/gaussian/g16.A03/g16/l401.exe)
 Lowest energy guess from the checkpoint file:  "re-bpy-co3-cl.chk"
 B after Tr=    -0.040268    0.024110   -0.000484
         Rot=    1.000000    0.000289    0.000698    0.000024 Ang=   0.09 deg.
 Guess basis will be translated and rotated to current coordinates.
 B after Tr=     0.030084   -0.017696    0.001045
         Rot=    1.000000   -0.000356   -0.000504   -0.000024 Ang=  -0.07 deg.
 Guess basis will be translated and rotated to current coordinates.
 CkInt1:  FT= 3.79D-01
 Max alpha theta=  4.125 degrees.
 JPrj=2 DoOrth=T DoCkMO=T.
 Leave Link  401 at Mon Nov 17 10:48:23 2025, MaxMem=  2684354560 cpu:              10.9 elap:               0.4
 (Enter /home/programes/qq/gaussian/g16.A03/g16/l502.exe)
 Two-electron integral symmetry not used.
 Closed shell SCF:
 Using DIIS extrapolation, IDIIS=  1040.
 NGot=  2684354560 LenX=  2684076439 LenY=  2683944229
 Requested convergence on RMS density matrix=1.00D-08 within 128 cycles.
 Requested convergence on MAX density matrix=1.00D-06.
 Requested convergence on             energy=1.00D-06.
 No special actions if energy rises.
 Fock matrices will be formed incrementally for  20 cycles.

 Cycle   1  Pass 1  IDiag  1:
 FoFJK:  IHMeth= 1 ICntrl=       0 DoSepK=F KAlg= 0 I1Cent=           0 FoldK=F
 IRaf= 870000000 NMat=       1 IRICut=       1 DoRegI=T DoRafI=F ISym2E= 0 IDoP0=0 IntGTp=1.
 FoFCou: FMM=F IPFlag=           0 FMFlag=      100000 FMFlg1=           0
         NFxFlg=           0 DoJE=F BraDBF=F KetDBF=F FulRan=T
         wScrn=  0.000000 ICntrl=         0 IOpCl=  0 I1Cent=           0 NGrid=           0
         NMat0=    1 NMatS0=      1 NMatT0=    0 NMatD0=    1 NMtDS0=    0 NMtDT0=    0
 Symmetry not used in FoFCou.
 Defaulting to unpruned grid for atomic number  75.
 Defaulting to unpruned grid for atomic number  75.
 Defaulting to unpruned grid for atomic number  75.
 Defaulting to unpruned grid for atomic number  75.
 Defaulting to unpruned grid for atomic number  75.
 Defaulting to unpruned grid for atomic number  75.
 Defaulting to unpruned grid for atomic number  75.
 Defaulting to unpruned grid for atomic number  75.
 Defaulting to unpruned grid for atomic number  75.
 Defaulting to unpruned grid for atomic number  75.
 Defaulting to unpruned grid for atomic number  75.
 Defaulting to unpruned grid for atomic number  75.
 Defaulting to unpruned grid for atomic number  75.
 Defaulting to unpruned grid for atomic number  75.
 Defaulting to unpruned grid for atomic number  75.
 Defaulting to unpruned grid for atomic number  75.
 Defaulting to unpruned grid for atomic number  75.
 Defaulting to unpruned grid for atomic number  75.
 Defaulting to unpruned grid for atomic number  75.
 Defaulting to unpruned grid for atomic number  75.
 Defaulting to unpruned grid for atomic number  75.
 Defaulting to unpruned grid for atomic number  75.
 Defaulting to unpruned grid for atomic number  75.
 Defaulting to unpruned grid for atomic number  75.
 Defaulting to unpruned grid for atomic number  75.
 Defaulting to unpruned grid for atomic number  75.
 Defaulting to unpruned grid for atomic number  75.
 Defaulting to unpruned grid for atomic number  75.
 Defaulting to unpruned grid for atomic number  75.
 Defaulting to unpruned grid for atomic number  75.
 Defaulting to unpruned grid for atomic number  75.
 Defaulting to unpruned grid for atomic number  75.
 Inv3:  Mode=1 IEnd=    20326827.
 Iteration    1 A*A^-1 deviation from unit magnitude is 6.22D-15 for   2600.
 Iteration    1 A*A^-1 deviation from orthogonality  is 3.07D-15 for   1254     13.
 Iteration    1 A^-1*A deviation from unit magnitude is 6.44D-15 for   2600.
 Iteration    1 A^-1*A deviation from orthogonality  is 3.18D-15 for   1617    742.
 E= -1375.05587648094    
 DIIS: error= 4.04D-03 at cycle   1 NSaved=   1.
 NSaved= 1 IEnMin= 1 EnMin= -1375.05587648094     IErMin= 1 ErrMin= 4.04D-03
 ErrMax= 4.04D-03  0.00D+00 EMaxC= 1.00D-01 BMatC= 4.27D-03 BMatP= 4.27D-03
 IDIUse=3 WtCom= 9.60D-01 WtEn= 4.04D-02
 Coeff-Com:  0.100D+01
 Coeff-En:   0.100D+01
 Coeff:      0.100D+01
 Gap=   101.296 Goal=   None    Shift=    0.000
 GapD=  101.296 DampG=2.000 DampE=1.000 DampFc=2.0000 IDamp=-1.
 RMSDP=3.70D-04 MaxDP=1.67D-02              OVMax= 1.74D-02

 Cycle   2  Pass 1  IDiag  1:
 RMSU=  3.69D-04    CP:  9.99D-01
 E= -1375.06139600866     Delta-E=       -0.005519527716 Rises=F Damp=F
 DIIS: error= 6.06D-04 at cycle   2 NSaved=   2.
 NSaved= 2 IEnMin= 2 EnMin= -1375.06139600866     IErMin= 2 ErrMin= 6.06D-04
 ErrMax= 6.06D-04  0.00D+00 EMaxC= 1.00D-01 BMatC= 2.51D-04 BMatP= 4.27D-03
 IDIUse=3 WtCom= 9.94D-01 WtEn= 6.06D-03
 Coeff-Com:  0.221D-01 0.978D+00
 Coeff-En:   0.000D+00 0.100D+01
 Coeff:      0.220D-01 0.978D+00
 Gap=     0.132 Goal=   None    Shift=    0.000
 RMSDP=1.20D-04 MaxDP=5.05D-03 DE=-5.52D-03 OVMax= 1.02D-02

 Cycle   3  Pass 1  IDiag  1:
 RMSU=  1.17D-04    CP:  9.99D-01  9.30D-01
 E= -1375.06088952782     Delta-E=        0.000506480838 Rises=F Damp=F
 DIIS: error= 1.30D-03 at cycle   3 NSaved=   3.
 NSaved= 3 IEnMin= 2 EnMin= -1375.06139600866     IErMin= 2 ErrMin= 6.06D-04
 ErrMax= 1.30D-03  0.00D+00 EMaxC= 1.00D-01 BMatC= 8.41D-04 BMatP= 2.51D-04
 IDIUse=3 WtCom= 2.17D-01 WtEn= 7.83D-01
 Coeff-Com: -0.408D-01 0.680D+00 0.361D+00
 Coeff-En:   0.000D+00 0.723D+00 0.277D+00
 Coeff:     -0.887D-02 0.714D+00 0.295D+00
 Gap=     0.133 Goal=   None    Shift=    0.000
 RMSDP=7.01D-05 MaxDP=3.35D-03 DE= 5.06D-04 OVMax= 6.73D-03

 Cycle   4  Pass 1  IDiag  1:
 RMSU=  2.48D-05    CP:  9.99D-01  9.93D-01  4.79D-01
 E= -1375.06163237160     Delta-E=       -0.000742843779 Rises=F Damp=F
 DIIS: error= 2.64D-04 at cycle   4 NSaved=   4.
 NSaved= 4 IEnMin= 4 EnMin= -1375.06163237160     IErMin= 4 ErrMin= 2.64D-04
 ErrMax= 2.64D-04  0.00D+00 EMaxC= 1.00D-01 BMatC= 2.36D-05 BMatP= 2.51D-04
 IDIUse=3 WtCom= 9.97D-01 WtEn= 2.64D-03
 Coeff-Com: -0.258D-01 0.369D+00 0.154D+00 0.502D+00
 Coeff-En:   0.000D+00 0.000D+00 0.000D+00 0.100D+01
 Coeff:     -0.257D-01 0.368D+00 0.154D+00 0.503D+00
 Gap=     0.134 Goal=   None    Shift=    0.000
 RMSDP=2.27D-05 MaxDP=1.84D-03 DE=-7.43D-04 OVMax= 2.11D-03

 Cycle   5  Pass 1  IDiag  1:
 RMSU=  1.69D-05    CP:  9.99D-01  1.01D+00  4.29D-01  4.77D-01
 E= -1375.06163949785     Delta-E=       -0.000007126257 Rises=F Damp=F
 DIIS: error= 3.20D-04 at cycle   5 NSaved=   5.
 NSaved= 5 IEnMin= 5 EnMin= -1375.06163949785     IErMin= 4 ErrMin= 2.64D-04
 ErrMax= 3.20D-04  0.00D+00 EMaxC= 1.00D-01 BMatC= 1.74D-05 BMatP= 2.36D-05
 IDIUse=3 WtCom= 9.97D-01 WtEn= 3.20D-03
 Coeff-Com: -0.117D-01 0.146D+00 0.418D-01 0.448D+00 0.376D+00
 Coeff-En:   0.000D+00 0.000D+00 0.000D+00 0.427D+00 0.573D+00
 Coeff:     -0.117D-01 0.145D+00 0.417D-01 0.448D+00 0.377D+00
 Gap=     0.134 Goal=   None    Shift=    0.000
 RMSDP=1.21D-05 MaxDP=1.08D-03 DE=-7.13D-06 OVMax= 1.21D-03

 Cycle   6  Pass 1  IDiag  1:
 RMSU=  5.94D-06    CP:  9.99D-01  1.01D+00  4.21D-01  7.30D-01  5.16D-01
 E= -1375.06165492296     Delta-E=       -0.000015425108 Rises=F Damp=F
 DIIS: error= 4.37D-05 at cycle   6 NSaved=   6.
 NSaved= 6 IEnMin= 6 EnMin= -1375.06165492296     IErMin= 6 ErrMin= 4.37D-05
 ErrMax= 4.37D-05  0.00D+00 EMaxC= 1.00D-01 BMatC= 9.84D-07 BMatP= 1.74D-05
 IDIUse=1 WtCom= 1.00D+00 WtEn= 0.00D+00
 Coeff-Com: -0.205D-02 0.149D-01-0.660D-02 0.191D+00 0.240D+00 0.562D+00
 Coeff:     -0.205D-02 0.149D-01-0.660D-02 0.191D+00 0.240D+00 0.562D+00
 Gap=     0.134 Goal=   None    Shift=    0.000
 RMSDP=2.68D-06 MaxDP=1.17D-04 DE=-1.54D-05 OVMax= 1.96D-04

 Cycle   7  Pass 1  IDiag  1:
 RMSU=  1.70D-06    CP:  9.99D-01  1.01D+00  4.27D-01  7.58D-01  5.73D-01
                    CP:  7.42D-01
 E= -1375.06165580250     Delta-E=       -0.000000879539 Rises=F Damp=F
 DIIS: error= 1.13D-05 at cycle   7 NSaved=   7.
 NSaved= 7 IEnMin= 7 EnMin= -1375.06165580250     IErMin= 7 ErrMin= 1.13D-05
 ErrMax= 1.13D-05  0.00D+00 EMaxC= 1.00D-01 BMatC= 6.17D-08 BMatP= 9.84D-07
 IDIUse=1 WtCom= 1.00D+00 WtEn= 0.00D+00
 Coeff-Com:  0.387D-03-0.114D-01-0.877D-02 0.399D-01 0.745D-01 0.268D+00
 Coeff-Com:  0.637D+00
 Coeff:      0.387D-03-0.114D-01-0.877D-02 0.399D-01 0.745D-01 0.268D+00
 Coeff:      0.637D+00
 Gap=     0.134 Goal=   None    Shift=    0.000
 RMSDP=9.20D-07 MaxDP=3.79D-05 DE=-8.80D-07 OVMax= 9.47D-05

 Cycle   8  Pass 1  IDiag  1:
 RMSU=  6.99D-07    CP:  9.99D-01  1.01D+00  4.28D-01  7.64D-01  5.92D-01
                    CP:  7.71D-01  7.57D-01
 E= -1375.06165585711     Delta-E=       -0.000000054604 Rises=F Damp=F
 DIIS: error= 4.76D-06 at cycle   8 NSaved=   8.
 NSaved= 8 IEnMin= 8 EnMin= -1375.06165585711     IErMin= 8 ErrMin= 4.76D-06
 ErrMax= 4.76D-06  0.00D+00 EMaxC= 1.00D-01 BMatC= 1.17D-08 BMatP= 6.17D-08
 IDIUse=1 WtCom= 1.00D+00 WtEn= 0.00D+00
 Coeff-Com:  0.412D-03-0.825D-02-0.442D-02 0.274D-02 0.167D-01 0.895D-01
 Coeff-Com:  0.365D+00 0.538D+00
 Coeff:      0.412D-03-0.825D-02-0.442D-02 0.274D-02 0.167D-01 0.895D-01
 Coeff:      0.365D+00 0.538D+00
 Gap=     0.134 Goal=   None    Shift=    0.000
 RMSDP=3.88D-07 MaxDP=1.60D-05 DE=-5.46D-08 OVMax= 3.69D-05

 Cycle   9  Pass 1  IDiag  1:
 RMSU=  2.39D-07    CP:  9.99D-01  1.01D+00  4.29D-01  7.68D-01  5.94D-01
                    CP:  7.95D-01  8.19D-01  6.81D-01
 E= -1375.06165586797     Delta-E=       -0.000000010860 Rises=F Damp=F
 DIIS: error= 1.60D-06 at cycle   9 NSaved=   9.
 NSaved= 9 IEnMin= 9 EnMin= -1375.06165586797     IErMin= 9 ErrMin= 1.60D-06
 ErrMax= 1.60D-06  0.00D+00 EMaxC= 1.00D-01 BMatC= 1.29D-09 BMatP= 1.17D-08
 IDIUse=1 WtCom= 1.00D+00 WtEn= 0.00D+00
 Coeff-Com:  0.192D-03-0.343D-02-0.157D-02-0.249D-02 0.177D-02 0.222D-01
 Coeff-Com:  0.141D+00 0.304D+00 0.538D+00
 Coeff:      0.192D-03-0.343D-02-0.157D-02-0.249D-02 0.177D-02 0.222D-01
 Coeff:      0.141D+00 0.304D+00 0.538D+00
 Gap=     0.134 Goal=   None    Shift=    0.000
 RMSDP=1.23D-07 MaxDP=4.91D-06 DE=-1.09D-08 OVMax= 1.22D-05

 Cycle  10  Pass 1  IDiag  1:
 RMSU=  9.05D-08    CP:  9.99D-01  1.01D+00  4.29D-01  7.68D-01  5.97D-01
                    CP:  7.95D-01  8.40D-01  7.37D-01  8.30D-01
 E= -1375.06165586915     Delta-E=       -0.000000001180 Rises=F Damp=F
 DIIS: error= 5.42D-07 at cycle  10 NSaved=  10.
 NSaved=10 IEnMin=10 EnMin= -1375.06165586915     IErMin=10 ErrMin= 5.42D-07
 ErrMax= 5.42D-07  0.00D+00 EMaxC= 1.00D-01 BMatC= 1.83D-10 BMatP= 1.29D-09
 IDIUse=1 WtCom= 1.00D+00 WtEn= 0.00D+00
 Coeff-Com:  0.179D-04-0.815D-04 0.121D-03-0.219D-02-0.310D-02-0.807D-02
 Coeff-Com:  0.958D-03 0.587D-01 0.303D+00 0.650D+00
 Coeff:      0.179D-04-0.815D-04 0.121D-03-0.219D-02-0.310D-02-0.807D-02
 Coeff:      0.958D-03 0.587D-01 0.303D+00 0.650D+00
 Gap=     0.134 Goal=   None    Shift=    0.000
 RMSDP=5.44D-08 MaxDP=2.58D-06 DE=-1.18D-09 OVMax= 6.15D-06

 Cycle  11  Pass 1  IDiag  1:
 RMSU=  2.49D-08    CP:  9.99D-01  1.01D+00  4.29D-01  7.69D-01  5.96D-01
                    CP:  7.98D-01  8.46D-01  7.72D-01  9.06D-01  7.58D-01
 E= -1375.06165586932     Delta-E=       -0.000000000173 Rises=F Damp=F
 DIIS: error= 1.36D-07 at cycle  11 NSaved=  11.
 NSaved=11 IEnMin=11 EnMin= -1375.06165586932     IErMin=11 ErrMin= 1.36D-07
 ErrMax= 1.36D-07  0.00D+00 EMaxC= 1.00D-01 BMatC= 1.31D-11 BMatP= 1.83D-10
 IDIUse=1 WtCom= 1.00D+00 WtEn= 0.00D+00
 Coeff-Com: -0.475D-05 0.228D-03 0.188D-03-0.999D-03-0.180D-02-0.623D-02
 Coeff-Com: -0.106D-01 0.810D-02 0.119D+00 0.329D+00 0.563D+00
 Coeff:     -0.475D-05 0.228D-03 0.188D-03-0.999D-03-0.180D-02-0.623D-02
 Coeff:     -0.106D-01 0.810D-02 0.119D+00 0.329D+00 0.563D+00
 Gap=     0.134 Goal=   None    Shift=    0.000
 RMSDP=1.55D-08 MaxDP=7.37D-07 DE=-1.73D-10 OVMax= 1.20D-06

 Cycle  12  Pass 1  IDiag  1:
 RMSU=  9.51D-09    CP:  9.99D-01  1.01D+00  4.29D-01  7.69D-01  5.97D-01
                    CP:  7.98D-01  8.48D-01  7.71D-01  9.31D-01  8.00D-01
                    CP:  6.76D-01
 E= -1375.06165586930     Delta-E=        0.000000000015 Rises=F Damp=F
 DIIS: error= 5.39D-08 at cycle  12 NSaved=  12.
 NSaved=12 IEnMin=11 EnMin= -1375.06165586932     IErMin=12 ErrMin= 5.39D-08
 ErrMax= 5.39D-08  0.00D+00 EMaxC= 1.00D-01 BMatC= 1.90D-12 BMatP= 1.31D-11
 IDIUse=1 WtCom= 1.00D+00 WtEn= 0.00D+00
 Coeff-Com: -0.510D-05 0.141D-03 0.895D-04-0.261D-03-0.584D-03-0.238D-02
 Coeff-Com: -0.569D-02-0.225D-02 0.262D-01 0.937D-01 0.313D+00 0.578D+00
 Coeff:     -0.510D-05 0.141D-03 0.895D-04-0.261D-03-0.584D-03-0.238D-02
 Coeff:     -0.569D-02-0.225D-02 0.262D-01 0.937D-01 0.313D+00 0.578D+00
 Gap=     0.134 Goal=   None    Shift=    0.000
 RMSDP=5.10D-09 MaxDP=2.02D-07 DE= 1.55D-11 OVMax= 7.23D-07

 Error on total polarization charges =  0.01129
 SCF Done:  E(RB3LYP) =  -1375.06165587     A.U. after   12 cycles
            NFock= 12  Conv=0.51D-08     -V/T= 2.0465
 KE= 1.313991750064D+03 PE=-6.690872627285D+03 EE= 2.257220234440D+03
 Leave Link  502 at Mon Nov 17 10:48:54 2025, MaxMem=  2684354560 cpu:             923.0 elap:              30.6
 (Enter /home/programes/qq/gaussian/g16.A03/g16/l701.exe)
 ... and contract with generalized density number  0.
 Compute integral first derivatives.
 R6Disp: Adding Grimme-D3(BJ) dispersion energy 1st derivatives to the gradient.
   1 Symmetry operations used in ECPInt.
 ECPInt:  NShTT=   11175 NPrTT=  105620 LenC2=   10444 LenP2D=   50925.
 LDataN:  DoStor=T MaxTD1= 8 Len=  415
 D1PCM: PCM CHGder 1st derivatives, ID1Alg=3 FixD1E=F DoIter=F DoCFld=F I1PDM=0.
 GePol: Maximum number of non-zero 1st derivatives   =     264
 Leave Link  701 at Mon Nov 17 10:48:55 2025, MaxMem=  2684354560 cpu:              44.6 elap:               1.4
 (Enter /home/programes/qq/gaussian/g16.A03/g16/l702.exe)
 L702 exits ... SP integral derivatives will be done elsewhere.
 Leave Link  702 at Mon Nov 17 10:48:56 2025, MaxMem=  2684354560 cpu:               0.2 elap:               0.0
 (Enter /home/programes/qq/gaussian/g16.A03/g16/l703.exe)
 Integral derivatives from FoFJK, PRISM(SPDF).
 Compute integral first derivatives, UseDBF=F ICtDFT=           0.
 Calling FoFJK, ICntrl=      2127 FMM=F ISym2X=0 I1Cent= 0 IOpClX= 0 NMat=1 NMatS=1 NMatT=0.
 FoFJK:  IHMeth= 1 ICntrl=    2127 DoSepK=F KAlg= 0 I1Cent=           0 FoldK=F
 IRaf=         0 NMat=       1 IRICut=       1 DoRegI=T DoRafI=F ISym2E= 0 IDoP0=0 IntGTp=1.
 FoFCou: FMM=F IPFlag=           0 FMFlag=      100000 FMFlg1=         800
         NFxFlg=           0 DoJE=F BraDBF=F KetDBF=F FulRan=T
         wScrn=  0.000000 ICntrl=      2127 IOpCl=  0 I1Cent=           0 NGrid=           0
         NMat0=    1 NMatS0=      1 NMatT0=    0 NMatD0=    1 NMtDS0=    0 NMtDT0=    0
 Symmetry not used in FoFCou.
 Defaulting to unpruned grid for atomic number  75.
 Defaulting to unpruned grid for atomic number  75.
 Defaulting to unpruned grid for atomic number  75.
 Defaulting to unpruned grid for atomic number  75.
 Defaulting to unpruned grid for atomic number  75.
 Defaulting to unpruned grid for atomic number  75.
 Defaulting to unpruned grid for atomic number  75.
 Defaulting to unpruned grid for atomic number  75.
 Defaulting to unpruned grid for atomic number  75.
 Defaulting to unpruned grid for atomic number  75.
 Defaulting to unpruned grid for atomic number  75.
 Defaulting to unpruned grid for atomic number  75.
 Defaulting to unpruned grid for atomic number  75.
 Defaulting to unpruned grid for atomic number  75.
 Defaulting to unpruned grid for atomic number  75.
 Defaulting to unpruned grid for atomic number  75.
 Defaulting to unpruned grid for atomic number  75.
 Defaulting to unpruned grid for atomic number  75.
 Defaulting to unpruned grid for atomic number  75.
 Defaulting to unpruned grid for atomic number  75.
 Defaulting to unpruned grid for atomic number  75.
 Defaulting to unpruned grid for atomic number  75.
 Defaulting to unpruned grid for atomic number  75.
 Defaulting to unpruned grid for atomic number  75.
 Defaulting to unpruned grid for atomic number  75.
 Defaulting to unpruned grid for atomic number  75.
 Defaulting to unpruned grid for atomic number  75.
 Defaulting to unpruned grid for atomic number  75.
 Defaulting to unpruned grid for atomic number  75.
 Defaulting to unpruned grid for atomic number  75.
 Defaulting to unpruned grid for atomic number  75.
 Defaulting to unpruned grid for atomic number  75.
 Leave Link  703 at Mon Nov 17 10:49:00 2025, MaxMem=  2684354560 cpu:             148.2 elap:               4.7
 (Enter /home/programes/qq/gaussian/g16.A03/g16/l716.exe)
 Dipole        = 4.75037560D+00-2.86271917D+00 2.16488691D+00
 -------------------------------------------------------------------
 Center     Atomic                   Forces (Hartrees/Bohr)
 Number     Number              X              Y              Z
 -------------------------------------------------------------------
      1        6          -0.005165504    0.009797532    0.001020961
      2        6          -0.003750077   -0.002638055   -0.000324208
      3        6          -0.002799711    0.004702758    0.000464967
      4        6           0.002928546   -0.004060072   -0.000804543
      5        6          -0.005569823   -0.002513668   -0.000615399
      6        6          -0.011117335   -0.000024902    0.000936902
      7        6           0.000575613    0.004561059   -0.000362360
      8        6          -0.005517141    0.000266465    0.000472951
      9        6           0.004986380   -0.000678332   -0.000777273
     10        6          -0.000349458    0.006114621   -0.000413170
     11        1           0.000402412    0.000149006   -0.000158174
     12        1          -0.000048781   -0.000170356   -0.000023252
     13        1          -0.000016921    0.000028560    0.000255019
     14        1           0.000076654   -0.000068011    0.000179837
     15        1          -0.000003522   -0.000381975   -0.000180273
     16        1           0.000121856    0.000122086   -0.000060912
     17        1          -0.000023716   -0.000011560    0.000234710
     18        1           0.000122851   -0.000048631    0.000158038
     19        7           0.008929000   -0.001224930    0.002935851
     20        7           0.005123436   -0.007284201    0.002724970
     21       75           0.001779006   -0.001132110   -0.033206421
     22        6           0.003824515   -0.002214330   -0.001230490
     23        6           0.005520242    0.001608646    0.005744794
     24        6           0.001237961   -0.005558401    0.005910060
     25        8          -0.001164650    0.000586991   -0.001292780
     26        8          -0.001049938   -0.000149211   -0.001963421
     27        8          -0.000358451    0.000966575   -0.001970244
     28       17           0.001306554   -0.000745556    0.022343860
 -------------------------------------------------------------------
 Cartesian Forces:  Max     0.033206421 RMS     0.005380910
 Leave Link  716 at Mon Nov 17 10:49:00 2025, MaxMem=  2684354560 cpu:               0.3 elap:               0.0
 (Enter /home/programes/qq/gaussian/g16.A03/g16/l103.exe)

 GradGradGradGradGradGradGradGradGradGradGradGradGradGradGradGradGradGrad
 Berny optimization.
 Using GEDIIS/GDIIS optimizer.
 FormGI is forming the generalized inverse of G from B-inverse, IUseBI=4.
 Internal  Forces:  Max     0.022301571 RMS     0.002851608
 Search for a local minimum.
 Step number   4 out of a maximum of  168
 All quantities printed in internal units (Hartrees-Bohrs-Radians)
 RMS Force = .28516D-02 SwitMx=.10000D-02 MixMth= 1
 Mixed Optimization -- RFO/linear search
 Update second derivatives using D2CorX and points    1    3    2    4
 DE= -7.21D-03 DEPred=-4.81D-03 R= 1.50D+00
 TightC=F SS=  1.41D+00  RLast= 2.75D-01 DXNew= 4.2426D-01 8.2487D-01
 Trust test= 1.50D+00 RLast= 2.75D-01 DXMaxT set to 4.24D-01
 ITU=  1 -1  1  0
 Use linear search instead of GDIIS.
     Eigenvalues ---    0.00611   0.00897   0.01036   0.01499   0.01689
     Eigenvalues ---    0.01784   0.01836   0.01873   0.01932   0.01948
     Eigenvalues ---    0.02021   0.02021   0.02155   0.02157   0.02248
     Eigenvalues ---    0.02251   0.02313   0.02314   0.04456   0.04533
     Eigenvalues ---    0.04642   0.04650   0.04693   0.04693   0.04761
     Eigenvalues ---    0.05978   0.07054   0.08050   0.09903   0.12203
     Eigenvalues ---    0.14144   0.15733   0.15812   0.15999   0.16000
     Eigenvalues ---    0.16000   0.16000   0.16000   0.16000   0.16003
     Eigenvalues ---    0.17279   0.17658   0.21143   0.22000   0.22004
     Eigenvalues ---    0.22613   0.23624   0.24260   0.24495   0.24809
     Eigenvalues ---    0.24850   0.24997   0.29189   0.34350   0.34513
     Eigenvalues ---    0.34520   0.34527   0.34548   0.34584   0.34627
     Eigenvalues ---    0.34735   0.34764   0.35928   0.38273   0.38704
     Eigenvalues ---    0.39141   0.41484   0.46393   0.47440   0.48759
     Eigenvalues ---    0.50172   0.50213   0.51499   0.52089   0.76030
     Eigenvalues ---    1.17606   1.19576   1.23427
 RFO step:  Lambda=-3.87868805D-03 EMin= 6.10877108D-03
 Quartic linear search produced a step of -0.10787.
 Iteration  1 RMS(Cart)=  0.01952596 RMS(Int)=  0.00030526
 Iteration  2 RMS(Cart)=  0.00047091 RMS(Int)=  0.00007892
 Iteration  3 RMS(Cart)=  0.00000023 RMS(Int)=  0.00007892
 ITry= 1 IFail=0 DXMaxC= 1.15D-01 DCOld= 1.00D+10 DXMaxT= 4.24D-01 DXLimC= 3.00D+00 Rises=F
 Variable       Old X    -DE/DX   Delta X   Delta X   Delta X     New X
                                 (Linear)    (Quad)   (Total)
    R1        2.64822  -0.00341   0.00248  -0.00708  -0.00460   2.64361
    R2        2.78829  -0.00111  -0.00944   0.02698   0.01753   2.80582
    R3        2.59918  -0.01201   0.00291  -0.01710  -0.01419   2.58499
    R4        2.62813   0.00074  -0.00276   0.01045   0.00767   2.63580
    R5        2.05572   0.00010   0.00045  -0.00100  -0.00055   2.05517
    R6        2.64527  -0.00464   0.00261  -0.00609  -0.00349   2.64178
    R7        2.06036  -0.00006   0.00006   0.00087   0.00093   2.06129
    R8        2.62509   0.00007  -0.00209   0.00768   0.00559   2.63067
    R9        2.05848   0.00002  -0.00003   0.00127   0.00125   2.05972
   R10        2.05816  -0.00009   0.00022  -0.00001   0.00021   2.05837
   R11        2.55461  -0.00517   0.00097  -0.00540  -0.00441   2.55020
   R12        2.64810  -0.00348   0.00248  -0.00726  -0.00478   2.64332
   R13        2.59930  -0.01207   0.00291  -0.01721  -0.01429   2.58501
   R14        2.62813   0.00073  -0.00277   0.01047   0.00769   2.63582
   R15        2.05550   0.00004   0.00045  -0.00115  -0.00070   2.05481
   R16        2.64535  -0.00470   0.00260  -0.00616  -0.00357   2.64178
   R17        2.06038  -0.00005   0.00006   0.00090   0.00096   2.06134
   R18        2.62506   0.00007  -0.00211   0.00775   0.00564   2.63070
   R19        2.05844   0.00002  -0.00002   0.00124   0.00122   2.05966
   R20        2.05816  -0.00012   0.00021  -0.00004   0.00017   2.05833
   R21        2.55474  -0.00517   0.00100  -0.00548  -0.00447   2.55027
   R22        4.18241  -0.00841  -0.01552   0.06235   0.04684   4.22925
   R23        4.18351  -0.00849  -0.01550   0.06215   0.04666   4.23018
   R24        3.56875  -0.00272  -0.00280   0.00457   0.00178   3.57053
   R25        3.64252  -0.00493  -0.00020  -0.01680  -0.01699   3.62553
   R26        3.64250  -0.00493  -0.00022  -0.01676  -0.01699   3.62551
   R27        5.40129  -0.02230  -0.00080  -0.13737  -0.13817   5.26313
   R28        2.20111  -0.00122   0.00102  -0.00105  -0.00003   2.20107
   R29        2.18797   0.00117   0.00114   0.00170   0.00283   2.19080
   R30        2.18793   0.00115   0.00114   0.00165   0.00279   2.19072
    A1        2.15283  -0.00122   0.00220  -0.00880  -0.00659   2.14625
    A2        2.10965   0.00057  -0.00201   0.00889   0.00693   2.11658
    A3        2.02065   0.00064  -0.00018  -0.00005  -0.00031   2.02035
    A4        2.09532  -0.00121   0.00172  -0.01079  -0.00908   2.08624
    A5        2.09278   0.00104  -0.00216   0.01531   0.01315   2.10592
    A6        2.09509   0.00017   0.00044  -0.00452  -0.00407   2.09102
    A7        2.07330  -0.00029  -0.00010   0.00249   0.00237   2.07567
    A8        2.10104  -0.00003   0.00072  -0.00662  -0.00589   2.09515
    A9        2.10885   0.00032  -0.00062   0.00413   0.00351   2.11237
   A10        2.07162  -0.00096  -0.00060   0.00200   0.00139   2.07301
   A11        2.12337   0.00053  -0.00033   0.00360   0.00326   2.12663
   A12        2.08820   0.00043   0.00094  -0.00559  -0.00465   2.08354
   A13        2.11022   0.00077  -0.00030   0.00109   0.00077   2.11099
   A14        2.15078  -0.00157   0.00161  -0.00971  -0.00808   2.14271
   A15        2.02218   0.00080  -0.00130   0.00863   0.00731   2.02949
   A16        2.15266  -0.00124   0.00220  -0.00892  -0.00670   2.14595
   A17        2.02086   0.00066  -0.00018   0.00009  -0.00017   2.02069
   A18        2.10962   0.00058  -0.00202   0.00888   0.00691   2.11653
   A19        2.09544  -0.00118   0.00172  -0.01066  -0.00894   2.08651
   A20        2.09239   0.00099  -0.00216   0.01501   0.01285   2.10523
   A21        2.09535   0.00020   0.00044  -0.00435  -0.00391   2.09144
   A22        2.07323  -0.00031  -0.00009   0.00235   0.00223   2.07546
   A23        2.10106  -0.00002   0.00072  -0.00657  -0.00583   2.09522
   A24        2.10889   0.00033  -0.00063   0.00423   0.00361   2.11250
   A25        2.07160  -0.00096  -0.00062   0.00206   0.00144   2.07304
   A26        2.12323   0.00051  -0.00032   0.00342   0.00311   2.12633
   A27        2.08836   0.00045   0.00094  -0.00548  -0.00454   2.08381
   A28        2.11019   0.00075  -0.00032   0.00105   0.00072   2.11091
   A29        2.15084  -0.00156   0.00162  -0.00975  -0.00810   2.14274
   A30        2.02215   0.00081  -0.00130   0.00870   0.00738   2.02953
   A31        2.06561   0.00344  -0.00062   0.00717   0.00648   2.07209
   A32        2.04377  -0.00091  -0.00154   0.00943   0.00770   2.05147
   A33        2.17376  -0.00253   0.00214  -0.01632  -0.01430   2.15946
   A34        2.06568   0.00346  -0.00060   0.00715   0.00648   2.07217
   A35        2.04359  -0.00089  -0.00154   0.00952   0.00779   2.05137
   A36        2.17385  -0.00256   0.00213  -0.01635  -0.01434   2.15952
   A37        1.29590   0.00050   0.00342  -0.01888  -0.01549   1.28041
   A38        1.69243  -0.00198   0.00202  -0.02848  -0.02662   1.66581
   A39        1.69866   0.00040  -0.00221   0.01450   0.01216   1.71083
   A40        1.48439  -0.00060   0.00105  -0.00850  -0.00745   1.47694
   A41        1.68492  -0.00188   0.00173  -0.02536  -0.02388   1.66103
   A42        1.70013   0.00027  -0.00221   0.01372   0.01138   1.71152
   A43        1.48961  -0.00067   0.00116  -0.01031  -0.00920   1.48041
   A44        1.59059  -0.00054  -0.00041  -0.00008  -0.00037   1.59022
   A45        1.59013  -0.00055  -0.00052  -0.00001  -0.00050   1.58963
   A46        1.57099  -0.00054   0.00064  -0.00255  -0.00220   1.56880
   A47        1.52207   0.00278  -0.00219   0.03177   0.02963   1.55170
   A48        1.51982   0.00284  -0.00229   0.03325   0.03093   1.55075
   A49        2.99603   0.00077   0.00121  -0.00517  -0.00411   2.99192
   A50        2.99456   0.00090   0.00121  -0.00438  -0.00333   2.99123
   A51        3.17682  -0.00258   0.00307  -0.03698  -0.03407   3.14275
   A52        3.13476   0.00171   0.00178   0.01838   0.02017   3.15493
   A53        3.10551   0.00016   0.00003   0.00806   0.00810   3.11361
   A54        3.10575   0.00020   0.00020   0.00795   0.00814   3.11389
   A55        3.01235   0.00229  -0.00139   0.02623   0.02488   3.03722
   A56        3.26224  -0.00213   0.00119  -0.02260  -0.02146   3.24078
   A57        3.11695   0.00194  -0.00235   0.02764   0.02514   3.14209
   A58        3.14879  -0.00231  -0.00258  -0.02461  -0.02720   3.12159
   A59        3.13832   0.00400   0.00567   0.02925   0.03492   3.17324
   A60        3.14230  -0.00400  -0.00576  -0.02845  -0.03421   3.10810
    D1       -3.13462   0.00030  -0.00014  -0.00049  -0.00076  -3.13539
    D2        0.00654   0.00020  -0.00018  -0.00094  -0.00120   0.00534
    D3       -0.00380   0.00021  -0.00014   0.00526   0.00507   0.00127
    D4        3.13737   0.00011  -0.00017   0.00481   0.00463  -3.14118
    D5        0.00094  -0.00004   0.00004  -0.00157  -0.00153  -0.00059
    D6        3.13244  -0.00010   0.00001   0.00443   0.00449   3.13694
    D7       -3.13039   0.00004   0.00004  -0.00710  -0.00711  -3.13750
    D8        0.00111  -0.00001   0.00002  -0.00110  -0.00109   0.00003
    D9       -0.00029  -0.00024   0.00003  -0.00092  -0.00082  -0.00111
   D10       -3.13032  -0.00072   0.00095  -0.02954  -0.02879   3.12408
   D11        3.13131  -0.00033   0.00005   0.00436   0.00457   3.13588
   D12        0.00129  -0.00082   0.00097  -0.02427  -0.02340  -0.02211
   D13        0.00335  -0.00004   0.00003  -0.00401  -0.00398  -0.00063
   D14       -3.14041  -0.00009  -0.00003  -0.00186  -0.00187   3.14090
   D15       -3.13782   0.00006   0.00007  -0.00357  -0.00355  -3.14137
   D16        0.00161   0.00001   0.00000  -0.00141  -0.00144   0.00016
   D17        0.00100  -0.00010   0.00019  -0.00134  -0.00112  -0.00012
   D18       -3.13795  -0.00012   0.00013  -0.00164  -0.00151  -3.13945
   D19       -3.13842  -0.00005   0.00025  -0.00349  -0.00323   3.14154
   D20        0.00582  -0.00007   0.00019  -0.00378  -0.00362   0.00220
   D21        3.13980   0.00013  -0.00023   0.00457   0.00428  -3.13911
   D22       -0.00532   0.00008  -0.00032   0.00594   0.00559   0.00027
   D23       -0.00439   0.00015  -0.00017   0.00487   0.00467   0.00028
   D24        3.13368   0.00010  -0.00026   0.00624   0.00598   3.13967
   D25        0.00493   0.00010   0.00021  -0.00475  -0.00459   0.00034
   D26        3.13401   0.00064  -0.00084   0.02639   0.02540  -3.12377
   D27       -3.14002   0.00005   0.00012  -0.00346  -0.00334   3.13982
   D28       -0.01094   0.00059  -0.00093   0.02768   0.02665   0.01571
   D29        3.13690  -0.00028   0.00021   0.00008   0.00043   3.13733
   D30       -0.00358  -0.00020   0.00022   0.00009   0.00040  -0.00318
   D31        0.00589  -0.00022   0.00022  -0.00615  -0.00587   0.00002
   D32       -3.13459  -0.00014   0.00024  -0.00615  -0.00590  -3.14049
   D33       -3.13471   0.00031  -0.00014  -0.00332  -0.00363  -3.13834
   D34       -0.00298   0.00084  -0.00100   0.02596   0.02506   0.02207
   D35       -0.00293   0.00025  -0.00014   0.00241   0.00220  -0.00074
   D36        3.12879   0.00077  -0.00100   0.03168   0.03089  -3.12351
   D37       -0.00291   0.00005  -0.00003   0.00388   0.00384   0.00093
   D38        3.14157   0.00007   0.00004   0.00105   0.00107  -3.14055
   D39        3.13757  -0.00003  -0.00005   0.00389   0.00388   3.14145
   D40       -0.00114  -0.00001   0.00002   0.00106   0.00111  -0.00003
   D41       -0.00273   0.00011  -0.00023   0.00185   0.00158  -0.00115
   D42        3.13791   0.00010  -0.00015   0.00122   0.00106   3.13897
   D43        3.13596   0.00008  -0.00030   0.00467   0.00437   3.14033
   D44       -0.00658   0.00008  -0.00022   0.00404   0.00385  -0.00274
   D45       -3.13743  -0.00016   0.00023  -0.00563  -0.00533   3.14043
   D46        0.00589  -0.00008   0.00033  -0.00579  -0.00545   0.00045
   D47        0.00510  -0.00016   0.00015  -0.00501  -0.00483   0.00027
   D48       -3.13476  -0.00008   0.00025  -0.00518  -0.00495  -3.13971
   D49       -0.00302  -0.00010  -0.00013   0.00360   0.00352   0.00050
   D50       -3.13394  -0.00068   0.00084  -0.02821  -0.02721   3.12203
   D51        3.14023  -0.00003  -0.00004   0.00345   0.00341  -3.13955
   D52        0.00930  -0.00061   0.00093  -0.02836  -0.02732  -0.01802
   D53        0.00272  -0.00094   0.00114  -0.02868  -0.02752  -0.02480
   D54       -1.65290   0.00044  -0.00052  -0.00811  -0.00874  -1.66164
   D55        3.02366   0.00120  -0.00005  -0.00608  -0.00606   3.01760
   D56        1.51333  -0.00150   0.00183  -0.03575  -0.03388   1.47945
   D57        3.13377  -0.00034   0.00018   0.00276   0.00287   3.13664
   D58        1.47815   0.00103  -0.00147   0.02333   0.02165   1.49979
   D59       -0.12847   0.00179  -0.00101   0.02536   0.02433  -0.10414
   D60       -1.63880  -0.00090   0.00088  -0.00431  -0.00349  -1.64229
   D61       -0.00210   0.00093  -0.00113   0.02807   0.02692   0.02482
   D62        1.66341  -0.00058   0.00086   0.00362   0.00465   1.66806
   D63       -3.01445  -0.00136   0.00027   0.00185   0.00204  -3.01241
   D64       -1.50583   0.00140  -0.00171   0.03288   0.03104  -1.47479
   D65       -3.13133   0.00037  -0.00010  -0.00270  -0.00274  -3.13407
   D66       -1.46582  -0.00114   0.00189  -0.02716  -0.02500  -1.49082
   D67        0.13951  -0.00192   0.00129  -0.02893  -0.02761   0.11189
   D68        1.64813   0.00084  -0.00069   0.00210   0.00139   1.64951
         Item               Value     Threshold  Converged?
 Maximum Force            0.022302     0.000450     NO 
 RMS     Force            0.002852     0.000300     NO 
 Maximum Displacement     0.115330     0.001800     NO 
 RMS     Displacement     0.019415     0.001200     NO 
 Predicted change in Energy=-2.477886D-03
 Lowest energy point so far.  Saving SCF results.
 GradGradGradGradGradGradGradGradGradGradGradGradGradGradGradGradGradGrad

 Leave Link  103 at Mon Nov 17 10:49:00 2025, MaxMem=  2684354560 cpu:               1.6 elap:               0.1
 (Enter /home/programes/qq/gaussian/g16.A03/g16/l202.exe)
                          Input orientation:                          
 ---------------------------------------------------------------------
 Center     Atomic      Atomic             Coordinates (Angstroms)
 Number     Number       Type             X           Y           Z
 ---------------------------------------------------------------------
      1          6           0       -2.280765    0.295841    0.035846
      2          6           0       -0.885780    0.343482   -0.057855
      3          6           0       -0.237249    1.578213   -0.039697
      4          6           0       -1.002884    2.742575    0.071558
      5          6           0       -2.387432    2.628223    0.160260
      6          6           0       -3.047949   -0.975366    0.031766
      7          6           0       -2.439461   -2.231003   -0.066820
      8          6           0       -3.229242   -3.380648   -0.058679
      9          6           0       -4.616745   -3.246799    0.047321
     10          6           0       -5.161434   -1.969219    0.142504
     11          1           0       -0.304130   -0.571439   -0.143697
     12          1           0        0.850161    1.625025   -0.111591
     13          1           0       -0.545901    3.731966    0.088406
     14          1           0       -3.018207    3.512114    0.245771
     15          1           0       -1.358659   -2.317822   -0.148509
     16          1           0       -2.763208   -4.364004   -0.134132
     17          1           0       -5.278772   -4.112584    0.055876
     18          1           0       -6.237733   -1.823944    0.225450
     19          7           0       -4.406173   -0.850820    0.136390
     20          7           0       -3.024631    1.438737    0.143789
     21         75           0       -5.249735    1.218951    0.251232
     22          6           0       -5.335288    1.273229    2.137956
     23          6           0       -7.108654    0.756882    0.142920
     24          6           0       -5.709438    3.078320    0.140715
     25          8           0       -5.411870    1.318144    3.299325
     26          8           0       -8.221552    0.448456    0.041119
     27          8           0       -5.956702    4.206047    0.035730
     28         17           0       -5.123567    1.142450   -2.529983
 ---------------------------------------------------------------------
                    Distance matrix (angstroms):
                    1          2          3          4          5
     1  C    0.000000
     2  C    1.398939   0.000000
     3  C    2.413740   1.394806   0.000000
     4  C    2.760572   2.405433   1.397968   0.000000
     5  C    2.338132   2.742731   2.401207   1.392092   0.000000
     6  C    1.484775   2.534238   3.798145   4.243461   3.665876
     7  C    2.533903   3.006988   4.400068   5.178743   4.864807
     8  C    3.798042   4.400109   5.791605   6.516709   6.071500
     9  C    4.243494   5.178927   6.516771   6.995226   6.284781
    10  C    3.666078   4.865176   6.071661   6.284869   5.369532
    11  H    2.165986   1.087550   2.153205   3.393711   3.830192
    12  H    3.404580   2.158410   1.090789   2.171690   3.400341
    13  H    3.849606   3.408627   2.179525   1.089959   2.148173
    14  H    3.306402   3.831404   3.399293   2.164270   1.089243
    15  H    2.777680   2.704509   4.055674   5.077659   5.061332
    16  H    4.687835   5.068626   6.457501   7.324241   7.008503
    17  H    5.331291   6.258421   7.603372   8.079398   7.335477
    18  H    4.492998   5.781124   6.902954   6.948412   5.886498
    19  N    2.417085   3.722533   4.828161   4.949653   4.022390
    20  N    1.367917   2.411415   2.796894   2.406797   1.349507
    21  Re   3.116618   4.461623   5.033759   4.515469   3.191724
    22  C    3.834614   5.048181   5.552043   5.019831   3.799624
    23  C    4.851035   6.239821   6.922727   6.420942   5.078598
    24  C    4.416898   5.548553   5.676947   4.719021   3.352416
    25  O    4.636724   5.718926   6.163879   5.646826   4.551622
    26  O    5.942749   7.337190   8.064240   7.574502   6.229167
    27  O    5.366770   6.375140   6.294708   5.165593   3.904449
    28  Cl   3.921957   4.970774   5.501592   5.129175   4.114773
                    6          7          8          9         10
     6  C    0.000000
     7  C    1.398785   0.000000
     8  C    2.413800   1.394814   0.000000
     9  C    2.760575   2.405294   1.397969   0.000000
    10  C    2.338124   2.742533   2.401244   1.392105   0.000000
    11  H    2.778936   2.705494   4.056497   5.078650   5.062519
    12  H    4.688054   5.068784   6.457639   7.324411   7.008740
    13  H    5.331269   6.258327   7.603370   8.079395   7.335501
    14  H    4.492678   5.780661   6.902709   6.948209   5.886348
    15  H    2.165269   1.087357   2.153312   3.393594   3.829793
    16  H    3.404624   2.158480   1.090812   2.171790   3.400443
    17  H    3.849583   3.408386   2.179318   1.089925   2.148322
    18  H    3.306406   3.831186   3.399275   2.164219   1.089221
    19  N    1.367930   2.411256   2.797007   2.406863   1.349545
    20  N    2.416813   3.722065   4.827974   4.949584   4.022448
    21  Re   3.116257   4.461052   5.033364   4.514995   3.191245
    22  C    3.837204   5.052375   5.560504   5.031671   3.811236
    23  C    4.416148   5.547324   5.675353   4.716800   3.350118
    24  C    4.850543   6.238969   6.921662   6.419489   5.077200
    25  O    4.639531   5.723861   6.174034   5.660959   4.564536
    26  O    5.365960   6.373674   6.292468   5.162323   3.901250
    27  O    5.942045   7.336014   8.062623   7.572353   6.227179
    28  Cl   3.918660   4.965056   5.491287   5.115161   4.101963
                   11         12         13         14         15
    11  H    0.000000
    12  H    2.481506   0.000000
    13  H    4.316436   2.535387   0.000000
    14  H    4.918668   4.318921   2.487045   0.000000
    15  H    2.040076   4.519546   6.108735   6.074348   0.000000
    16  H    4.520034   6.994670   8.397065   7.889396   2.481899
    17  H    6.109550   8.397144   9.161774   7.955013   4.316276
    18  H    6.075580   7.889691   7.955116   6.232116   4.918244
    19  N    4.121075   5.815527   5.992155   4.579694   3.394202
    20  N    3.394786   3.887664   3.377287   2.075893   4.119786
    21  Re   5.274511   6.124155   5.335523   3.199741   5.273427
    22  C    5.824198   6.591206   5.760578   3.736553   5.825560
    23  C    6.938885   8.010068   7.205819   4.932914   6.526958
    24  C    6.528321   6.723397   5.205007   2.727992   6.937671
    25  O    6.443130   7.137336   6.309849   4.457277   6.444869
    26  O    7.984980   9.148968   8.348609   6.041744   7.401862
    27  O    7.403251   7.281261   5.431785   3.026618   7.983534
    28  Cl   5.644355   6.462733   5.875080   4.213390   5.640872
                   16         17         18         19         20
    16  H    0.000000
    17  H    2.535228   0.000000
    18  H    4.318973   2.487214   0.000000
    19  N    3.887799   3.377428   2.075937   0.000000
    20  N    5.815271   5.992165   4.579932   2.674095   0.000000
    21  Re   6.123782   5.335192   3.199378   2.238021   2.238513
    22  C    6.599725   5.774533   3.750276   3.062858   3.056670
    23  C    6.721840   5.202666   2.725065   3.144543   4.140552
    24  C    8.008995   7.204289   4.931376   4.139645   3.145860
    25  O    7.147786   6.326965   4.472525   3.964844   3.958644
    26  O    7.279011   5.428007   3.022138   4.031663   5.291426
    27  O    9.147296   8.346233   6.039517   5.290196   4.033203
    28  Cl   6.452320   5.858852   4.199199   3.405485   3.412092
                   21         22         23         24         25
    21  Re   0.000000
    22  C    1.889442   0.000000
    23  C    1.918546   2.718751   0.000000
    24  C    1.918539   2.717961   2.710514   0.000000
    25  O    3.054013   1.164758   3.627255   3.628165   0.000000
    26  O    3.077256   3.661625   1.159323   3.638244   4.389371
    27  O    3.077171   3.661547   3.638025   1.159279   4.391796
    28  Cl   2.785126   4.674567   3.351663   3.350144   5.839077
                   26         27         28
    26  O    0.000000
    27  O    4.387375   0.000000
    28  Cl   4.085303   4.081988   0.000000
 Symmetry turned off by external request.
 Stoichiometry    C13H8ClN2O3Re
 Framework group  C1[X(C13H8ClN2O3Re)]
 Deg. of freedom    78
 Full point group                 C1      NOp   1
 Rotational constants (GHZ):           0.3304488           0.2664250           0.2012180
 Leave Link  202 at Mon Nov 17 10:49:00 2025, MaxMem=  2684354560 cpu:               0.1 elap:               0.0
 (Enter /home/programes/qq/gaussian/g16.A03/g16/l301.exe)
 Basis read from rwf:  (5D, 7F)
 Pseudo-potential data read from rwf file.
   339 basis functions,   774 primitive gaussians,   363 cartesian basis functions
    78 alpha electrons       78 beta electrons
       nuclear repulsion energy      1747.6185439827 Hartrees.
 IExCor=  402 DFT=T Ex+Corr=B3LYP ExCW=0 ScaHFX=  0.200000
 ScaDFX=  0.800000  0.720000  1.000000  0.810000 ScalE2=  1.000000  1.000000
 IRadAn=      5 IRanWt=     -1 IRanGd=            0 ICorTp=0 IEmpDi=141
 NAtoms=   28 NActive=   28 NUniq=   28 SFac= 1.00D+00 NAtFMM=   60 NAOKFM=F Big=F
 Integral buffers will be    131072 words long.
 Raffenetti 2 integral format.
 Two-electron integral symmetry is turned off.
 R6Disp:  Grimme-D3(BJ) Dispersion energy=       -0.0842618301 Hartrees.
 Nuclear repulsion after empirical dispersion term =     1747.5342821526 Hartrees.
 No density basis found on file   724.
 ------------------------------------------------------------------------------
 Polarizable Continuum Model (PCM)
 =================================
 Model                : PCM.
 Atomic radii         : UFF (Universal Force Field).
 Polarization charges : Total charges.
 Charge compensation  : None.
 Solution method      : On-the-fly selection.
 Cavity type          : Scaled VdW (van der Waals Surface) (Alpha=1.100).
 Cavity algorithm     : GePol (No added spheres)
                        Default sphere list used, NSphG=   28.
                        Lebedev-Laikov grids with approx.  5.0 points / Ang**2.
                        Smoothing algorithm: York/Karplus (Gamma=1.0000).
                        Polarization charges: spherical gaussians, with
                                              point-specific exponents (IZeta= 3).
                        Self-potential: point-specific (ISelfS= 7).
                        Self-field    : sphere-specific E.n sum rule (ISelfD= 2).
 1st derivatives      : Analytical E(r).r(x)/FMM algorithm (CHGder, D1EAlg=3).
                        Cavity 1st derivative terms included.
 Solvent              : n,n-DiMethylFormamide, Eps=  37.219000 Eps(inf)=   2.046330
 ------------------------------------------------------------------------------
 GePol: Number of generator spheres                  =      28
 GePol: Total number of spheres                      =      28
 GePol: Number of exposed spheres                    =      27 ( 96.43%)
 GePol: Number of points                             =    2593
 GePol: Average weight of points                     =       0.13
 GePol: Minimum weight of points                     =   0.45D-08
 GePol: Maximum weight of points                     =    0.21616
 GePol: Number of points with low weight             =     126
 GePol: Fraction of low-weight points (<1% of avg)   =       4.86%
 GePol: Cavity surface area                          =    344.235 Ang**2
 GePol: Cavity volume                                =    379.598 Ang**3
 Leave Link  301 at Mon Nov 17 10:49:01 2025, MaxMem=  2684354560 cpu:               1.2 elap:               0.0
 (Enter /home/programes/qq/gaussian/g16.A03/g16/l302.exe)
 NPDir=0 NMtPBC=     1 NCelOv=     1 NCel=       1 NClECP=     1 NCelD=      1
         NCelK=      1 NCelE2=     1 NClLst=     1 CellRange=     0.0.
 One-electron integrals computed using PRISM.
   1 Symmetry operations used in ECPInt.
 ECPInt:  NShTT=   11175 NPrTT=  105620 LenC2=   10444 LenP2D=   50965.
 LDataN:  DoStor=T MaxTD1= 7 Len=  274
 NBasis=   339 RedAO= T EigKep=  3.71D-04  NBF=   339
 NBsUse=   339 1.00D-06 EigRej= -1.00D+00 NBFU=   339
 Precomputing XC quadrature grid using
 IXCGrd= 4 IRadAn=           5 IRanWt=          -1 IRanGd=           0 AccXCQ= 0.00D+00.
 Defaulting to unpruned grid for atomic number  75.
 Generated NRdTot=       0 NPtTot=           0 NUsed=           0 NTot=          32
 NSgBfM=   363   363   363   363   363 MxSgAt=    28 MxSgA2=    28.
 Leave Link  302 at Mon Nov 17 10:49:01 2025, MaxMem=  2684354560 cpu:              12.2 elap:               0.4
 (Enter /home/programes/qq/gaussian/g16.A03/g16/l303.exe)
 DipDrv:  MaxL=1.
 Leave Link  303 at Mon Nov 17 10:49:01 2025, MaxMem=  2684354560 cpu:               1.1 elap:               0.1
 (Enter /home/programes/qq/gaussian/g16.A03/g16/l401.exe)
 Initial guess from the checkpoint file:  "re-bpy-co3-cl.chk"
 B after Tr=    -0.007925    0.004438    0.033966
         Rot=    0.999998    0.000988    0.001993    0.000037 Ang=   0.25 deg.
 Guess basis will be translated and rotated to current coordinates.
 JPrj=2 DoOrth=T DoCkMO=T.
 Generating alternative initial guess.
 ExpMin= 2.80D-02 ExpMax= 1.28D+05 ExpMxC= 1.24D+03 IAcc=3 IRadAn=         5 AccDes= 0.00D+00
 Harris functional with IExCor=  402 and IRadAn=       5 diagonalized for initial guess.
 HarFok:  IExCor=  402 AccDes= 0.00D+00 IRadAn=         5 IDoV= 1 UseB2=F ITyADJ=14
 ICtDFT=  3500011 ScaDFX=  1.000000  1.000000  1.000000  1.000000
 Defaulting to unpruned grid for atomic number  75.
 FoFCou: FMM=F IPFlag=           0 FMFlag=      100000 FMFlg1=           0
         NFxFlg=           0 DoJE=T BraDBF=F KetDBF=T FulRan=T
         wScrn=  0.000000 ICntrl=       500 IOpCl=  0 I1Cent=   200000004 NGrid=           0
         NMat0=    1 NMatS0=      1 NMatT0=    0 NMatD0=    1 NMtDS0=    0 NMtDT0=    0
 Symmetry not used in FoFCou.
 Harris En= -1374.74810024966    
 Leave Link  401 at Mon Nov 17 10:49:02 2025, MaxMem=  2684354560 cpu:              30.5 elap:               1.0
 (Enter /home/programes/qq/gaussian/g16.A03/g16/l502.exe)
 Two-electron integral symmetry not used.
 Closed shell SCF:
 Using DIIS extrapolation, IDIIS=  1040.
 NGot=  2684354560 LenX=  2684076439 LenY=  2683944229
 Requested convergence on RMS density matrix=1.00D-08 within 128 cycles.
 Requested convergence on MAX density matrix=1.00D-06.
 Requested convergence on             energy=1.00D-06.
 No special actions if energy rises.
 Fock matrices will be formed incrementally for  20 cycles.

 Cycle   1  Pass 1  IDiag  1:
 FoFJK:  IHMeth= 1 ICntrl=       0 DoSepK=F KAlg= 0 I1Cent=           0 FoldK=F
 IRaf= 870000000 NMat=       1 IRICut=       1 DoRegI=T DoRafI=F ISym2E= 0 IDoP0=0 IntGTp=1.
 FoFCou: FMM=F IPFlag=           0 FMFlag=      100000 FMFlg1=           0
         NFxFlg=           0 DoJE=F BraDBF=F KetDBF=F FulRan=T
         wScrn=  0.000000 ICntrl=         0 IOpCl=  0 I1Cent=           0 NGrid=           0
         NMat0=    1 NMatS0=      1 NMatT0=    0 NMatD0=    1 NMtDS0=    0 NMtDT0=    0
 Symmetry not used in FoFCou.
 Defaulting to unpruned grid for atomic number  75.
 Defaulting to unpruned grid for atomic number  75.
 Defaulting to unpruned grid for atomic number  75.
 Defaulting to unpruned grid for atomic number  75.
 Defaulting to unpruned grid for atomic number  75.
 Defaulting to unpruned grid for atomic number  75.
 Defaulting to unpruned grid for atomic number  75.
 Defaulting to unpruned grid for atomic number  75.
 Defaulting to unpruned grid for atomic number  75.
 Defaulting to unpruned grid for atomic number  75.
 Defaulting to unpruned grid for atomic number  75.
 Defaulting to unpruned grid for atomic number  75.
 Defaulting to unpruned grid for atomic number  75.
 Defaulting to unpruned grid for atomic number  75.
 Defaulting to unpruned grid for atomic number  75.
 Defaulting to unpruned grid for atomic number  75.
 Defaulting to unpruned grid for atomic number  75.
 Defaulting to unpruned grid for atomic number  75.
 Defaulting to unpruned grid for atomic number  75.
 Defaulting to unpruned grid for atomic number  75.
 Defaulting to unpruned grid for atomic number  75.
 Defaulting to unpruned grid for atomic number  75.
 Defaulting to unpruned grid for atomic number  75.
 Defaulting to unpruned grid for atomic number  75.
 Defaulting to unpruned grid for atomic number  75.
 Defaulting to unpruned grid for atomic number  75.
 Defaulting to unpruned grid for atomic number  75.
 Defaulting to unpruned grid for atomic number  75.
 Defaulting to unpruned grid for atomic number  75.
 Defaulting to unpruned grid for atomic number  75.
 Defaulting to unpruned grid for atomic number  75.
 Defaulting to unpruned grid for atomic number  75.
 Inv3:  Mode=1 IEnd=    20170947.
 Iteration    1 A*A^-1 deviation from unit magnitude is 5.00D-15 for    668.
 Iteration    1 A*A^-1 deviation from orthogonality  is 4.75D-15 for   1623    759.
 Iteration    1 A^-1*A deviation from unit magnitude is 4.66D-15 for   2587.
 Iteration    1 A^-1*A deviation from orthogonality  is 2.95D-15 for   1322    126.
 E= -1375.06245062538    
 DIIS: error= 1.95D-03 at cycle   1 NSaved=   1.
 NSaved= 1 IEnMin= 1 EnMin= -1375.06245062538     IErMin= 1 ErrMin= 1.95D-03
 ErrMax= 1.95D-03  0.00D+00 EMaxC= 1.00D-01 BMatC= 2.10D-03 BMatP= 2.10D-03
 IDIUse=3 WtCom= 9.81D-01 WtEn= 1.95D-02
 Coeff-Com:  0.100D+01
 Coeff-En:   0.100D+01
 Coeff:      0.100D+01
 Gap=     0.606 Goal=   None    Shift=    0.000
 GapD=    0.606 DampG=2.000 DampE=1.000 DampFc=2.0000 IDamp=-1.
 RMSDP=3.03D-04 MaxDP=7.50D-03              OVMax= 1.59D-02

 Cycle   2  Pass 1  IDiag  1:
 RMSU=  3.03D-04    CP:  1.00D+00
 E= -1375.06487744819     Delta-E=       -0.002426822804 Rises=F Damp=F
 DIIS: error= 4.84D-04 at cycle   2 NSaved=   2.
 NSaved= 2 IEnMin= 2 EnMin= -1375.06487744819     IErMin= 2 ErrMin= 4.84D-04
 ErrMax= 4.84D-04  0.00D+00 EMaxC= 1.00D-01 BMatC= 1.74D-04 BMatP= 2.10D-03
 IDIUse=3 WtCom= 9.95D-01 WtEn= 4.84D-03
 Coeff-Com:  0.745D-01 0.926D+00
 Coeff-En:   0.000D+00 0.100D+01
 Coeff:      0.741D-01 0.926D+00
 Gap=     0.137 Goal=   None    Shift=    0.000
 RMSDP=1.17D-04 MaxDP=6.57D-03 DE=-2.43D-03 OVMax= 9.38D-03

 Cycle   3  Pass 1  IDiag  1:
 RMSU=  1.15D-04    CP:  1.00D+00  9.26D-01
 E= -1375.06444395212     Delta-E=        0.000433496064 Rises=F Damp=F
 DIIS: error= 1.31D-03 at cycle   3 NSaved=   3.
 NSaved= 3 IEnMin= 2 EnMin= -1375.06487744819     IErMin= 2 ErrMin= 4.84D-04
 ErrMax= 1.31D-03  0.00D+00 EMaxC= 1.00D-01 BMatC= 6.49D-04 BMatP= 1.74D-04
 IDIUse=3 WtCom= 2.16D-01 WtEn= 7.84D-01
 Coeff-Com: -0.153D-01 0.677D+00 0.338D+00
 Coeff-En:   0.000D+00 0.738D+00 0.262D+00
 Coeff:     -0.330D-02 0.725D+00 0.278D+00
 Gap=     0.137 Goal=   None    Shift=    0.000
 RMSDP=6.97D-05 MaxDP=5.13D-03 DE= 4.33D-04 OVMax= 7.00D-03

 Cycle   4  Pass 1  IDiag  1:
 RMSU=  3.20D-05    CP:  1.00D+00  9.83D-01  4.86D-01
 E= -1375.06501926271     Delta-E=       -0.000575310587 Rises=F Damp=F
 DIIS: error= 3.18D-04 at cycle   4 NSaved=   4.
 NSaved= 4 IEnMin= 4 EnMin= -1375.06501926271     IErMin= 4 ErrMin= 3.18D-04
 ErrMax= 3.18D-04  0.00D+00 EMaxC= 1.00D-01 BMatC= 4.02D-05 BMatP= 1.74D-04
 IDIUse=3 WtCom= 9.97D-01 WtEn= 3.18D-03
 Coeff-Com: -0.192D-01 0.428D+00 0.189D+00 0.402D+00
 Coeff-En:   0.000D+00 0.174D-01 0.000D+00 0.983D+00
 Coeff:     -0.191D-01 0.427D+00 0.188D+00 0.404D+00
 Gap=     0.137 Goal=   None    Shift=    0.000
 RMSDP=2.33D-05 MaxDP=1.42D-03 DE=-5.75D-04 OVMax= 2.13D-03

 Cycle   5  Pass 1  IDiag  1:
 RMSU=  1.35D-05    CP:  1.00D+00  1.01D+00  4.33D-01  4.90D-01
 E= -1375.06504953283     Delta-E=       -0.000030270121 Rises=F Damp=F
 DIIS: error= 1.52D-04 at cycle   5 NSaved=   5.
 NSaved= 5 IEnMin= 5 EnMin= -1375.06504953283     IErMin= 5 ErrMin= 1.52D-04
 ErrMax= 1.52D-04  0.00D+00 EMaxC= 1.00D-01 BMatC= 6.70D-06 BMatP= 4.02D-05
 IDIUse=3 WtCom= 9.98D-01 WtEn= 1.52D-03
 Coeff-Com: -0.991D-02 0.167D+00 0.655D-01 0.292D+00 0.485D+00
 Coeff-En:   0.000D+00 0.000D+00 0.000D+00 0.166D+00 0.834D+00
 Coeff:     -0.990D-02 0.167D+00 0.654D-01 0.292D+00 0.486D+00
 Gap=     0.137 Goal=   None    Shift=    0.000
 RMSDP=6.66D-06 MaxDP=4.22D-04 DE=-3.03D-05 OVMax= 5.49D-04

 Cycle   6  Pass 1  IDiag  1:
 RMSU=  4.83D-06    CP:  1.00D+00  1.01D+00  4.29D-01  5.88D-01  7.68D-01
 E= -1375.06505509568     Delta-E=       -0.000005562853 Rises=F Damp=F
 DIIS: error= 3.44D-05 at cycle   6 NSaved=   6.
 NSaved= 6 IEnMin= 6 EnMin= -1375.06505509568     IErMin= 6 ErrMin= 3.44D-05
 ErrMax= 3.44D-05  0.00D+00 EMaxC= 1.00D-01 BMatC= 4.90D-07 BMatP= 6.70D-06
 IDIUse=1 WtCom= 1.00D+00 WtEn= 0.00D+00
 Coeff-Com: -0.300D-02 0.345D-01 0.887D-02 0.111D+00 0.274D+00 0.574D+00
 Coeff:     -0.300D-02 0.345D-01 0.887D-02 0.111D+00 0.274D+00 0.574D+00
 Gap=     0.137 Goal=   None    Shift=    0.000
 RMSDP=2.54D-06 MaxDP=1.06D-04 DE=-5.56D-06 OVMax= 2.32D-04

 Cycle   7  Pass 1  IDiag  1:
 RMSU=  2.01D-06    CP:  1.00D+00  1.01D+00  4.35D-01  6.13D-01  7.90D-01
                    CP:  7.70D-01
 E= -1375.06505546785     Delta-E=       -0.000000372167 Rises=F Damp=F
 DIIS: error= 1.27D-05 at cycle   7 NSaved=   7.
 NSaved= 7 IEnMin= 7 EnMin= -1375.06505546785     IErMin= 7 ErrMin= 1.27D-05
 ErrMax= 1.27D-05  0.00D+00 EMaxC= 1.00D-01 BMatC= 8.48D-08 BMatP= 4.90D-07
 IDIUse=1 WtCom= 1.00D+00 WtEn= 0.00D+00
 Coeff-Com:  0.157D-03-0.125D-01-0.798D-02 0.691D-02 0.656D-01 0.343D+00
 Coeff-Com:  0.605D+00
 Coeff:      0.157D-03-0.125D-01-0.798D-02 0.691D-02 0.656D-01 0.343D+00
 Coeff:      0.605D+00
 Gap=     0.137 Goal=   None    Shift=    0.000
 RMSDP=1.08D-06 MaxDP=4.79D-05 DE=-3.72D-07 OVMax= 1.15D-04

 Cycle   8  Pass 1  IDiag  1:
 RMSU=  4.62D-07    CP:  1.00D+00  1.01D+00  4.34D-01  6.19D-01  8.31D-01
                    CP:  8.47D-01  6.56D-01
 E= -1375.06505556202     Delta-E=       -0.000000094169 Rises=F Damp=F
 DIIS: error= 1.75D-06 at cycle   8 NSaved=   8.
 NSaved= 8 IEnMin= 8 EnMin= -1375.06505556202     IErMin= 8 ErrMin= 1.75D-06
 ErrMax= 1.75D-06  0.00D+00 EMaxC= 1.00D-01 BMatC= 2.17D-09 BMatP= 8.48D-08
 IDIUse=1 WtCom= 1.00D+00 WtEn= 0.00D+00
 Coeff-Com:  0.213D-03-0.626D-02-0.284D-02-0.466D-02 0.660D-02 0.837D-01
 Coeff-Com:  0.216D+00 0.707D+00
 Coeff:      0.213D-03-0.626D-02-0.284D-02-0.466D-02 0.660D-02 0.837D-01
 Coeff:      0.216D+00 0.707D+00
 Gap=     0.137 Goal=   None    Shift=    0.000
 RMSDP=2.36D-07 MaxDP=1.19D-05 DE=-9.42D-08 OVMax= 2.77D-05

 Cycle   9  Pass 1  IDiag  1:
 RMSU=  1.71D-07    CP:  1.00D+00  1.01D+00  4.35D-01  6.19D-01  8.34D-01
                    CP:  8.55D-01  7.09D-01  8.47D-01
 E= -1375.06505556452     Delta-E=       -0.000000002502 Rises=F Damp=F
 DIIS: error= 8.19D-07 at cycle   9 NSaved=   9.
 NSaved= 9 IEnMin= 9 EnMin= -1375.06505556452     IErMin= 9 ErrMin= 8.19D-07
 ErrMax= 8.19D-07  0.00D+00 EMaxC= 1.00D-01 BMatC= 3.51D-10 BMatP= 2.17D-09
 IDIUse=1 WtCom= 1.00D+00 WtEn= 0.00D+00
 Coeff-Com:  0.897D-04-0.208D-02-0.732D-03-0.300D-02-0.254D-02 0.136D-01
 Coeff-Com:  0.577D-01 0.351D+00 0.586D+00
 Coeff:      0.897D-04-0.208D-02-0.732D-03-0.300D-02-0.254D-02 0.136D-01
 Coeff:      0.577D-01 0.351D+00 0.586D+00
 Gap=     0.137 Goal=   None    Shift=    0.000
 RMSDP=7.72D-08 MaxDP=3.92D-06 DE=-2.50D-09 OVMax= 5.90D-06

 Cycle  10  Pass 1  IDiag  1:
 RMSU=  5.01D-08    CP:  1.00D+00  1.01D+00  4.35D-01  6.19D-01  8.36D-01
                    CP:  8.58D-01  7.12D-01  9.27D-01  7.94D-01
 E= -1375.06505556480     Delta-E=       -0.000000000282 Rises=F Damp=F
 DIIS: error= 3.60D-07 at cycle  10 NSaved=  10.
 NSaved=10 IEnMin=10 EnMin= -1375.06505556480     IErMin=10 ErrMin= 3.60D-07
 ErrMax= 3.60D-07  0.00D+00 EMaxC= 1.00D-01 BMatC= 7.17D-11 BMatP= 3.51D-10
 IDIUse=1 WtCom= 1.00D+00 WtEn= 0.00D+00
 Coeff-Com:  0.157D-04-0.750D-04 0.768D-04-0.994D-03-0.285D-02-0.671D-02
 Coeff-Com: -0.392D-02 0.931D-01 0.342D+00 0.580D+00
 Coeff:      0.157D-04-0.750D-04 0.768D-04-0.994D-03-0.285D-02-0.671D-02
 Coeff:     -0.392D-02 0.931D-01 0.342D+00 0.580D+00
 Gap=     0.137 Goal=   None    Shift=    0.000
 RMSDP=2.89D-08 MaxDP=1.55D-06 DE=-2.82D-10 OVMax= 2.18D-06

 Cycle  11  Pass 1  IDiag  1:
 RMSU=  2.02D-08    CP:  1.00D+00  1.01D+00  4.35D-01  6.20D-01  8.36D-01
                    CP:  8.60D-01  7.13D-01  9.42D-01  8.40D-01  8.14D-01
 E= -1375.06505556490     Delta-E=       -0.000000000098 Rises=F Damp=F
 DIIS: error= 1.62D-07 at cycle  11 NSaved=  11.
 NSaved=11 IEnMin=11 EnMin= -1375.06505556490     IErMin=11 ErrMin= 1.62D-07
 ErrMax= 1.62D-07  0.00D+00 EMaxC= 1.00D-01 BMatC= 1.24D-11 BMatP= 7.17D-11
 IDIUse=1 WtCom= 1.00D+00 WtEn= 0.00D+00
 Coeff-Com: -0.235D-05 0.257D-03 0.148D-03-0.211D-03-0.136D-02-0.594D-02
 Coeff-Com: -0.109D-01 0.576D-02 0.126D+00 0.357D+00 0.530D+00
 Coeff:     -0.235D-05 0.257D-03 0.148D-03-0.211D-03-0.136D-02-0.594D-02
 Coeff:     -0.109D-01 0.576D-02 0.126D+00 0.357D+00 0.530D+00
 Gap=     0.137 Goal=   None    Shift=    0.000
 RMSDP=1.14D-08 MaxDP=6.54D-07 DE=-9.78D-11 OVMax= 9.73D-07

 Cycle  12  Pass 1  IDiag  1:
 RMSU=  5.67D-09    CP:  1.00D+00  1.01D+00  4.35D-01  6.20D-01  8.36D-01
                    CP:  8.60D-01  7.14D-01  9.47D-01  8.66D-01  8.38D-01
                    CP:  6.62D-01
 E= -1375.06505556496     Delta-E=       -0.000000000062 Rises=F Damp=F
 DIIS: error= 3.59D-08 at cycle  12 NSaved=  12.
 NSaved=12 IEnMin=12 EnMin= -1375.06505556496     IErMin=12 ErrMin= 3.59D-08
 ErrMax= 3.59D-08  0.00D+00 EMaxC= 1.00D-01 BMatC= 5.48D-13 BMatP= 1.24D-11
 IDIUse=1 WtCom= 1.00D+00 WtEn= 0.00D+00
 Coeff-Com: -0.232D-05 0.128D-03 0.633D-04-0.374D-04-0.447D-03-0.235D-02
 Coeff-Com: -0.497D-02-0.397D-02 0.349D-01 0.122D+00 0.248D+00 0.606D+00
 Coeff:     -0.232D-05 0.128D-03 0.633D-04-0.374D-04-0.447D-03-0.235D-02
 Coeff:     -0.497D-02-0.397D-02 0.349D-01 0.122D+00 0.248D+00 0.606D+00
 Gap=     0.137 Goal=   None    Shift=    0.000
 RMSDP=2.67D-09 MaxDP=1.26D-07 DE=-6.23D-11 OVMax= 2.29D-07

 Error on total polarization charges =  0.01136
 SCF Done:  E(RB3LYP) =  -1375.06505556     A.U. after   12 cycles
            NFock= 12  Conv=0.27D-08     -V/T= 2.0465
 KE= 1.314009717330D+03 PE=-6.696843022918D+03 EE= 2.260233967870D+03
 Leave Link  502 at Mon Nov 17 10:49:33 2025, MaxMem=  2684354560 cpu:             939.1 elap:              31.1
 (Enter /home/programes/qq/gaussian/g16.A03/g16/l701.exe)
 ... and contract with generalized density number  0.
 Compute integral first derivatives.
 R6Disp: Adding Grimme-D3(BJ) dispersion energy 1st derivatives to the gradient.
   1 Symmetry operations used in ECPInt.
 ECPInt:  NShTT=   11175 NPrTT=  105620 LenC2=   10444 LenP2D=   50965.
 LDataN:  DoStor=T MaxTD1= 8 Len=  415
 D1PCM: PCM CHGder 1st derivatives, ID1Alg=3 FixD1E=F DoIter=F DoCFld=F I1PDM=0.
 GePol: Maximum number of non-zero 1st derivatives   =     257
 Leave Link  701 at Mon Nov 17 10:49:35 2025, MaxMem=  2684354560 cpu:              44.3 elap:               1.4
 (Enter /home/programes/qq/gaussian/g16.A03/g16/l702.exe)
 L702 exits ... SP integral derivatives will be done elsewhere.
 Leave Link  702 at Mon Nov 17 10:49:35 2025, MaxMem=  2684354560 cpu:               0.2 elap:               0.0
 (Enter /home/programes/qq/gaussian/g16.A03/g16/l703.exe)
 Integral derivatives from FoFJK, PRISM(SPDF).
 Compute integral first derivatives, UseDBF=F ICtDFT=           0.
 Calling FoFJK, ICntrl=      2127 FMM=F ISym2X=0 I1Cent= 0 IOpClX= 0 NMat=1 NMatS=1 NMatT=0.
 FoFJK:  IHMeth= 1 ICntrl=    2127 DoSepK=F KAlg= 0 I1Cent=           0 FoldK=F
 IRaf=         0 NMat=       1 IRICut=       1 DoRegI=T DoRafI=F ISym2E= 0 IDoP0=0 IntGTp=1.
 FoFCou: FMM=F IPFlag=           0 FMFlag=      100000 FMFlg1=         800
         NFxFlg=           0 DoJE=F BraDBF=F KetDBF=F FulRan=T
         wScrn=  0.000000 ICntrl=      2127 IOpCl=  0 I1Cent=           0 NGrid=           0
         NMat0=    1 NMatS0=      1 NMatT0=    0 NMatD0=    1 NMtDS0=    0 NMtDT0=    0
 Symmetry not used in FoFCou.
 Defaulting to unpruned grid for atomic number  75.
 Defaulting to unpruned grid for atomic number  75.
 Defaulting to unpruned grid for atomic number  75.
 Defaulting to unpruned grid for atomic number  75.
 Defaulting to unpruned grid for atomic number  75.
 Defaulting to unpruned grid for atomic number  75.
 Defaulting to unpruned grid for atomic number  75.
 Defaulting to unpruned grid for atomic number  75.
 Defaulting to unpruned grid for atomic number  75.
 Defaulting to unpruned grid for atomic number  75.
 Defaulting to unpruned grid for atomic number  75.
 Defaulting to unpruned grid for atomic number  75.
 Defaulting to unpruned grid for atomic number  75.
 Defaulting to unpruned grid for atomic number  75.
 Defaulting to unpruned grid for atomic number  75.
 Defaulting to unpruned grid for atomic number  75.
 Defaulting to unpruned grid for atomic number  75.
 Defaulting to unpruned grid for atomic number  75.
 Defaulting to unpruned grid for atomic number  75.
 Defaulting to unpruned grid for atomic number  75.
 Defaulting to unpruned grid for atomic number  75.
 Defaulting to unpruned grid for atomic number  75.
 Defaulting to unpruned grid for atomic number  75.
 Defaulting to unpruned grid for atomic number  75.
 Defaulting to unpruned grid for atomic number  75.
 Defaulting to unpruned grid for atomic number  75.
 Defaulting to unpruned grid for atomic number  75.
 Defaulting to unpruned grid for atomic number  75.
 Defaulting to unpruned grid for atomic number  75.
 Defaulting to unpruned grid for atomic number  75.
 Defaulting to unpruned grid for atomic number  75.
 Defaulting to unpruned grid for atomic number  75.
 Leave Link  703 at Mon Nov 17 10:49:40 2025, MaxMem=  2684354560 cpu:             148.5 elap:               4.7
 (Enter /home/programes/qq/gaussian/g16.A03/g16/l716.exe)
 Dipole        = 4.70087421D+00-2.83179208D+00 2.05046454D+00
 -------------------------------------------------------------------
 Center     Atomic                   Forces (Hartrees/Bohr)
 Number     Number              X              Y              Z
 -------------------------------------------------------------------
      1        6          -0.007148036    0.000952178    0.000480905
      2        6          -0.000946345    0.002650009    0.000224921
      3        6          -0.002553452    0.001004684    0.000139637
      4        6           0.000558869   -0.001946032   -0.000317213
      5        6          -0.001156036   -0.002799933   -0.000323097
      6        6          -0.004220718    0.005898549    0.000447234
      7        6          -0.002778576   -0.000434200    0.000159889
      8        6          -0.002102429    0.001799054    0.000143818
      9        6           0.001993511    0.000423742   -0.000305429
     10        6           0.001985193    0.002325974   -0.000246284
     11        1          -0.000256495   -0.000260536   -0.000026789
     12        1          -0.000335972    0.000336943    0.000032961
     13        1           0.000269620   -0.000501419    0.000049967
     14        1          -0.000078131   -0.000359570    0.000145752
     15        1           0.000107333    0.000360316   -0.000031324
     16        1          -0.000465529    0.000147112    0.000017049
     17        1           0.000558164   -0.000017966    0.000058913
     18        1           0.000281781    0.000236002    0.000156931
     19        7           0.002066786    0.002407156    0.000767444
     20        7          -0.001217347   -0.002924857    0.000631129
     21       75           0.012994283   -0.007564844   -0.024085362
     22        6          -0.000688947   -0.000077956    0.001565725
     23        6           0.002024448    0.002296389    0.000495943
     24        6          -0.001051032   -0.002889798    0.000450973
     25        8           0.000948893   -0.000367354   -0.002026111
     26        8           0.000224722   -0.000539222    0.000481808
     27        8           0.000584218    0.000103730    0.000517283
     28       17           0.000401224   -0.000258150    0.020393331
 -------------------------------------------------------------------
 Cartesian Forces:  Max     0.024085362 RMS     0.004135993
 Leave Link  716 at Mon Nov 17 10:49:40 2025, MaxMem=  2684354560 cpu:               0.3 elap:               0.0
 (Enter /home/programes/qq/gaussian/g16.A03/g16/l103.exe)

 GradGradGradGradGradGradGradGradGradGradGradGradGradGradGradGradGradGrad
 Berny optimization.
 Using GEDIIS/GDIIS optimizer.
 FormGI is forming the generalized inverse of G from B-inverse, IUseBI=4.
 Internal  Forces:  Max     0.020338053 RMS     0.002453617
 Search for a local minimum.
 Step number   5 out of a maximum of  168
 All quantities printed in internal units (Hartrees-Bohrs-Radians)
 RMS Force = .24536D-02 SwitMx=.10000D-02 MixMth= 1
 Mixed Optimization -- RFO/linear search
 Update second derivatives using D2CorX and points    3    2    4    5
 DE= -3.40D-03 DEPred=-2.48D-03 R= 1.37D+00
 TightC=F SS=  1.41D+00  RLast= 2.23D-01 DXNew= 7.1352D-01 6.6943D-01
 Trust test= 1.37D+00 RLast= 2.23D-01 DXMaxT set to 6.69D-01
 ITU=  1  1 -1  1  0
 Use linear search instead of GDIIS.
     Eigenvalues ---    0.00609   0.00900   0.01035   0.01495   0.01663
     Eigenvalues ---    0.01783   0.01832   0.01869   0.01915   0.01946
     Eigenvalues ---    0.02019   0.02019   0.02135   0.02154   0.02227
     Eigenvalues ---    0.02249   0.02271   0.02313   0.02334   0.04394
     Eigenvalues ---    0.04637   0.04658   0.04693   0.04693   0.04698
     Eigenvalues ---    0.06908   0.07011   0.08231   0.09929   0.12240
     Eigenvalues ---    0.14029   0.15740   0.15981   0.15999   0.16000
     Eigenvalues ---    0.16000   0.16000   0.16000   0.16000   0.16103
     Eigenvalues ---    0.17304   0.17790   0.21992   0.22000   0.22617
     Eigenvalues ---    0.22813   0.23817   0.24224   0.24501   0.24848
     Eigenvalues ---    0.24959   0.24995   0.29899   0.34513   0.34515
     Eigenvalues ---    0.34525   0.34535   0.34575   0.34585   0.34734
     Eigenvalues ---    0.34738   0.35915   0.36048   0.38129   0.38715
     Eigenvalues ---    0.39142   0.42788   0.45845   0.47445   0.49013
     Eigenvalues ---    0.49719   0.50162   0.51499   0.53407   0.62018
     Eigenvalues ---    1.17515   1.19576   1.25665
 RFO step:  Lambda=-4.69257704D-03 EMin= 6.09337621D-03
 Quartic linear search produced a step of  1.01528.
 Iteration  1 RMS(Cart)=  0.03786010 RMS(Int)=  0.01352669
 Iteration  2 RMS(Cart)=  0.01305228 RMS(Int)=  0.00034881
 Iteration  3 RMS(Cart)=  0.00002638 RMS(Int)=  0.00034860
 Iteration  4 RMS(Cart)=  0.00000001 RMS(Int)=  0.00034860
 ITry= 1 IFail=0 DXMaxC= 2.67D-01 DCOld= 1.00D+10 DXMaxT= 6.69D-01 DXLimC= 3.00D+00 Rises=F
 Variable       Old X    -DE/DX   Delta X   Delta X   Delta X     New X
                                 (Linear)    (Quad)   (Total)
    R1        2.64361  -0.00162  -0.00467  -0.00412  -0.00881   2.63480
    R2        2.80582  -0.00443   0.01779   0.01342   0.03100   2.83682
    R3        2.58499  -0.00827  -0.01440  -0.01601  -0.03046   2.55453
    R4        2.63580  -0.00157   0.00779   0.00395   0.01168   2.64749
    R5        2.05517   0.00008  -0.00056  -0.00078  -0.00134   2.05383
    R6        2.64178  -0.00376  -0.00355  -0.00934  -0.01293   2.62885
    R7        2.06129  -0.00032   0.00094  -0.00016   0.00079   2.06208
    R8        2.63067  -0.00158   0.00567   0.00276   0.00845   2.63912
    R9        2.05972  -0.00034   0.00127  -0.00005   0.00121   2.06094
   R10        2.05837  -0.00023   0.00021  -0.00070  -0.00048   2.05789
   R11        2.55020  -0.00376  -0.00448  -0.00420  -0.00862   2.54158
   R12        2.64332  -0.00160  -0.00485  -0.00409  -0.00896   2.63436
   R13        2.58501  -0.00830  -0.01450  -0.01612  -0.03068   2.55434
   R14        2.63582  -0.00157   0.00780   0.00398   0.01173   2.64754
   R15        2.05481   0.00008  -0.00071  -0.00081  -0.00151   2.05329
   R16        2.64178  -0.00379  -0.00363  -0.00937  -0.01304   2.62874
   R17        2.06134  -0.00033   0.00097  -0.00017   0.00080   2.06214
   R18        2.63070  -0.00159   0.00573   0.00279   0.00853   2.63923
   R19        2.05966  -0.00032   0.00124  -0.00002   0.00122   2.06088
   R20        2.05833  -0.00024   0.00017  -0.00064  -0.00046   2.05787
   R21        2.55027  -0.00377  -0.00454  -0.00432  -0.00880   2.54147
   R22        4.22925  -0.01053   0.04755   0.04869   0.09636   4.32561
   R23        4.23018  -0.01057   0.04738   0.04871   0.09622   4.32640
   R24        3.57053  -0.00049   0.00180   0.01592   0.01772   3.58825
   R25        3.62553  -0.00266  -0.01725  -0.01311  -0.03036   3.59516
   R26        3.62551  -0.00264  -0.01725  -0.01300  -0.03025   3.59526
   R27        5.26313  -0.02034  -0.14028  -0.21405  -0.35433   4.90879
   R28        2.20107  -0.00210  -0.00003  -0.00137  -0.00140   2.19967
   R29        2.19080  -0.00011   0.00288   0.00281   0.00569   2.19649
   R30        2.19072  -0.00007   0.00283   0.00284   0.00567   2.19639
    A1        2.14625   0.00028  -0.00669  -0.00299  -0.00946   2.13679
    A2        2.11658  -0.00120   0.00703   0.00125   0.00856   2.12514
    A3        2.02035   0.00092  -0.00031   0.00173   0.00091   2.02126
    A4        2.08624   0.00037  -0.00922  -0.00359  -0.01288   2.07336
    A5        2.10592  -0.00055   0.01335   0.00682   0.02020   2.12612
    A6        2.09102   0.00018  -0.00413  -0.00322  -0.00732   2.08370
    A7        2.07567  -0.00021   0.00241   0.00196   0.00428   2.07995
    A8        2.09515   0.00047  -0.00598  -0.00246  -0.00839   2.08676
    A9        2.11237  -0.00026   0.00357   0.00050   0.00411   2.11648
   A10        2.07301  -0.00109   0.00141  -0.00145  -0.00006   2.07295
   A11        2.12663   0.00009   0.00331   0.00102   0.00435   2.13098
   A12        2.08354   0.00101  -0.00472   0.00043  -0.00429   2.07926
   A13        2.11099   0.00040   0.00079   0.00002   0.00077   2.11175
   A14        2.14271  -0.00023  -0.00820  -0.00372  -0.01185   2.13086
   A15        2.02949  -0.00017   0.00742   0.00370   0.01108   2.04057
   A16        2.14595   0.00028  -0.00681  -0.00306  -0.00965   2.13631
   A17        2.02069   0.00092  -0.00017   0.00184   0.00116   2.02185
   A18        2.11653  -0.00120   0.00702   0.00121   0.00850   2.12503
   A19        2.08651   0.00037  -0.00908  -0.00355  -0.01270   2.07381
   A20        2.10523  -0.00056   0.01305   0.00663   0.01971   2.12494
   A21        2.09144   0.00019  -0.00397  -0.00307  -0.00701   2.08444
   A22        2.07546  -0.00021   0.00226   0.00190   0.00407   2.07953
   A23        2.09522   0.00047  -0.00592  -0.00243  -0.00830   2.08692
   A24        2.11250  -0.00026   0.00366   0.00052   0.00424   2.11674
   A25        2.07304  -0.00110   0.00146  -0.00145  -0.00001   2.07303
   A26        2.12633   0.00009   0.00315   0.00099   0.00416   2.13049
   A27        2.08381   0.00101  -0.00461   0.00046  -0.00414   2.07967
   A28        2.11091   0.00039   0.00073  -0.00001   0.00068   2.11159
   A29        2.14274  -0.00021  -0.00822  -0.00369  -0.01184   2.13090
   A30        2.02953  -0.00018   0.00749   0.00370   0.01116   2.04069
   A31        2.07209   0.00236   0.00658   0.00559   0.01196   2.08406
   A32        2.05147  -0.00170   0.00781   0.00534   0.01251   2.06398
   A33        2.15946  -0.00067  -0.01452  -0.01109  -0.02585   2.13361
   A34        2.07217   0.00237   0.00658   0.00554   0.01193   2.08410
   A35        2.05137  -0.00169   0.00791   0.00538   0.01270   2.06407
   A36        2.15952  -0.00068  -0.01456  -0.01105  -0.02585   2.13367
   A37        1.28041   0.00155  -0.01573  -0.01486  -0.03034   1.25006
   A38        1.66581  -0.00074  -0.02703  -0.02438  -0.05203   1.61378
   A39        1.71083   0.00004   0.01235   0.01715   0.02883   1.73965
   A40        1.47694  -0.00093  -0.00756  -0.02080  -0.02859   1.44835
   A41        1.66103  -0.00062  -0.02425  -0.01981  -0.04526   1.61577
   A42        1.71152  -0.00003   0.01156   0.01635   0.02725   1.73877
   A43        1.48041  -0.00093  -0.00934  -0.02152  -0.03135   1.44906
   A44        1.59022  -0.00032  -0.00037   0.00393   0.00445   1.59467
   A45        1.58963  -0.00021  -0.00051   0.00645   0.00627   1.59590
   A46        1.56880  -0.00136  -0.00223  -0.01538  -0.01870   1.55010
   A47        1.55170   0.00168   0.03008   0.03205   0.06258   1.61427
   A48        1.55075   0.00171   0.03140   0.03408   0.06545   1.61620
   A49        2.99192   0.00151  -0.00417   0.00149  -0.00309   2.98883
   A50        2.99123   0.00159  -0.00338   0.00228  -0.00152   2.98972
   A51        3.14275  -0.00167  -0.03459  -0.04517  -0.08062   3.06213
   A52        3.15493  -0.00126   0.02047  -0.06311  -0.04264   3.11229
   A53        3.11361  -0.00122   0.00822  -0.03400  -0.02578   3.08783
   A54        3.11389  -0.00125   0.00827  -0.03611  -0.02784   3.08605
   A55        3.03722   0.00079   0.02526   0.01548   0.04086   3.07809
   A56        3.24078  -0.00075  -0.02179  -0.01252  -0.03448   3.20630
   A57        3.14209   0.00114   0.02552   0.03002   0.05453   3.19661
   A58        3.12159   0.00130  -0.02761   0.06981   0.04220   3.16379
   A59        3.17324  -0.00105   0.03545  -0.10019  -0.06473   3.10850
   A60        3.10810   0.00112  -0.03473   0.10398   0.06926   3.17735
    D1       -3.13539  -0.00002  -0.00078   0.00070  -0.00049  -3.13587
    D2        0.00534   0.00001  -0.00122   0.00254   0.00109   0.00644
    D3        0.00127   0.00000   0.00515  -0.00141   0.00356   0.00483
    D4       -3.14118   0.00003   0.00470   0.00043   0.00514  -3.13605
    D5       -0.00059  -0.00003  -0.00155  -0.00146  -0.00303  -0.00363
    D6        3.13694   0.00000   0.00456  -0.00339   0.00134   3.13828
    D7       -3.13750  -0.00004  -0.00722   0.00054  -0.00687   3.13881
    D8        0.00003  -0.00001  -0.00110  -0.00139  -0.00250  -0.00247
    D9       -0.00111  -0.00003  -0.00083  -0.00139  -0.00197  -0.00309
   D10        3.12408  -0.00020  -0.02923  -0.01015  -0.04003   3.08405
   D11        3.13588  -0.00001   0.00464  -0.00337   0.00179   3.13767
   D12       -0.02211  -0.00018  -0.02375  -0.01212  -0.03627  -0.05838
   D13       -0.00063   0.00003  -0.00404   0.00351  -0.00051  -0.00113
   D14        3.14090  -0.00000  -0.00190   0.00059  -0.00124   3.13966
   D15       -3.14137   0.00001  -0.00360   0.00168  -0.00206   3.13976
   D16        0.00016  -0.00003  -0.00147  -0.00124  -0.00279  -0.00263
   D17       -0.00012  -0.00004  -0.00113  -0.00286  -0.00388  -0.00400
   D18       -3.13945  -0.00007  -0.00153  -0.00525  -0.00679   3.13694
   D19        3.14154  -0.00000  -0.00328   0.00009  -0.00314   3.13840
   D20        0.00220  -0.00004  -0.00368  -0.00230  -0.00604  -0.00384
   D21       -3.13911  -0.00002   0.00434  -0.00159   0.00253  -3.13658
   D22        0.00027   0.00001   0.00568   0.00006   0.00567   0.00594
   D23        0.00028   0.00002   0.00474   0.00074   0.00536   0.00564
   D24        3.13967   0.00004   0.00608   0.00239   0.00850  -3.13502
   D25        0.00034   0.00003  -0.00466   0.00208  -0.00273  -0.00240
   D26       -3.12377   0.00021   0.02579   0.01124   0.03650  -3.08727
   D27        3.13982   0.00005  -0.00339   0.00365   0.00027   3.14009
   D28        0.01571   0.00024   0.02705   0.01281   0.03950   0.05521
   D29        3.13733   0.00002   0.00043  -0.00170  -0.00080   3.13653
   D30       -0.00318  -0.00001   0.00040  -0.00340  -0.00275  -0.00593
   D31        0.00002  -0.00001  -0.00596   0.00034  -0.00542  -0.00540
   D32       -3.14049  -0.00004  -0.00599  -0.00137  -0.00736   3.13533
   D33       -3.13834   0.00001  -0.00369   0.00496   0.00071  -3.13763
   D34        0.02207   0.00020   0.02544   0.01425   0.04008   0.06215
   D35       -0.00074   0.00004   0.00223   0.00305   0.00501   0.00428
   D36       -3.12351   0.00023   0.03136   0.01234   0.04438  -3.07913
   D37        0.00093  -0.00003   0.00390  -0.00381   0.00007   0.00100
   D38       -3.14055  -0.00000   0.00109  -0.00067   0.00034  -3.14021
   D39        3.14145  -0.00001   0.00394  -0.00211   0.00199  -3.13975
   D40       -0.00003   0.00003   0.00113   0.00103   0.00225   0.00222
   D41       -0.00115   0.00005   0.00161   0.00388   0.00535   0.00420
   D42        3.13897   0.00008   0.00108   0.00596   0.00703  -3.13718
   D43        3.14033   0.00002   0.00443   0.00071   0.00509  -3.13777
   D44       -0.00274   0.00004   0.00391   0.00279   0.00676   0.00403
   D45        3.14043   0.00001  -0.00541   0.00120  -0.00397   3.13645
   D46        0.00045  -0.00002  -0.00553  -0.00049  -0.00596  -0.00552
   D47        0.00027  -0.00002  -0.00490  -0.00083  -0.00561  -0.00534
   D48       -3.13971  -0.00004  -0.00502  -0.00252  -0.00760   3.13588
   D49        0.00050  -0.00003   0.00357  -0.00299   0.00077   0.00128
   D50        3.12203  -0.00024  -0.02763  -0.01269  -0.03977   3.08226
   D51       -3.13955  -0.00005   0.00346  -0.00460  -0.00113  -3.14068
   D52       -0.01802  -0.00026  -0.02774  -0.01430  -0.04167  -0.05969
   D53       -0.02480  -0.00022  -0.02794  -0.01504  -0.04281  -0.06761
   D54       -1.66164   0.00010  -0.00888  -0.00033  -0.00990  -1.67154
   D55        3.01760   0.00053  -0.00615  -0.00252  -0.00833   3.00927
   D56        1.47945  -0.00104  -0.03440  -0.03035  -0.06442   1.41503
   D57        3.13664  -0.00006   0.00291  -0.00545  -0.00271   3.13393
   D58        1.49979   0.00026   0.02198   0.00926   0.03020   1.52999
   D59       -0.10414   0.00069   0.02470   0.00707   0.03176  -0.07238
   D60       -1.64229  -0.00087  -0.00354  -0.02076  -0.02433  -1.66662
   D61        0.02482   0.00021   0.02733   0.01426   0.04139   0.06620
   D62        1.66806  -0.00027   0.00473  -0.00646  -0.00068   1.66738
   D63       -3.01241  -0.00058   0.00207  -0.00123   0.00052  -3.01189
   D64       -1.47479   0.00102   0.03151   0.02867   0.05933  -1.41545
   D65       -3.13407   0.00007  -0.00278   0.00521   0.00258  -3.13148
   D66       -1.49082  -0.00042  -0.02538  -0.01551  -0.03948  -1.53031
   D67        0.11189  -0.00073  -0.02803  -0.01028  -0.03828   0.07361
   D68        1.64951   0.00088   0.00141   0.01962   0.02053   1.67004
         Item               Value     Threshold  Converged?
 Maximum Force            0.020338     0.000450     NO 
 RMS     Force            0.002454     0.000300     NO 
 Maximum Displacement     0.266758     0.001800     NO 
 RMS     Displacement     0.041581     0.001200     NO 
 Predicted change in Energy=-3.984520D-03
 Lowest energy point so far.  Saving SCF results.
 GradGradGradGradGradGradGradGradGradGradGradGradGradGradGradGradGradGrad

 Leave Link  103 at Mon Nov 17 10:49:40 2025, MaxMem=  2684354560 cpu:               1.1 elap:               0.1
 (Enter /home/programes/qq/gaussian/g16.A03/g16/l202.exe)
                          Input orientation:                          
 ---------------------------------------------------------------------
 Center     Atomic      Atomic             Coordinates (Angstroms)
 Number     Number       Type             X           Y           Z
 ---------------------------------------------------------------------
      1          6           0       -2.277959    0.303474    0.039496
      2          6           0       -0.887667    0.338074   -0.060022
      3          6           0       -0.240514    1.580501   -0.041621
      4          6           0       -1.001090    2.739587    0.073616
      5          6           0       -2.390179    2.625988    0.162612
      6          6           0       -3.053584   -0.981798    0.035475
      7          6           0       -2.435737   -2.226793   -0.072313
      8          6           0       -3.232343   -3.379254   -0.062005
      9          6           0       -4.612347   -3.248007    0.053905
     10          6           0       -5.160023   -1.966952    0.151372
     11          1           0       -0.296986   -0.569629   -0.151654
     12          1           0        0.847299    1.622079   -0.116882
     13          1           0       -0.546851    3.730812    0.097071
     14          1           0       -3.020694    3.509640    0.249237
     15          1           0       -1.357455   -2.323923   -0.164384
     16          1           0       -2.761416   -4.360196   -0.144341
     17          1           0       -5.276790   -4.112623    0.071049
     18          1           0       -6.235813   -1.822314    0.238686
     19          7           0       -4.395539   -0.860509    0.142853
     20          7           0       -3.011986    1.433515    0.147077
     21         75           0       -5.293252    1.244650    0.187626
     22          6           0       -5.347294    1.269966    2.085508
     23          6           0       -7.142133    0.805832    0.095401
     24          6           0       -5.766380    3.085414    0.101823
     25          8           0       -5.339004    1.279735    3.249455
     26          8           0       -8.256603    0.476375    0.074582
     27          8           0       -5.992152    4.225474    0.088168
     28         17           0       -5.008504    1.075891   -2.388821
 ---------------------------------------------------------------------
                    Distance matrix (angstroms):
                    1          2          3          4          5
     1  C    0.000000
     2  C    1.394279   0.000000
     3  C    2.405943   1.400989   0.000000
     4  C    2.750673   2.407901   1.391128   0.000000
     5  C    2.328480   2.746208   2.399128   1.396565   0.000000
     6  C    1.501178   2.538184   3.805875   4.250047   3.670476
     7  C    2.537646   2.995866   4.394932   5.171502   4.858677
     8  C    3.805737   4.395001   5.792290   6.514376   6.068165
     9  C    4.250011   5.171672   6.514333   6.992342   6.281215
    10  C    3.670646   4.859100   6.068215   6.281264   5.363512
    11  H    2.173270   1.086842   2.153684   3.390785   3.833039
    12  H    3.395646   2.159169   1.091206   2.168331   3.401061
    13  H    3.840142   3.413430   2.176445   1.090601   2.150067
    14  H    3.297748   3.834615   3.396406   2.168553   1.088987
    15  H    2.791436   2.705148   4.062900   5.081612   5.067057
    16  H    4.692264   5.058832   6.454253   7.318003   7.002771
    17  H    5.338155   6.252223   7.601871   8.076782   7.331425
    18  H    4.497028   5.775739   6.899372   6.945539   5.880653
    19  N    2.418612   3.712536   4.822530   4.948512   4.022129
    20  N    1.351799   2.399085   2.781774   2.398942   1.344945
    21  Re   3.162237   4.504707   5.069074   4.546481   3.215051
    22  C    3.813278   5.035870   5.540786   5.009689   3.779002
    23  C    4.890365   6.273857   6.946310   6.438345   5.089061
    24  C    4.462303   5.601420   5.728921   4.777905   3.407858
    25  O    4.541686   5.626167   6.075873   5.570872   4.476222
    26  O    5.981246   7.371462   8.092606   7.600302   6.248480
    27  O    5.401822   6.417912   6.331987   5.207568   3.941840
    28  Cl   3.734866   4.790509   5.338325   4.989072   3.970924
                    6          7          8          9         10
     6  C    0.000000
     7  C    1.394046   0.000000
     8  C    2.406086   1.401019   0.000000
     9  C    2.750596   2.407580   1.391068   0.000000
    10  C    2.328314   2.745776   2.399182   1.396621   0.000000
    11  H    2.793516   2.706795   4.064277   5.083139   5.068872
    12  H    4.692577   5.059064   6.454442   7.318104   7.002930
    13  H    5.338183   6.252170   7.601987   8.076758   7.331358
    14  H    4.496642   5.775139   6.899168   6.945308   5.880422
    15  H    2.172118   1.086556   2.153929   3.390561   3.832317
    16  H    3.395771   2.159320   1.091237   2.168458   3.401232
    17  H    3.840049   3.412989   2.176074   1.090569   2.150347
    18  H    3.297627   3.834175   3.396367   2.168499   1.088975
    19  N    1.351697   2.398719   2.781918   2.398971   1.344888
    20  N    2.418248   3.711879   4.822345   4.948382   4.022096
    21  Re   3.161698   4.503762   5.068544   4.545929   3.214568
    22  C    3.812372   5.035938   5.540764   5.007957   3.775392
    23  C    4.462672   5.601348   5.729412   4.778613   3.408844
    24  C    4.889364   6.272403   6.945510   6.437881   5.088863
    25  O    4.546135   5.635498   6.091794   5.589277   4.491227
    26  O    5.403628   6.419592   6.334643   5.210762   3.945193
    27  O    5.979435   7.369232   8.091414   7.599865   6.248405
    28  Cl   3.732694   4.784669   5.330772   4.981961   3.966665
                   11         12         13         14         15
    11  H    0.000000
    12  H    2.472687   0.000000
    13  H    4.314868   2.536964   0.000000
    14  H    4.921355   4.319526   2.488367   0.000000
    15  H    2.049952   4.520413   6.114348   6.080124   0.000000
    16  H    4.521268   6.986501   8.392078   7.883936   2.473442
    17  H    6.115624   8.392056   9.159283   7.951139   4.314634
    18  H    6.082043   7.884209   7.951198   6.226301   4.920615
    19  N    4.119403   5.806725   5.991220   4.582544   3.386138
    20  N    3.387189   3.872895   3.370009   2.078655   4.117381
    21  Re   5.326292   6.159671   5.358873   3.209127   5.324390
    22  C    5.821908   6.583882   5.749252   3.714983   5.822102
    23  C    6.986341   8.033825   7.214794   4.931582   6.582199
    24  C    6.583150   6.777163   5.259281   2.782173   6.983582
    25  O    6.356857   7.051225   6.237790   4.398675   6.363441
    26  O    8.031239   9.177708   8.368520   6.053589   7.449632
    27  O    7.448855   7.321052   5.467730   3.060706   8.027379
    28  Cl   5.469100   6.304797   5.756267   4.102910   5.462327
                   16         17         18         19         20
    16  H    0.000000
    17  H    2.536689   0.000000
    18  H    4.319605   2.488643   0.000000
    19  N    3.873067   3.370164   2.078668   0.000000
    20  N    5.806444   5.991224   4.582780   2.678952   0.000000
    21  Re   6.159114   5.358566   3.208940   2.289014   2.289430
    22  C    6.584657   5.747632   3.709772   3.036226   3.039396
    23  C    6.777610   5.260351   2.783719   3.212898   4.177890
    24  C    8.032902   7.214734   4.932027   4.177463   3.212087
    25  O    7.068990   6.259685   4.414941   3.888669   3.881160
    26  O    7.323757   5.471581   3.065043   4.086530   5.331733
    27  O    9.176352   8.368745   6.054566   5.330983   4.084103
    28  Cl   6.295882   5.748357   4.099960   3.245726   3.247269
                   21         22         23         24         25
    21  Re   0.000000
    22  C    1.898820   0.000000
    23  C    1.902479   2.719814   0.000000
    24  C    1.902531   2.721487   2.662561   0.000000
    25  O    3.062372   1.164017   3.663865   3.653862   0.000000
    26  O    3.063408   3.624594   1.162333   3.606804   4.386067
    27  O    3.063277   3.624947   3.607833   1.162281   4.370093
    28  Cl   2.597621   4.491332   3.285827   3.288749   5.651631
                   26         27         28
    26  O    0.000000
    27  O    4.379916   0.000000
    28  Cl   4.120427   4.125883   0.000000
 Symmetry turned off by external request.
 Stoichiometry    C13H8ClN2O3Re
 Framework group  C1[X(C13H8ClN2O3Re)]
 Deg. of freedom    78
 Full point group                 C1      NOp   1
 Rotational constants (GHZ):           0.3390080           0.2684191           0.1996928
 Leave Link  202 at Mon Nov 17 10:49:40 2025, MaxMem=  2684354560 cpu:               0.1 elap:               0.0
 (Enter /home/programes/qq/gaussian/g16.A03/g16/l301.exe)
 Basis read from rwf:  (5D, 7F)
 Pseudo-potential data read from rwf file.
   339 basis functions,   774 primitive gaussians,   363 cartesian basis functions
    78 alpha electrons       78 beta electrons
       nuclear repulsion energy      1757.3275242356 Hartrees.
 IExCor=  402 DFT=T Ex+Corr=B3LYP ExCW=0 ScaHFX=  0.200000
 ScaDFX=  0.800000  0.720000  1.000000  0.810000 ScalE2=  1.000000  1.000000
 IRadAn=      5 IRanWt=     -1 IRanGd=            0 ICorTp=0 IEmpDi=141
 NAtoms=   28 NActive=   28 NUniq=   28 SFac= 1.00D+00 NAtFMM=   60 NAOKFM=F Big=F
 Integral buffers will be    131072 words long.
 Raffenetti 2 integral format.
 Two-electron integral symmetry is turned off.
 R6Disp:  Grimme-D3(BJ) Dispersion energy=       -0.0828877963 Hartrees.
 Nuclear repulsion after empirical dispersion term =     1757.2446364392 Hartrees.
 No density basis found on file   724.
 ------------------------------------------------------------------------------
 Polarizable Continuum Model (PCM)
 =================================
 Model                : PCM.
 Atomic radii         : UFF (Universal Force Field).
 Polarization charges : Total charges.
 Charge compensation  : None.
 Solution method      : On-the-fly selection.
 Cavity type          : Scaled VdW (van der Waals Surface) (Alpha=1.100).
 Cavity algorithm     : GePol (No added spheres)
                        Default sphere list used, NSphG=   28.
                        Lebedev-Laikov grids with approx.  5.0 points / Ang**2.
                        Smoothing algorithm: York/Karplus (Gamma=1.0000).
                        Polarization charges: spherical gaussians, with
                                              point-specific exponents (IZeta= 3).
                        Self-potential: point-specific (ISelfS= 7).
                        Self-field    : sphere-specific E.n sum rule (ISelfD= 2).
 1st derivatives      : Analytical E(r).r(x)/FMM algorithm (CHGder, D1EAlg=3).
                        Cavity 1st derivative terms included.
 Solvent              : n,n-DiMethylFormamide, Eps=  37.219000 Eps(inf)=   2.046330
 ------------------------------------------------------------------------------
 GePol: Number of generator spheres                  =      28
 GePol: Total number of spheres                      =      28
 GePol: Number of exposed spheres                    =      27 ( 96.43%)
 GePol: Number of points                             =    2571
 GePol: Average weight of points                     =       0.13
 GePol: Minimum weight of points                     =   0.82D-10
 GePol: Maximum weight of points                     =    0.21616
 GePol: Number of points with low weight             =     116
 GePol: Fraction of low-weight points (<1% of avg)   =       4.51%
 GePol: Cavity surface area                          =    341.855 Ang**2
 GePol: Cavity volume                                =    378.008 Ang**3
 Leave Link  301 at Mon Nov 17 10:49:40 2025, MaxMem=  2684354560 cpu:               1.2 elap:               0.0
 (Enter /home/programes/qq/gaussian/g16.A03/g16/l302.exe)
 NPDir=0 NMtPBC=     1 NCelOv=     1 NCel=       1 NClECP=     1 NCelD=      1
         NCelK=      1 NCelE2=     1 NClLst=     1 CellRange=     0.0.
 One-electron integrals computed using PRISM.
   1 Symmetry operations used in ECPInt.
 ECPInt:  NShTT=   11175 NPrTT=  105620 LenC2=   10460 LenP2D=   51136.
 LDataN:  DoStor=T MaxTD1= 7 Len=  274
 NBasis=   339 RedAO= T EigKep=  3.67D-04  NBF=   339
 NBsUse=   339 1.00D-06 EigRej= -1.00D+00 NBFU=   339
 Precomputing XC quadrature grid using
 IXCGrd= 4 IRadAn=           5 IRanWt=          -1 IRanGd=           0 AccXCQ= 0.00D+00.
 Defaulting to unpruned grid for atomic number  75.
 Generated NRdTot=       0 NPtTot=           0 NUsed=           0 NTot=          32
 NSgBfM=   363   363   363   363   363 MxSgAt=    28 MxSgA2=    28.
 Leave Link  302 at Mon Nov 17 10:49:41 2025, MaxMem=  2684354560 cpu:              12.1 elap:               0.4
 (Enter /home/programes/qq/gaussian/g16.A03/g16/l303.exe)
 DipDrv:  MaxL=1.
 Leave Link  303 at Mon Nov 17 10:49:41 2025, MaxMem=  2684354560 cpu:               1.1 elap:               0.1
 (Enter /home/programes/qq/gaussian/g16.A03/g16/l401.exe)
 Initial guess from the checkpoint file:  "re-bpy-co3-cl.chk"
 B after Tr=    -0.014503    0.007871    0.032637
         Rot=    0.999994    0.001635    0.003073    0.000059 Ang=   0.40 deg.
 Guess basis will be translated and rotated to current coordinates.
 JPrj=2 DoOrth=T DoCkMO=T.
 Generating alternative initial guess.
 ExpMin= 2.80D-02 ExpMax= 1.28D+05 ExpMxC= 1.24D+03 IAcc=3 IRadAn=         5 AccDes= 0.00D+00
 Harris functional with IExCor=  402 and IRadAn=       5 diagonalized for initial guess.
 HarFok:  IExCor=  402 AccDes= 0.00D+00 IRadAn=         5 IDoV= 1 UseB2=F ITyADJ=14
 ICtDFT=  3500011 ScaDFX=  1.000000  1.000000  1.000000  1.000000
 Defaulting to unpruned grid for atomic number  75.
 FoFCou: FMM=F IPFlag=           0 FMFlag=      100000 FMFlg1=           0
         NFxFlg=           0 DoJE=T BraDBF=F KetDBF=T FulRan=T
         wScrn=  0.000000 ICntrl=       500 IOpCl=  0 I1Cent=   200000004 NGrid=           0
         NMat0=    1 NMatS0=      1 NMatT0=    0 NMatD0=    1 NMtDS0=    0 NMtDT0=    0
 Symmetry not used in FoFCou.
 Harris En= -1374.75251563901    
 Leave Link  401 at Mon Nov 17 10:49:42 2025, MaxMem=  2684354560 cpu:              30.5 elap:               1.0
 (Enter /home/programes/qq/gaussian/g16.A03/g16/l502.exe)
 Two-electron integral symmetry not used.
 Closed shell SCF:
 Using DIIS extrapolation, IDIIS=  1040.
 NGot=  2684354560 LenX=  2684076439 LenY=  2683944229
 Requested convergence on RMS density matrix=1.00D-08 within 128 cycles.
 Requested convergence on MAX density matrix=1.00D-06.
 Requested convergence on             energy=1.00D-06.
 No special actions if energy rises.
 Fock matrices will be formed incrementally for  20 cycles.

 Cycle   1  Pass 1  IDiag  1:
 FoFJK:  IHMeth= 1 ICntrl=       0 DoSepK=F KAlg= 0 I1Cent=           0 FoldK=F
 IRaf= 870000000 NMat=       1 IRICut=       1 DoRegI=T DoRafI=F ISym2E= 0 IDoP0=0 IntGTp=1.
 FoFCou: FMM=F IPFlag=           0 FMFlag=      100000 FMFlg1=           0
         NFxFlg=           0 DoJE=F BraDBF=F KetDBF=F FulRan=T
         wScrn=  0.000000 ICntrl=         0 IOpCl=  0 I1Cent=           0 NGrid=           0
         NMat0=    1 NMatS0=      1 NMatT0=    0 NMatD0=    1 NMtDS0=    0 NMtDT0=    0
 Symmetry not used in FoFCou.
 Defaulting to unpruned grid for atomic number  75.
 Defaulting to unpruned grid for atomic number  75.
 Defaulting to unpruned grid for atomic number  75.
 Defaulting to unpruned grid for atomic number  75.
 Defaulting to unpruned grid for atomic number  75.
 Defaulting to unpruned grid for atomic number  75.
 Defaulting to unpruned grid for atomic number  75.
 Defaulting to unpruned grid for atomic number  75.
 Defaulting to unpruned grid for atomic number  75.
 Defaulting to unpruned grid for atomic number  75.
 Defaulting to unpruned grid for atomic number  75.
 Defaulting to unpruned grid for atomic number  75.
 Defaulting to unpruned grid for atomic number  75.
 Defaulting to unpruned grid for atomic number  75.
 Defaulting to unpruned grid for atomic number  75.
 Defaulting to unpruned grid for atomic number  75.
 Defaulting to unpruned grid for atomic number  75.
 Defaulting to unpruned grid for atomic number  75.
 Defaulting to unpruned grid for atomic number  75.
 Defaulting to unpruned grid for atomic number  75.
 Defaulting to unpruned grid for atomic number  75.
 Defaulting to unpruned grid for atomic number  75.
 Defaulting to unpruned grid for atomic number  75.
 Defaulting to unpruned grid for atomic number  75.
 Defaulting to unpruned grid for atomic number  75.
 Defaulting to unpruned grid for atomic number  75.
 Defaulting to unpruned grid for atomic number  75.
 Defaulting to unpruned grid for atomic number  75.
 Defaulting to unpruned grid for atomic number  75.
 Defaulting to unpruned grid for atomic number  75.
 Defaulting to unpruned grid for atomic number  75.
 Defaulting to unpruned grid for atomic number  75.
 Inv3:  Mode=1 IEnd=    19830123.
 Iteration    1 A*A^-1 deviation from unit magnitude is 8.66D-15 for    361.
 Iteration    1 A*A^-1 deviation from orthogonality  is 3.56D-15 for   1260     13.
 Iteration    1 A^-1*A deviation from unit magnitude is 8.66D-15 for    348.
 Iteration    1 A^-1*A deviation from orthogonality  is 2.35D-15 for   2078    344.
 E= -1375.04548328579    
 DIIS: error= 6.00D-03 at cycle   1 NSaved=   1.
 NSaved= 1 IEnMin= 1 EnMin= -1375.04548328579     IErMin= 1 ErrMin= 6.00D-03
 ErrMax= 6.00D-03  0.00D+00 EMaxC= 1.00D-01 BMatC= 1.61D-02 BMatP= 1.61D-02
 IDIUse=3 WtCom= 9.40D-01 WtEn= 6.00D-02
 Coeff-Com:  0.100D+01
 Coeff-En:   0.100D+01
 Coeff:      0.100D+01
 Gap=     0.610 Goal=   None    Shift=    0.000
 GapD=    0.610 DampG=2.000 DampE=1.000 DampFc=2.0000 IDamp=-1.
 RMSDP=7.30D-04 MaxDP=2.67D-02              OVMax= 3.49D-02

 Cycle   2  Pass 1  IDiag  1:
 RMSU=  7.30D-04    CP:  9.99D-01
 E= -1375.06503189397     Delta-E=       -0.019548608184 Rises=F Damp=F
 DIIS: error= 1.28D-03 at cycle   2 NSaved=   2.
 NSaved= 2 IEnMin= 2 EnMin= -1375.06503189397     IErMin= 2 ErrMin= 1.28D-03
 ErrMax= 1.28D-03  0.00D+00 EMaxC= 1.00D-01 BMatC= 9.94D-04 BMatP= 1.61D-02
 IDIUse=3 WtCom= 9.87D-01 WtEn= 1.28D-02
 Coeff-Com:  0.319D-01 0.968D+00
 Coeff-En:   0.000D+00 0.100D+01
 Coeff:      0.315D-01 0.969D+00
 Gap=     0.141 Goal=   None    Shift=    0.000
 RMSDP=2.67D-04 MaxDP=1.22D-02 DE=-1.95D-02 OVMax= 1.75D-02

 Cycle   3  Pass 1  IDiag  1:
 RMSU=  2.61D-04    CP:  1.00D+00  9.22D-01
 E= -1375.06313912298     Delta-E=        0.001892770988 Rises=F Damp=F
 DIIS: error= 2.27D-03 at cycle   3 NSaved=   3.
 NSaved= 3 IEnMin= 2 EnMin= -1375.06503189397     IErMin= 2 ErrMin= 1.28D-03
 ErrMax= 2.27D-03  0.00D+00 EMaxC= 1.00D-01 BMatC= 3.11D-03 BMatP= 9.94D-04
 IDIUse=3 WtCom= 1.73D-01 WtEn= 8.27D-01
 Coeff-Com: -0.282D-01 0.666D+00 0.362D+00
 Coeff-En:   0.000D+00 0.722D+00 0.278D+00
 Coeff:     -0.490D-02 0.712D+00 0.293D+00
 Gap=     0.139 Goal=   None    Shift=    0.000
 RMSDP=1.52D-04 MaxDP=9.73D-03 DE= 1.89D-03 OVMax= 1.33D-02

 Cycle   4  Pass 1  IDiag  1:
 RMSU=  6.79D-05    CP:  9.99D-01  9.76D-01  5.03D-01
 E= -1375.06586473868     Delta-E=       -0.002725615692 Rises=F Damp=F
 DIIS: error= 4.73D-04 at cycle   4 NSaved=   4.
 NSaved= 4 IEnMin= 4 EnMin= -1375.06586473868     IErMin= 4 ErrMin= 4.73D-04
 ErrMax= 4.73D-04  0.00D+00 EMaxC= 1.00D-01 BMatC= 1.60D-04 BMatP= 9.94D-04
 IDIUse=3 WtCom= 9.95D-01 WtEn= 4.73D-03
 Coeff-Com: -0.226D-01 0.393D+00 0.187D+00 0.443D+00
 Coeff-En:   0.000D+00 0.000D+00 0.000D+00 0.100D+01
 Coeff:     -0.225D-01 0.391D+00 0.186D+00 0.445D+00
 Gap=     0.140 Goal=   None    Shift=    0.000
 RMSDP=5.82D-05 MaxDP=4.05D-03 DE=-2.73D-03 OVMax= 5.38D-03

 Cycle   5  Pass 1  IDiag  1:
 RMSU=  3.29D-05    CP:  9.99D-01  1.00D+00  4.50D-01  3.98D-01
 E= -1375.06594982510     Delta-E=       -0.000085086418 Rises=F Damp=F
 DIIS: error= 4.27D-04 at cycle   5 NSaved=   5.
 NSaved= 5 IEnMin= 5 EnMin= -1375.06594982510     IErMin= 5 ErrMin= 4.27D-04
 ErrMax= 4.27D-04  0.00D+00 EMaxC= 1.00D-01 BMatC= 6.89D-05 BMatP= 1.60D-04
 IDIUse=3 WtCom= 9.96D-01 WtEn= 4.27D-03
 Coeff-Com: -0.104D-01 0.151D+00 0.619D-01 0.373D+00 0.425D+00
 Coeff-En:   0.000D+00 0.000D+00 0.000D+00 0.341D+00 0.659D+00
 Coeff:     -0.103D-01 0.151D+00 0.617D-01 0.372D+00 0.426D+00
 Gap=     0.140 Goal=   None    Shift=    0.000
 RMSDP=2.20D-05 MaxDP=1.89D-03 DE=-8.51D-05 OVMax= 2.20D-03

 Cycle   6  Pass 1  IDiag  1:
 RMSU=  1.19D-05    CP:  9.99D-01  1.01D+00  4.45D-01  5.64D-01  5.63D-01
 E= -1375.06601009017     Delta-E=       -0.000060265076 Rises=F Damp=F
 DIIS: error= 8.15D-05 at cycle   6 NSaved=   6.
 NSaved= 6 IEnMin= 6 EnMin= -1375.06601009017     IErMin= 6 ErrMin= 8.15D-05
 ErrMax= 8.15D-05  0.00D+00 EMaxC= 1.00D-01 BMatC= 3.43D-06 BMatP= 6.89D-05
 IDIUse=1 WtCom= 1.00D+00 WtEn= 0.00D+00
 Coeff-Com: -0.285D-02 0.296D-01 0.743D-02 0.161D+00 0.249D+00 0.556D+00
 Coeff:     -0.285D-02 0.296D-01 0.743D-02 0.161D+00 0.249D+00 0.556D+00
 Gap=     0.140 Goal=   None    Shift=    0.000
 RMSDP=6.38D-06 MaxDP=2.82D-04 DE=-6.03D-05 OVMax= 5.28D-04

 Cycle   7  Pass 1  IDiag  1:
 RMSU=  4.74D-06    CP:  9.99D-01  1.01D+00  4.52D-01  5.83D-01  5.80D-01
                    CP:  7.03D-01
 E= -1375.06601260049     Delta-E=       -0.000002510318 Rises=F Damp=F
 DIIS: error= 2.46D-05 at cycle   7 NSaved=   7.
 NSaved= 7 IEnMin= 7 EnMin= -1375.06601260049     IErMin= 7 ErrMin= 2.46D-05
 ErrMax= 2.46D-05  0.00D+00 EMaxC= 1.00D-01 BMatC= 5.11D-07 BMatP= 3.43D-06
 IDIUse=1 WtCom= 1.00D+00 WtEn= 0.00D+00
 Coeff-Com:  0.142D-03-0.948D-02-0.674D-02 0.302D-01 0.745D-01 0.333D+00
 Coeff-Com:  0.579D+00
 Coeff:      0.142D-03-0.948D-02-0.674D-02 0.302D-01 0.745D-01 0.333D+00
 Coeff:      0.579D+00
 Gap=     0.140 Goal=   None    Shift=    0.000
 RMSDP=2.54D-06 MaxDP=1.18D-04 DE=-2.51D-06 OVMax= 3.14D-04

 Cycle   8  Pass 1  IDiag  1:
 RMSU=  1.00D-06    CP:  9.99D-01  1.01D+00  4.51D-01  5.92D-01  6.11D-01
                    CP:  7.66D-01  6.11D-01
 E= -1375.06601315744     Delta-E=       -0.000000556948 Rises=F Damp=F
 DIIS: error= 4.59D-06 at cycle   8 NSaved=   8.
 NSaved= 8 IEnMin= 8 EnMin= -1375.06601315744     IErMin= 8 ErrMin= 4.59D-06
 ErrMax= 4.59D-06  0.00D+00 EMaxC= 1.00D-01 BMatC= 1.33D-08 BMatP= 5.11D-07
 IDIUse=1 WtCom= 1.00D+00 WtEn= 0.00D+00
 Coeff-Com:  0.207D-03-0.551D-02-0.255D-02 0.100D-02 0.121D-01 0.821D-01
 Coeff-Com:  0.215D+00 0.697D+00
 Coeff:      0.207D-03-0.551D-02-0.255D-02 0.100D-02 0.121D-01 0.821D-01
 Coeff:      0.215D+00 0.697D+00
 Gap=     0.140 Goal=   None    Shift=    0.000
 RMSDP=5.20D-07 MaxDP=3.19D-05 DE=-5.57D-07 OVMax= 4.44D-05

 Cycle   9  Pass 1  IDiag  1:
 RMSU=  3.67D-07    CP:  9.99D-01  1.01D+00  4.52D-01  5.91D-01  6.11D-01
                    CP:  7.74D-01  6.58D-01  7.83D-01
 E= -1375.06601317168     Delta-E=       -0.000000014239 Rises=F Damp=F
 DIIS: error= 2.30D-06 at cycle   9 NSaved=   9.
 NSaved= 9 IEnMin= 9 EnMin= -1375.06601317168     IErMin= 9 ErrMin= 2.30D-06
 ErrMax= 2.30D-06  0.00D+00 EMaxC= 1.00D-01 BMatC= 2.04D-09 BMatP= 1.33D-08
 IDIUse=1 WtCom= 1.00D+00 WtEn= 0.00D+00
 Coeff-Com:  0.101D-03-0.231D-02-0.845D-03-0.161D-02 0.128D-02 0.205D-01
 Coeff-Com:  0.757D-01 0.363D+00 0.544D+00
 Coeff:      0.101D-03-0.231D-02-0.845D-03-0.161D-02 0.128D-02 0.205D-01
 Coeff:      0.757D-01 0.363D+00 0.544D+00
 Gap=     0.140 Goal=   None    Shift=    0.000
 RMSDP=1.64D-07 MaxDP=8.55D-06 DE=-1.42D-08 OVMax= 1.13D-05

 Cycle  10  Pass 1  IDiag  1:
 RMSU=  1.19D-07    CP:  9.99D-01  1.01D+00  4.52D-01  5.91D-01  6.12D-01
                    CP:  7.74D-01  6.62D-01  8.50D-01  7.99D-01
 E= -1375.06601317352     Delta-E=       -0.000000001844 Rises=F Damp=F
 DIIS: error= 1.08D-06 at cycle  10 NSaved=  10.
 NSaved=10 IEnMin=10 EnMin= -1375.06601317352     IErMin=10 ErrMin= 1.08D-06
 ErrMax= 1.08D-06  0.00D+00 EMaxC= 1.00D-01 BMatC= 4.25D-10 BMatP= 2.04D-09
 IDIUse=1 WtCom= 1.00D+00 WtEn= 0.00D+00
 Coeff-Com:  0.203D-04-0.303D-03 0.938D-05-0.120D-02-0.173D-02-0.396D-02
 Coeff-Com:  0.456D-02 0.945D-01 0.335D+00 0.573D+00
 Coeff:      0.203D-04-0.303D-03 0.938D-05-0.120D-02-0.173D-02-0.396D-02
 Coeff:      0.456D-02 0.945D-01 0.335D+00 0.573D+00
 Gap=     0.140 Goal=   None    Shift=    0.000
 RMSDP=6.87D-08 MaxDP=4.09D-06 DE=-1.84D-09 OVMax= 6.31D-06

 Cycle  11  Pass 1  IDiag  1:
 RMSU=  4.92D-08    CP:  9.99D-01  1.01D+00  4.52D-01  5.91D-01  6.12D-01
                    CP:  7.75D-01  6.63D-01  8.68D-01  8.57D-01  8.05D-01
 E= -1375.06601317387     Delta-E=       -0.000000000346 Rises=F Damp=F
 DIIS: error= 3.44D-07 at cycle  11 NSaved=  11.
 NSaved=11 IEnMin=11 EnMin= -1375.06601317387     IErMin=11 ErrMin= 3.44D-07
 ErrMax= 3.44D-07  0.00D+00 EMaxC= 1.00D-01 BMatC= 4.95D-11 BMatP= 4.25D-10
 IDIUse=1 WtCom= 1.00D+00 WtEn= 0.00D+00
 Coeff-Com: -0.124D-05 0.150D-03 0.121D-03-0.466D-03-0.112D-02-0.505D-02
 Coeff-Com: -0.768D-02 0.365D-02 0.115D+00 0.327D+00 0.568D+00
 Coeff:     -0.124D-05 0.150D-03 0.121D-03-0.466D-03-0.112D-02-0.505D-02
 Coeff:     -0.768D-02 0.365D-02 0.115D+00 0.327D+00 0.568D+00
 Gap=     0.140 Goal=   None    Shift=    0.000
 RMSDP=2.44D-08 MaxDP=1.79D-06 DE=-3.46D-10 OVMax= 2.11D-06

 Cycle  12  Pass 1  IDiag  1:
 RMSU=  1.25D-08    CP:  9.99D-01  1.01D+00  4.52D-01  5.91D-01  6.12D-01
                    CP:  7.75D-01  6.64D-01  8.71D-01  8.93D-01  8.38D-01
                    CP:  7.18D-01
 E= -1375.06601317393     Delta-E=       -0.000000000064 Rises=F Damp=F
 DIIS: error= 8.28D-08 at cycle  12 NSaved=  12.
 NSaved=12 IEnMin=12 EnMin= -1375.06601317393     IErMin=12 ErrMin= 8.28D-08
 ErrMax= 8.28D-08  0.00D+00 EMaxC= 1.00D-01 BMatC= 2.49D-12 BMatP= 4.95D-11
 IDIUse=1 WtCom= 1.00D+00 WtEn= 0.00D+00
 Coeff-Com: -0.204D-05 0.934D-04 0.560D-04-0.138D-03-0.408D-03-0.213D-02
 Coeff-Com: -0.389D-02-0.432D-02 0.318D-01 0.113D+00 0.260D+00 0.606D+00
 Coeff:     -0.204D-05 0.934D-04 0.560D-04-0.138D-03-0.408D-03-0.213D-02
 Coeff:     -0.389D-02-0.432D-02 0.318D-01 0.113D+00 0.260D+00 0.606D+00
 Gap=     0.140 Goal=   None    Shift=    0.000
 RMSDP=6.27D-09 MaxDP=3.22D-07 DE=-6.37D-11 OVMax= 6.39D-07

 Error on total polarization charges =  0.01126
 SCF Done:  E(RB3LYP) =  -1375.06601317     A.U. after   12 cycles
            NFock= 12  Conv=0.63D-08     -V/T= 2.0464
 KE= 1.314137185789D+03 PE=-6.716546139596D+03 EE= 2.270098304194D+03
 Leave Link  502 at Mon Nov 17 10:50:13 2025, MaxMem=  2684354560 cpu:             939.9 elap:              31.1
 (Enter /home/programes/qq/gaussian/g16.A03/g16/l701.exe)
 ... and contract with generalized density number  0.
 Compute integral first derivatives.
 R6Disp: Adding Grimme-D3(BJ) dispersion energy 1st derivatives to the gradient.
   1 Symmetry operations used in ECPInt.
 ECPInt:  NShTT=   11175 NPrTT=  105620 LenC2=   10460 LenP2D=   51136.
 LDataN:  DoStor=T MaxTD1= 8 Len=  415
 D1PCM: PCM CHGder 1st derivatives, ID1Alg=3 FixD1E=F DoIter=F DoCFld=F I1PDM=0.
 GePol: Maximum number of non-zero 1st derivatives   =     253
 Leave Link  701 at Mon Nov 17 10:50:15 2025, MaxMem=  2684354560 cpu:              43.7 elap:               1.4
 (Enter /home/programes/qq/gaussian/g16.A03/g16/l702.exe)
 L702 exits ... SP integral derivatives will be done elsewhere.
 Leave Link  702 at Mon Nov 17 10:50:15 2025, MaxMem=  2684354560 cpu:               0.4 elap:               0.0
 (Enter /home/programes/qq/gaussian/g16.A03/g16/l703.exe)
 Integral derivatives from FoFJK, PRISM(SPDF).
 Compute integral first derivatives, UseDBF=F ICtDFT=           0.
 Calling FoFJK, ICntrl=      2127 FMM=F ISym2X=0 I1Cent= 0 IOpClX= 0 NMat=1 NMatS=1 NMatT=0.
 FoFJK:  IHMeth= 1 ICntrl=    2127 DoSepK=F KAlg= 0 I1Cent=           0 FoldK=F
 IRaf=         0 NMat=       1 IRICut=       1 DoRegI=T DoRafI=F ISym2E= 0 IDoP0=0 IntGTp=1.
 FoFCou: FMM=F IPFlag=           0 FMFlag=      100000 FMFlg1=         800
         NFxFlg=           0 DoJE=F BraDBF=F KetDBF=F FulRan=T
         wScrn=  0.000000 ICntrl=      2127 IOpCl=  0 I1Cent=           0 NGrid=           0
         NMat0=    1 NMatS0=      1 NMatT0=    0 NMatD0=    1 NMtDS0=    0 NMtDT0=    0
 Symmetry not used in FoFCou.
 Defaulting to unpruned grid for atomic number  75.
 Defaulting to unpruned grid for atomic number  75.
 Defaulting to unpruned grid for atomic number  75.
 Defaulting to unpruned grid for atomic number  75.
 Defaulting to unpruned grid for atomic number  75.
 Defaulting to unpruned grid for atomic number  75.
 Defaulting to unpruned grid for atomic number  75.
 Defaulting to unpruned grid for atomic number  75.
 Defaulting to unpruned grid for atomic number  75.
 Defaulting to unpruned grid for atomic number  75.
 Defaulting to unpruned grid for atomic number  75.
 Defaulting to unpruned grid for atomic number  75.
 Defaulting to unpruned grid for atomic number  75.
 Defaulting to unpruned grid for atomic number  75.
 Defaulting to unpruned grid for atomic number  75.
 Defaulting to unpruned grid for atomic number  75.
 Defaulting to unpruned grid for atomic number  75.
 Defaulting to unpruned grid for atomic number  75.
 Defaulting to unpruned grid for atomic number  75.
 Defaulting to unpruned grid for atomic number  75.
 Defaulting to unpruned grid for atomic number  75.
 Defaulting to unpruned grid for atomic number  75.
 Defaulting to unpruned grid for atomic number  75.
 Defaulting to unpruned grid for atomic number  75.
 Defaulting to unpruned grid for atomic number  75.
 Defaulting to unpruned grid for atomic number  75.
 Defaulting to unpruned grid for atomic number  75.
 Defaulting to unpruned grid for atomic number  75.
 Defaulting to unpruned grid for atomic number  75.
 Defaulting to unpruned grid for atomic number  75.
 Defaulting to unpruned grid for atomic number  75.
 Defaulting to unpruned grid for atomic number  75.
 Leave Link  703 at Mon Nov 17 10:50:20 2025, MaxMem=  2684354560 cpu:             149.6 elap:               4.7
 (Enter /home/programes/qq/gaussian/g16.A03/g16/l716.exe)
 Dipole        = 4.51842570D+00-2.73610036D+00 1.64849859D+00
 -------------------------------------------------------------------
 Center     Atomic                   Forces (Hartrees/Bohr)
 Number     Number              X              Y              Z
 -------------------------------------------------------------------
      1        6          -0.001351656   -0.017678368   -0.000777642
      2        6           0.004462001    0.009703133    0.000283722
      3        6          -0.000182124   -0.007023652   -0.000359873
      4        6          -0.004587615    0.003487434    0.000534832
      5        6           0.010572727    0.000289214   -0.000010643
      6        6           0.015052971    0.009446039   -0.000772123
      7        6          -0.006467629   -0.008554104    0.000231189
      8        6           0.006157530    0.003501180   -0.000364988
      9        6          -0.005249617    0.002423046    0.000548338
     10        6           0.004679390   -0.009590681   -0.000081017
     11        1          -0.001096837   -0.001125217    0.000140764
     12        1          -0.000471332    0.000884429    0.000085629
     13        1           0.000568548   -0.000939450   -0.000298413
     14        1          -0.000455370   -0.000294689    0.000104668
     15        1           0.000547644    0.001452461    0.000151600
     16        1          -0.001015490    0.000015466    0.000100648
     17        1           0.001065981   -0.000060906   -0.000273124
     18        1           0.000029025    0.000560855    0.000123539
     19        7           0.005271893   -0.030264560   -0.000161492
     20        7           0.029345712    0.009498472   -0.000033565
     21       75          -0.052028094    0.029939583    0.012737747
     22        6           0.001579055    0.001328121    0.003514352
     23        6          -0.004592423   -0.004673606    0.005324825
     24        6           0.002139922    0.006041567    0.005932776
     25        8          -0.001419690   -0.000216502    0.003113512
     26        8          -0.003375458    0.000604575   -0.002725350
     27        8          -0.002212244    0.002894707   -0.002915809
     28       17           0.003033181   -0.001648550   -0.024154103
 -------------------------------------------------------------------
 Cartesian Forces:  Max     0.052028094 RMS     0.009596876
 Leave Link  716 at Mon Nov 17 10:50:20 2025, MaxMem=  2684354560 cpu:               0.6 elap:               0.0
 (Enter /home/programes/qq/gaussian/g16.A03/g16/l103.exe)

 GradGradGradGradGradGradGradGradGradGradGradGradGradGradGradGradGradGrad
 Berny optimization.
 Using GEDIIS/GDIIS optimizer.
 FormGI is forming the generalized inverse of G from B-inverse, IUseBI=4.
 Internal  Forces:  Max     0.039621800 RMS     0.005475034
 Search for a local minimum.
 Step number   6 out of a maximum of  168
 All quantities printed in internal units (Hartrees-Bohrs-Radians)
 RMS Force = .54750D-02 SwitMx=.10000D-02 MixMth= 1
 Mixed Optimization -- RFO/linear search
 Update second derivatives using D2CorX and points    5    6
 DE= -9.58D-04 DEPred=-3.98D-03 R= 2.40D-01
 Trust test= 2.40D-01 RLast= 4.79D-01 DXMaxT set to 6.69D-01
 ITU=  0  1  1 -1  1  0
 Use linear search instead of GDIIS.
     Eigenvalues ---    0.00618   0.00911   0.01070   0.01477   0.01504
     Eigenvalues ---    0.01726   0.01782   0.01830   0.01867   0.01942
     Eigenvalues ---    0.01946   0.02015   0.02016   0.02149   0.02152
     Eigenvalues ---    0.02247   0.02248   0.02312   0.02317   0.04263
     Eigenvalues ---    0.04643   0.04686   0.04693   0.04693   0.04724
     Eigenvalues ---    0.06749   0.06941   0.08112   0.10365   0.12291
     Eigenvalues ---    0.13815   0.15746   0.15994   0.16000   0.16000
     Eigenvalues ---    0.16000   0.16000   0.16000   0.16004   0.16252
     Eigenvalues ---    0.17321   0.18060   0.21992   0.22000   0.22617
     Eigenvalues ---    0.23303   0.24065   0.24485   0.24817   0.24850
     Eigenvalues ---    0.24959   0.25581   0.29889   0.34513   0.34519
     Eigenvalues ---    0.34527   0.34545   0.34573   0.34585   0.34735
     Eigenvalues ---    0.34765   0.35880   0.36212   0.38637   0.38723
     Eigenvalues ---    0.39141   0.42727   0.47117   0.47435   0.49640
     Eigenvalues ---    0.50147   0.51324   0.51500   0.56135   1.07240
     Eigenvalues ---    1.18091   1.19576   1.38363
 RFO step:  Lambda=-2.94436370D-03 EMin= 6.18316114D-03
 Quartic linear search produced a step of -0.43888.
 Iteration  1 RMS(Cart)=  0.02250867 RMS(Int)=  0.00017422
 Iteration  2 RMS(Cart)=  0.00023269 RMS(Int)=  0.00010149
 Iteration  3 RMS(Cart)=  0.00000003 RMS(Int)=  0.00010149
 ITry= 1 IFail=0 DXMaxC= 8.71D-02 DCOld= 1.00D+10 DXMaxT= 6.69D-01 DXLimC= 3.00D+00 Rises=F
 Variable       Old X    -DE/DX   Delta X   Delta X   Delta X     New X
                                 (Linear)    (Quad)   (Total)
    R1        2.63480   0.00239   0.00387  -0.00099   0.00288   2.63769
    R2        2.83682  -0.00542  -0.01360   0.00527  -0.00829   2.82852
    R3        2.55453   0.01009   0.01337  -0.01269   0.00070   2.55523
    R4        2.64749  -0.00497  -0.00513  -0.00099  -0.00612   2.64137
    R5        2.05383   0.00033   0.00059  -0.00017   0.00042   2.05425
    R6        2.62885   0.00111   0.00567  -0.00755  -0.00188   2.62697
    R7        2.06208  -0.00044  -0.00035  -0.00080  -0.00115   2.06093
    R8        2.63912  -0.00351  -0.00371  -0.00142  -0.00515   2.63398
    R9        2.06094  -0.00063  -0.00053  -0.00094  -0.00147   2.05946
   R10        2.05789   0.00003   0.00021  -0.00052  -0.00031   2.05758
   R11        2.54158   0.00429   0.00378  -0.00527  -0.00149   2.54009
   R12        2.63436   0.00250   0.00393  -0.00083   0.00312   2.63748
   R13        2.55434   0.01013   0.01346  -0.01273   0.00076   2.55510
   R14        2.64754  -0.00498  -0.00515  -0.00097  -0.00611   2.64143
   R15        2.05329   0.00040   0.00066  -0.00009   0.00058   2.05387
   R16        2.62874   0.00116   0.00572  -0.00754  -0.00183   2.62691
   R17        2.06214  -0.00046  -0.00035  -0.00084  -0.00120   2.06094
   R18        2.63923  -0.00354  -0.00375  -0.00144  -0.00520   2.63403
   R19        2.06088  -0.00061  -0.00053  -0.00087  -0.00141   2.05947
   R20        2.05787   0.00006   0.00020  -0.00046  -0.00025   2.05761
   R21        2.54147   0.00434   0.00386  -0.00533  -0.00147   2.54000
   R22        4.32561   0.03959  -0.04229   0.11335   0.07104   4.39665
   R23        4.32640   0.03962  -0.04223   0.11347   0.07121   4.39761
   R24        3.58825   0.00664  -0.00778   0.01712   0.00934   3.59759
   R25        3.59516   0.00856   0.01333  -0.00596   0.00736   3.60253
   R26        3.59526   0.00853   0.01328  -0.00594   0.00734   3.60260
   R27        4.90879   0.02439   0.15551  -0.23323  -0.07772   4.83108
   R28        2.19967   0.00311   0.00061  -0.00125  -0.00064   2.19904
   R29        2.19649   0.00311  -0.00250   0.00355   0.00105   2.19754
   R30        2.19639   0.00330  -0.00249   0.00365   0.00116   2.19755
    A1        2.13679  -0.00096   0.00415  -0.00465  -0.00059   2.13620
    A2        2.12514  -0.00333  -0.00375  -0.00788  -0.01169   2.11345
    A3        2.02126   0.00429  -0.00040   0.01253   0.01226   2.03352
    A4        2.07336   0.00346   0.00565   0.00310   0.00878   2.08214
    A5        2.12612  -0.00331  -0.00887  -0.00164  -0.01052   2.11560
    A6        2.08370  -0.00015   0.00321  -0.00146   0.00174   2.08544
    A7        2.07995   0.00051  -0.00188   0.00151  -0.00037   2.07958
    A8        2.08676   0.00067   0.00368   0.00074   0.00442   2.09118
    A9        2.11648  -0.00119  -0.00180  -0.00225  -0.00406   2.11242
   A10        2.07295   0.00002   0.00003  -0.00466  -0.00465   2.06830
   A11        2.13098  -0.00097  -0.00191  -0.00042  -0.00232   2.12866
   A12        2.07926   0.00095   0.00188   0.00508   0.00697   2.08622
   A13        2.11175  -0.00085  -0.00034   0.00075   0.00042   2.11218
   A14        2.13086   0.00283   0.00520   0.00014   0.00533   2.13619
   A15        2.04057  -0.00198  -0.00486  -0.00090  -0.00576   2.03482
   A16        2.13631  -0.00089   0.00423  -0.00462  -0.00047   2.13583
   A17        2.02185   0.00422  -0.00051   0.01252   0.01214   2.03399
   A18        2.12503  -0.00333  -0.00373  -0.00790  -0.01168   2.11335
   A19        2.07381   0.00341   0.00557   0.00304   0.00864   2.08245
   A20        2.12494  -0.00325  -0.00865  -0.00165  -0.01032   2.11463
   A21        2.08444  -0.00016   0.00308  -0.00139   0.00168   2.08611
   A22        2.07953   0.00056  -0.00178   0.00155  -0.00023   2.07930
   A23        2.08692   0.00066   0.00364   0.00075   0.00438   2.09131
   A24        2.11674  -0.00122  -0.00186  -0.00230  -0.00417   2.11257
   A25        2.07303   0.00002   0.00001  -0.00471  -0.00471   2.06832
   A26        2.13049  -0.00094  -0.00182  -0.00034  -0.00216   2.12833
   A27        2.07967   0.00092   0.00182   0.00505   0.00687   2.08654
   A28        2.11159  -0.00084  -0.00030   0.00076   0.00046   2.11206
   A29        2.13090   0.00284   0.00519   0.00020   0.00538   2.13628
   A30        2.04069  -0.00200  -0.00490  -0.00095  -0.00585   2.03484
   A31        2.08406  -0.00350  -0.00525   0.00782   0.00258   2.08663
   A32        2.06398  -0.00091  -0.00549  -0.00124  -0.00661   2.05738
   A33        2.13361   0.00442   0.01134  -0.00639   0.00493   2.13854
   A34        2.08410  -0.00350  -0.00524   0.00781   0.00257   2.08668
   A35        2.06407  -0.00095  -0.00557  -0.00126  -0.00673   2.05734
   A36        2.13367   0.00445   0.01134  -0.00632   0.00500   2.13867
   A37        1.25006  -0.00667   0.01332  -0.02307  -0.00978   1.24029
   A38        1.61378   0.00062   0.02284  -0.02545  -0.00249   1.61129
   A39        1.73965   0.00231  -0.01265   0.01705   0.00457   1.74423
   A40        1.44835  -0.00037   0.01255  -0.01573  -0.00305   1.44530
   A41        1.61577   0.00022   0.01986  -0.02400  -0.00381   1.61196
   A42        1.73877   0.00233  -0.01196   0.01620   0.00440   1.74317
   A43        1.44906  -0.00053   0.01376  -0.01761  -0.00363   1.44543
   A44        1.59467  -0.00103  -0.00195  -0.00271  -0.00499   1.58968
   A45        1.59590  -0.00163  -0.00275  -0.00390  -0.00679   1.58911
   A46        1.55010   0.00218   0.00821  -0.00654   0.00198   1.55208
   A47        1.61427   0.00114  -0.02746   0.03914   0.01151   1.62579
   A48        1.61620   0.00108  -0.02873   0.03976   0.01103   1.62722
   A49        2.98883  -0.00435   0.00136  -0.00687  -0.00537   2.98345
   A50        2.98972  -0.00436   0.00067  -0.00601  -0.00520   2.98451
   A51        3.06213   0.00025   0.03538  -0.04118  -0.00554   3.05660
   A52        3.11229   0.00306   0.01871  -0.01100   0.00772   3.12001
   A53        3.08783   0.00329   0.01131   0.00365   0.01496   3.10279
   A54        3.08605   0.00347   0.01222   0.00419   0.01641   3.10246
   A55        3.07809   0.00115  -0.01793   0.02694   0.00901   3.08710
   A56        3.20630  -0.00102   0.01513  -0.02392  -0.00878   3.19753
   A57        3.19661   0.00000  -0.02393   0.02900   0.00541   3.20203
   A58        3.16379  -0.00091  -0.01852   0.03916   0.02065   3.18444
   A59        3.10850   0.00568   0.02841   0.00510   0.03351   3.14201
   A60        3.17735  -0.00610  -0.03040  -0.00669  -0.03708   3.14027
    D1       -3.13587   0.00041   0.00021   0.00149   0.00172  -3.13415
    D2        0.00644   0.00030  -0.00048   0.00257   0.00207   0.00851
    D3        0.00483  -0.00002  -0.00156  -0.00147  -0.00298   0.00184
    D4       -3.13605  -0.00013  -0.00225  -0.00039  -0.00263  -3.13868
    D5       -0.00363   0.00001   0.00133  -0.00116   0.00018  -0.00344
    D6        3.13828  -0.00043  -0.00059  -0.00388  -0.00449   3.13379
    D7        3.13881   0.00042   0.00302   0.00165   0.00470  -3.13968
    D8       -0.00247  -0.00002   0.00110  -0.00107   0.00002  -0.00245
    D9       -0.00309  -0.00021   0.00087  -0.00566  -0.00483  -0.00792
   D10        3.08405   0.00006   0.01757  -0.00125   0.01650   3.10055
   D11        3.13767  -0.00061  -0.00078  -0.00844  -0.00928   3.12839
   D12       -0.05838  -0.00035   0.01592  -0.00404   0.01206  -0.04632
   D13       -0.00113   0.00014   0.00022   0.00513   0.00534   0.00421
   D14        3.13966   0.00003   0.00054   0.00105   0.00157   3.14123
   D15        3.13976   0.00024   0.00090   0.00408   0.00499  -3.13844
   D16       -0.00263   0.00014   0.00123  -0.00000   0.00122  -0.00141
   D17       -0.00400  -0.00004   0.00170  -0.00185  -0.00016  -0.00416
   D18        3.13694  -0.00000   0.00298  -0.00446  -0.00146   3.13548
   D19        3.13840   0.00006   0.00138   0.00230   0.00365  -3.14113
   D20       -0.00384   0.00011   0.00265  -0.00030   0.00235  -0.00149
   D21       -3.13658   0.00002  -0.00111  -0.00399  -0.00506   3.14154
   D22        0.00594  -0.00020  -0.00249  -0.00543  -0.00790  -0.00196
   D23        0.00564  -0.00002  -0.00235  -0.00146  -0.00379   0.00185
   D24       -3.13502  -0.00024  -0.00373  -0.00290  -0.00663   3.14154
   D25       -0.00240   0.00033   0.00120   0.00919   0.01044   0.00804
   D26       -3.08727   0.00024  -0.01602   0.00441  -0.01155  -3.09882
   D27        3.14009   0.00012  -0.00012   0.00781   0.00772  -3.13538
   D28        0.05521   0.00004  -0.01734   0.00303  -0.01427   0.04094
   D29        3.13653  -0.00045   0.00035  -0.00172  -0.00140   3.13512
   D30       -0.00593  -0.00033   0.00121  -0.00285  -0.00164  -0.00757
   D31       -0.00540   0.00002   0.00238   0.00116   0.00348  -0.00191
   D32        3.13533   0.00014   0.00323   0.00003   0.00325   3.13858
   D33       -3.13763   0.00067  -0.00031   0.00899   0.00875  -3.12888
   D34        0.06215   0.00037  -0.01759   0.00564  -0.01213   0.05003
   D35        0.00428   0.00023  -0.00220   0.00628   0.00413   0.00841
   D36       -3.07913  -0.00006  -0.01948   0.00293  -0.01674  -3.09587
   D37        0.00100  -0.00015  -0.00003  -0.00553  -0.00555  -0.00455
   D38       -3.14021  -0.00002  -0.00015  -0.00112  -0.00124  -3.14146
   D39       -3.13975  -0.00027  -0.00087  -0.00443  -0.00531   3.13812
   D40        0.00222  -0.00014  -0.00099  -0.00001  -0.00100   0.00122
   D41        0.00420   0.00006  -0.00235   0.00262   0.00029   0.00450
   D42       -3.13718   0.00002  -0.00309   0.00516   0.00206  -3.13512
   D43       -3.13777  -0.00007  -0.00223  -0.00187  -0.00407   3.14134
   D44        0.00403  -0.00011  -0.00297   0.00067  -0.00230   0.00172
   D45        3.13645  -0.00002   0.00174   0.00379   0.00549  -3.14124
   D46       -0.00552   0.00020   0.00262   0.00496   0.00756   0.00204
   D47       -0.00534   0.00002   0.00246   0.00133   0.00376  -0.00158
   D48        3.13588   0.00024   0.00333   0.00249   0.00583  -3.14148
   D49        0.00128  -0.00035  -0.00034  -0.00942  -0.00982  -0.00855
   D50        3.08226  -0.00025   0.01745  -0.00573   0.01166   3.09392
   D51       -3.14068  -0.00014   0.00050  -0.00830  -0.00784   3.13467
   D52       -0.05969  -0.00004   0.01829  -0.00461   0.01364  -0.04605
   D53       -0.06761  -0.00010   0.01879  -0.00471   0.01395  -0.05365
   D54       -1.67154   0.00009   0.00434   0.01291   0.01744  -1.65410
   D55        3.00927   0.00092   0.00366   0.01921   0.02273   3.03200
   D56        1.41503   0.00009   0.02827  -0.01609   0.01203   1.42706
   D57        3.13393  -0.00012   0.00119  -0.00866  -0.00749   3.12644
   D58        1.52999   0.00007  -0.01325   0.00895  -0.00399   1.52600
   D59       -0.07238   0.00090  -0.01394   0.01526   0.00129  -0.07109
   D60       -1.66662   0.00007   0.01068  -0.02005  -0.00941  -1.67603
   D61        0.06620   0.00010  -0.01816   0.00411  -0.01392   0.05229
   D62        1.66738   0.00045   0.00030  -0.01558  -0.01559   1.65180
   D63       -3.01189  -0.00105  -0.00023  -0.02283  -0.02293  -3.03481
   D64       -1.41545  -0.00030  -0.02604   0.01292  -0.01280  -1.42825
   D65       -3.13148   0.00011  -0.00113   0.00912   0.00801  -3.12348
   D66       -1.53031   0.00045   0.01733  -0.01058   0.00634  -1.52397
   D67        0.07361  -0.00104   0.01680  -0.01782  -0.00100   0.07261
   D68        1.67004  -0.00030  -0.00901   0.01793   0.00913   1.67917
         Item               Value     Threshold  Converged?
 Maximum Force            0.039622     0.000450     NO 
 RMS     Force            0.005475     0.000300     NO 
 Maximum Displacement     0.087107     0.001800     NO 
 RMS     Displacement     0.022433     0.001200     NO 
 Predicted change in Energy=-2.779542D-03
 Lowest energy point so far.  Saving SCF results.
 GradGradGradGradGradGradGradGradGradGradGradGradGradGradGradGradGradGrad

 Leave Link  103 at Mon Nov 17 10:50:20 2025, MaxMem=  2684354560 cpu:               6.2 elap:               0.2
 (Enter /home/programes/qq/gaussian/g16.A03/g16/l202.exe)
                          Input orientation:                          
 ---------------------------------------------------------------------
 Center     Atomic      Atomic             Coordinates (Angstroms)
 Number     Number       Type             X           Y           Z
 ---------------------------------------------------------------------
      1          6           0       -2.280304    0.302839    0.029363
      2          6           0       -0.887551    0.335972   -0.056717
      3          6           0       -0.230290    1.569420   -0.038671
      4          6           0       -0.980289    2.734838    0.069811
      5          6           0       -2.367596    2.627852    0.151847
      6          6           0       -3.053715   -0.978644    0.025752
      7          6           0       -2.433623   -2.225504   -0.067997
      8          6           0       -3.217982   -3.382429   -0.057688
      9          6           0       -4.598651   -3.263106    0.051377
     10          6           0       -5.150987   -1.986505    0.141307
     11          1           0       -0.306225   -0.578959   -0.138387
     12          1           0        0.857696    1.605132   -0.105102
     13          1           0       -0.515138    3.720112    0.093886
     14          1           0       -2.994567    3.513873    0.237955
     15          1           0       -1.353262   -2.311557   -0.149738
     16          1           0       -2.742077   -4.361025   -0.130366
     17          1           0       -5.253040   -4.134397    0.069946
     18          1           0       -6.227170   -1.845744    0.228447
     19          7           0       -4.398116   -0.873172    0.123906
     20          7           0       -3.001158    1.442623    0.127509
     21         75           0       -5.320647    1.261974    0.180399
     22          6           0       -5.357242    1.279794    2.083729
     23          6           0       -7.174180    0.821377    0.112880
     24          6           0       -5.793860    3.107707    0.119096
     25          8           0       -5.336172    1.260183    3.247053
     26          8           0       -8.293502    0.508965    0.070104
     27          8           0       -6.038247    4.243935    0.079271
     28         17           0       -5.045108    1.099455   -2.356003
 ---------------------------------------------------------------------
                    Distance matrix (angstroms):
                    1          2          3          4          5
     1  C    0.000000
     2  C    1.395804   0.000000
     3  C    2.410687   1.397753   0.000000
     4  C    2.757951   2.403990   1.390131   0.000000
     5  C    2.329873   2.736192   2.392624   1.393842   0.000000
     6  C    1.496789   2.535209   3.803750   4.253350   3.673347
     7  C    2.534858   2.991926   4.388278   5.170703   4.858782
     8  C    3.803685   4.388326   5.783379   6.514942   6.073758
     9  C    4.253373   5.170813   6.514906   7.004871   6.300086
    10  C    3.673479   4.859012   6.073735   6.300072   5.388847
    11  H    2.168571   1.087065   2.152033   3.388062   3.823235
    12  H    3.400161   2.158471   1.090597   2.164491   3.393300
    13  H    3.846782   3.407900   2.173519   1.089822   2.151277
    14  H    3.296122   3.824318   3.390965   2.166214   1.088826
    15  H    2.779668   2.689786   4.041706   5.064920   5.051493
    16  H    4.689389   5.050392   6.441091   7.314043   7.004590
    17  H    5.341148   6.249618   7.600878   8.089671   7.352585
    18  H    4.498198   5.775182   6.906320   6.966825   5.908912
    19  N    2.424267   3.717354   4.833577   4.970131   4.047340
    20  N    1.352172   2.392895   2.778741   2.399387   1.344158
    21  Re   3.191619   4.534979   5.104336   4.584786   3.253759
    22  C    3.826540   5.044843   5.556447   5.032965   3.806234
    23  C    4.921979   6.307620   6.985710   6.482859   5.134990
    24  C    4.496710   5.637844   5.774471   4.828242   3.459858
    25  O    4.539644   5.617765   6.079609   5.589561   4.501473
    26  O    6.016867   7.409056   8.133374   7.644448   6.293864
    27  O    5.445811   6.466864   6.395256   5.278295   4.011318
    28  Cl   3.737473   4.811953   5.364081   5.008173   3.974215
                    6          7          8          9         10
     6  C    0.000000
     7  C    1.395695   0.000000
     8  C    2.410835   1.397783   0.000000
     9  C    2.757943   2.403792   1.390101   0.000000
    10  C    2.329739   2.735872   2.392636   1.393869   0.000000
    11  H    2.781258   2.691075   4.042806   5.066120   5.052834
    12  H    4.689580   5.050538   6.441208   7.314093   7.004630
    13  H    5.341098   6.249572   7.600949   8.089637   7.352471
    14  H    4.497915   5.774835   6.906251   6.966731   5.908778
    15  H    2.167717   1.086861   2.152306   3.387985   3.822706
    16  H    3.400292   2.158583   1.090604   2.164561   3.393375
    17  H    3.846785   3.407640   2.173294   1.089824   2.151498
    18  H    3.296022   3.824016   3.390942   2.166182   1.088842
    19  N    1.352099   2.392669   2.778860   2.399429   1.344109
    20  N    2.423974   3.716917   4.833470   4.970077   4.047329
    21  Re   3.191123   4.534216   5.103760   4.584133   3.253142
    22  C    3.826493   5.046245   5.558634   5.034268   3.805818
    23  C    4.497321   5.638180   5.775169   4.829092   3.460971
    24  C    4.920911   6.306293   6.984859   6.482311   5.134664
    25  O    4.538583   5.618217   6.079629   5.587166   4.496770
    26  O    5.447046   6.467965   6.396888   5.280226   4.013458
    27  O    6.015449   7.407337   8.132286   7.643879   6.293605
    28  Cl   3.735893   4.807305   5.357978   5.002674   3.971262
                   11         12         13         14         15
    11  H    0.000000
    12  H    2.475091   0.000000
    13  H    4.310408   2.529311   0.000000
    14  H    4.911222   4.312878   2.492160   0.000000
    15  H    2.024428   4.497864   6.094492   6.064637   0.000000
    16  H    4.498606   6.968072   8.385364   7.887549   2.475783
    17  H    6.095532   8.385340   9.172873   7.976526   4.310368
    18  H    6.066045   7.887656   7.976476   6.259018   4.910701
    19  N    4.110831   5.815325   6.014706   4.607508   3.378605
    20  N    3.379372   3.869273   3.371703   2.074204   4.109293
    21  Re   5.351176   6.194448   5.398411   3.238056   5.349697
    22  C    5.822846   6.597142   5.775864   3.739014   5.823919
    23  C    7.013764   8.072968   7.262635   4.973364   6.615688
    24  C    6.616036   6.822843   5.314187   2.831102   7.011390
    25  O    6.335931   7.051236   6.263871   4.429097   6.337120
    26  O    8.063724   9.218281   8.415164   6.093961   7.494705
    27  O    7.494249   7.385886   5.547913   3.134032   8.060769
    28  Cl   5.494716   6.337614   5.778445   4.094234   5.489293
                   16         17         18         19         20
    16  H    0.000000
    17  H    2.529114   0.000000
    18  H    4.312917   2.492385   0.000000
    19  N    3.869397   3.371853   2.074189   0.000000
    20  N    5.815148   6.014768   4.607678   2.704517   0.000000
    21  Re   6.193845   5.397925   3.237592   2.326608   2.327114
    22  C    6.600010   5.777511   3.737356   3.065304   3.066667
    23  C    6.823488   5.315290   2.832616   3.252406   4.219037
    24  C    8.072023   7.262435   4.973568   4.218473   3.251424
    25  O    7.052252   6.261183   4.421837   3.896819   3.900914
    26  O    7.387510   5.550245   3.136790   4.133670   5.374376
    27  O    9.217050   8.415051   6.094434   5.373714   4.132020
    28  Cl   6.330423   5.772493   4.092780   3.234163   3.234707
                   21         22         23         24         25
    21  Re   0.000000
    22  C    1.903765   0.000000
    23  C    1.906376   2.719495   0.000000
    24  C    1.906415   2.718765   2.670698   0.000000
    25  O    3.066694   1.163680   3.659763   3.661548   0.000000
    26  O    3.068722   3.642867   1.162890   3.606115   4.404899
    27  O    3.068757   3.642493   3.606297   1.162896   4.408007
    28  Cl   2.556496   4.454343   3.271951   3.274114   5.612913
                   26         27         28
    26  O    0.000000
    27  O    4.363056   0.000000
    28  Cl   4.097162   4.099346   0.000000
 Symmetry turned off by external request.
 Stoichiometry    C13H8ClN2O3Re
 Framework group  C1[X(C13H8ClN2O3Re)]
 Deg. of freedom    78
 Full point group                 C1      NOp   1
 Rotational constants (GHZ):           0.3398713           0.2650518           0.1972165
 Leave Link  202 at Mon Nov 17 10:50:20 2025, MaxMem=  2684354560 cpu:               0.1 elap:               0.0
 (Enter /home/programes/qq/gaussian/g16.A03/g16/l301.exe)
 Basis read from rwf:  (5D, 7F)
 Pseudo-potential data read from rwf file.
   339 basis functions,   774 primitive gaussians,   363 cartesian basis functions
    78 alpha electrons       78 beta electrons
       nuclear repulsion energy      1753.5624231710 Hartrees.
 IExCor=  402 DFT=T Ex+Corr=B3LYP ExCW=0 ScaHFX=  0.200000
 ScaDFX=  0.800000  0.720000  1.000000  0.810000 ScalE2=  1.000000  1.000000
 IRadAn=      5 IRanWt=     -1 IRanGd=            0 ICorTp=0 IEmpDi=141
 NAtoms=   28 NActive=   28 NUniq=   28 SFac= 1.00D+00 NAtFMM=   60 NAOKFM=F Big=F
 Integral buffers will be    131072 words long.
 Raffenetti 2 integral format.
 Two-electron integral symmetry is turned off.
 R6Disp:  Grimme-D3(BJ) Dispersion energy=       -0.0844127835 Hartrees.
 Nuclear repulsion after empirical dispersion term =     1753.4780103875 Hartrees.
 No density basis found on file   724.
 ------------------------------------------------------------------------------
 Polarizable Continuum Model (PCM)
 =================================
 Model                : PCM.
 Atomic radii         : UFF (Universal Force Field).
 Polarization charges : Total charges.
 Charge compensation  : None.
 Solution method      : On-the-fly selection.
 Cavity type          : Scaled VdW (van der Waals Surface) (Alpha=1.100).
 Cavity algorithm     : GePol (No added spheres)
                        Default sphere list used, NSphG=   28.
                        Lebedev-Laikov grids with approx.  5.0 points / Ang**2.
                        Smoothing algorithm: York/Karplus (Gamma=1.0000).
                        Polarization charges: spherical gaussians, with
                                              point-specific exponents (IZeta= 3).
                        Self-potential: point-specific (ISelfS= 7).
                        Self-field    : sphere-specific E.n sum rule (ISelfD= 2).
 1st derivatives      : Analytical E(r).r(x)/FMM algorithm (CHGder, D1EAlg=3).
                        Cavity 1st derivative terms included.
 Solvent              : n,n-DiMethylFormamide, Eps=  37.219000 Eps(inf)=   2.046330
 ------------------------------------------------------------------------------
 GePol: Number of generator spheres                  =      28
 GePol: Total number of spheres                      =      28
 GePol: Number of exposed spheres                    =      27 ( 96.43%)
 GePol: Number of points                             =    2591
 GePol: Average weight of points                     =       0.13
 GePol: Minimum weight of points                     =   0.92D-09
 GePol: Maximum weight of points                     =    0.21616
 GePol: Number of points with low weight             =     134
 GePol: Fraction of low-weight points (<1% of avg)   =       5.17%
 GePol: Cavity surface area                          =    342.802 Ang**2
 GePol: Cavity volume                                =    378.718 Ang**3
 Leave Link  301 at Mon Nov 17 10:50:20 2025, MaxMem=  2684354560 cpu:               1.2 elap:               0.0
 (Enter /home/programes/qq/gaussian/g16.A03/g16/l302.exe)
 NPDir=0 NMtPBC=     1 NCelOv=     1 NCel=       1 NClECP=     1 NCelD=      1
         NCelK=      1 NCelE2=     1 NClLst=     1 CellRange=     0.0.
 One-electron integrals computed using PRISM.
   1 Symmetry operations used in ECPInt.
 ECPInt:  NShTT=   11175 NPrTT=  105620 LenC2=   10449 LenP2D=   50999.
 LDataN:  DoStor=T MaxTD1= 7 Len=  274
 NBasis=   339 RedAO= T EigKep=  3.67D-04  NBF=   339
 NBsUse=   339 1.00D-06 EigRej= -1.00D+00 NBFU=   339
 Precomputing XC quadrature grid using
 IXCGrd= 4 IRadAn=           5 IRanWt=          -1 IRanGd=           0 AccXCQ= 0.00D+00.
 Defaulting to unpruned grid for atomic number  75.
 Generated NRdTot=       0 NPtTot=           0 NUsed=           0 NTot=          32
 NSgBfM=   363   363   363   363   363 MxSgAt=    28 MxSgA2=    28.
 Leave Link  302 at Mon Nov 17 10:50:21 2025, MaxMem=  2684354560 cpu:              12.1 elap:               0.4
 (Enter /home/programes/qq/gaussian/g16.A03/g16/l303.exe)
 DipDrv:  MaxL=1.
 Leave Link  303 at Mon Nov 17 10:50:21 2025, MaxMem=  2684354560 cpu:               1.2 elap:               0.1
 (Enter /home/programes/qq/gaussian/g16.A03/g16/l401.exe)
 Initial guess from the checkpoint file:  "re-bpy-co3-cl.chk"
 B after Tr=    -0.026659    0.016386   -0.017364
         Rot=    1.000000   -0.000608   -0.000740   -0.000002 Ang=  -0.11 deg.
 Guess basis will be translated and rotated to current coordinates.
 JPrj=2 DoOrth=T DoCkMO=T.
 Generating alternative initial guess.
 ExpMin= 2.80D-02 ExpMax= 1.28D+05 ExpMxC= 1.24D+03 IAcc=3 IRadAn=         5 AccDes= 0.00D+00
 Harris functional with IExCor=  402 and IRadAn=       5 diagonalized for initial guess.
 HarFok:  IExCor=  402 AccDes= 0.00D+00 IRadAn=         5 IDoV= 1 UseB2=F ITyADJ=14
 ICtDFT=  3500011 ScaDFX=  1.000000  1.000000  1.000000  1.000000
 Defaulting to unpruned grid for atomic number  75.
 FoFCou: FMM=F IPFlag=           0 FMFlag=      100000 FMFlg1=           0
         NFxFlg=           0 DoJE=T BraDBF=F KetDBF=T FulRan=T
         wScrn=  0.000000 ICntrl=       500 IOpCl=  0 I1Cent=   200000004 NGrid=           0
         NMat0=    1 NMatS0=      1 NMatT0=    0 NMatD0=    1 NMtDS0=    0 NMtDT0=    0
 Symmetry not used in FoFCou.
 Harris En= -1374.75617239775    
 Leave Link  401 at Mon Nov 17 10:50:22 2025, MaxMem=  2684354560 cpu:              30.5 elap:               1.0
 (Enter /home/programes/qq/gaussian/g16.A03/g16/l502.exe)
 Two-electron integral symmetry not used.
 Closed shell SCF:
 Using DIIS extrapolation, IDIIS=  1040.
 NGot=  2684354560 LenX=  2684076439 LenY=  2683944229
 Requested convergence on RMS density matrix=1.00D-08 within 128 cycles.
 Requested convergence on MAX density matrix=1.00D-06.
 Requested convergence on             energy=1.00D-06.
 No special actions if energy rises.
 Fock matrices will be formed incrementally for  20 cycles.

 Cycle   1  Pass 1  IDiag  1:
 FoFJK:  IHMeth= 1 ICntrl=       0 DoSepK=F KAlg= 0 I1Cent=           0 FoldK=F
 IRaf= 870000000 NMat=       1 IRICut=       1 DoRegI=T DoRafI=F ISym2E= 0 IDoP0=0 IntGTp=1.
 FoFCou: FMM=F IPFlag=           0 FMFlag=      100000 FMFlg1=           0
         NFxFlg=           0 DoJE=F BraDBF=F KetDBF=F FulRan=T
         wScrn=  0.000000 ICntrl=         0 IOpCl=  0 I1Cent=           0 NGrid=           0
         NMat0=    1 NMatS0=      1 NMatT0=    0 NMatD0=    1 NMtDS0=    0 NMtDT0=    0
 Symmetry not used in FoFCou.
 Defaulting to unpruned grid for atomic number  75.
 Defaulting to unpruned grid for atomic number  75.
 Defaulting to unpruned grid for atomic number  75.
 Defaulting to unpruned grid for atomic number  75.
 Defaulting to unpruned grid for atomic number  75.
 Defaulting to unpruned grid for atomic number  75.
 Defaulting to unpruned grid for atomic number  75.
 Defaulting to unpruned grid for atomic number  75.
 Defaulting to unpruned grid for atomic number  75.
 Defaulting to unpruned grid for atomic number  75.
 Defaulting to unpruned grid for atomic number  75.
 Defaulting to unpruned grid for atomic number  75.
 Defaulting to unpruned grid for atomic number  75.
 Defaulting to unpruned grid for atomic number  75.
 Defaulting to unpruned grid for atomic number  75.
 Defaulting to unpruned grid for atomic number  75.
 Defaulting to unpruned grid for atomic number  75.
 Defaulting to unpruned grid for atomic number  75.
 Defaulting to unpruned grid for atomic number  75.
 Defaulting to unpruned grid for atomic number  75.
 Defaulting to unpruned grid for atomic number  75.
 Defaulting to unpruned grid for atomic number  75.
 Defaulting to unpruned grid for atomic number  75.
 Defaulting to unpruned grid for atomic number  75.
 Defaulting to unpruned grid for atomic number  75.
 Defaulting to unpruned grid for atomic number  75.
 Defaulting to unpruned grid for atomic number  75.
 Defaulting to unpruned grid for atomic number  75.
 Defaulting to unpruned grid for atomic number  75.
 Defaulting to unpruned grid for atomic number  75.
 Defaulting to unpruned grid for atomic number  75.
 Defaulting to unpruned grid for atomic number  75.
 Inv3:  Mode=1 IEnd=    20139843.
 Iteration    1 A*A^-1 deviation from unit magnitude is 9.99D-15 for    939.
 Iteration    1 A*A^-1 deviation from orthogonality  is 3.32D-15 for    762    677.
 Iteration    1 A^-1*A deviation from unit magnitude is 9.33D-15 for    939.
 Iteration    1 A^-1*A deviation from orthogonality  is 3.15D-15 for   1984   1181.
 E= -1375.06406960335    
 DIIS: error= 1.82D-03 at cycle   1 NSaved=   1.
 NSaved= 1 IEnMin= 1 EnMin= -1375.06406960335     IErMin= 1 ErrMin= 1.82D-03
 ErrMax= 1.82D-03  0.00D+00 EMaxC= 1.00D-01 BMatC= 2.06D-03 BMatP= 2.06D-03
 IDIUse=3 WtCom= 9.82D-01 WtEn= 1.82D-02
 Coeff-Com:  0.100D+01
 Coeff-En:   0.100D+01
 Coeff:      0.100D+01
 Gap=     0.615 Goal=   None    Shift=    0.000
 GapD=    0.615 DampG=2.000 DampE=1.000 DampFc=2.0000 IDamp=-1.
 RMSDP=2.50D-04 MaxDP=7.55D-03              OVMax= 1.04D-02

 Cycle   2  Pass 1  IDiag  1:
 RMSU=  2.50D-04    CP:  1.00D+00
 E= -1375.06666663295     Delta-E=       -0.002597029598 Rises=F Damp=F
 DIIS: error= 3.28D-04 at cycle   2 NSaved=   2.
 NSaved= 2 IEnMin= 2 EnMin= -1375.06666663295     IErMin= 2 ErrMin= 3.28D-04
 ErrMax= 3.28D-04  0.00D+00 EMaxC= 1.00D-01 BMatC= 9.34D-05 BMatP= 2.06D-03
 IDIUse=3 WtCom= 9.97D-01 WtEn= 3.28D-03
 Coeff-Com:  0.168D-01 0.983D+00
 Coeff-En:   0.000D+00 0.100D+01
 Coeff:      0.168D-01 0.983D+00
 Gap=     0.139 Goal=   None    Shift=    0.000
 RMSDP=7.43D-05 MaxDP=3.26D-03 DE=-2.60D-03 OVMax= 4.37D-03

 Cycle   3  Pass 1  IDiag  1:
 RMSU=  7.41D-05    CP:  1.00D+00  9.77D-01
 E= -1375.06651729292     Delta-E=        0.000149340029 Rises=F Damp=F
 DIIS: error= 8.29D-04 at cycle   3 NSaved=   3.
 NSaved= 3 IEnMin= 2 EnMin= -1375.06666663295     IErMin= 2 ErrMin= 3.28D-04
 ErrMax= 8.29D-04  0.00D+00 EMaxC= 1.00D-01 BMatC= 2.81D-04 BMatP= 9.34D-05
 IDIUse=3 WtCom= 2.58D-01 WtEn= 7.42D-01
 Coeff-Com: -0.305D-01 0.662D+00 0.368D+00
 Coeff-En:   0.000D+00 0.702D+00 0.298D+00
 Coeff:     -0.787D-02 0.692D+00 0.316D+00
 Gap=     0.139 Goal=   None    Shift=    0.000
 RMSDP=4.34D-05 MaxDP=2.35D-03 DE= 1.49D-04 OVMax= 3.27D-03

 Cycle   4  Pass 1  IDiag  1:
 RMSU=  1.88D-05    CP:  1.00D+00  1.03D+00  5.02D-01
 E= -1375.06675666172     Delta-E=       -0.000239368795 Rises=F Damp=F
 DIIS: error= 1.88D-04 at cycle   4 NSaved=   4.
 NSaved= 4 IEnMin= 4 EnMin= -1375.06675666172     IErMin= 4 ErrMin= 1.88D-04
 ErrMax= 1.88D-04  0.00D+00 EMaxC= 1.00D-01 BMatC= 1.08D-05 BMatP= 9.34D-05
 IDIUse=3 WtCom= 9.98D-01 WtEn= 1.88D-03
 Coeff-Com: -0.206D-01 0.351D+00 0.189D+00 0.480D+00
 Coeff-En:   0.000D+00 0.000D+00 0.000D+00 0.100D+01
 Coeff:     -0.205D-01 0.351D+00 0.188D+00 0.481D+00
 Gap=     0.139 Goal=   None    Shift=    0.000
 RMSDP=1.66D-05 MaxDP=1.43D-03 DE=-2.39D-04 OVMax= 1.51D-03

 Cycle   5  Pass 1  IDiag  1:
 RMSU=  1.27D-05    CP:  1.00D+00  1.04D+00  4.71D-01  4.60D-01
 E= -1375.06675889137     Delta-E=       -0.000002229652 Rises=F Damp=F
 DIIS: error= 1.98D-04 at cycle   5 NSaved=   5.
 NSaved= 5 IEnMin= 5 EnMin= -1375.06675889137     IErMin= 4 ErrMin= 1.88D-04
 ErrMax= 1.98D-04  0.00D+00 EMaxC= 1.00D-01 BMatC= 8.47D-06 BMatP= 1.08D-05
 IDIUse=3 WtCom= 9.98D-01 WtEn= 1.98D-03
 Coeff-Com: -0.107D-01 0.148D+00 0.748D-01 0.421D+00 0.368D+00
 Coeff-En:   0.000D+00 0.000D+00 0.000D+00 0.455D+00 0.545D+00
 Coeff:     -0.107D-01 0.147D+00 0.746D-01 0.421D+00 0.368D+00
 Gap=     0.139 Goal=   None    Shift=    0.000
 RMSDP=8.81D-06 MaxDP=8.23D-04 DE=-2.23D-06 OVMax= 8.75D-04

 Cycle   6  Pass 1  IDiag  1:
 RMSU=  4.64D-06    CP:  1.00D+00  1.04D+00  4.73D-01  6.65D-01  5.08D-01
 E= -1375.06676677671     Delta-E=       -0.000007885341 Rises=F Damp=F
 DIIS: error= 2.31D-05 at cycle   6 NSaved=   6.
 NSaved= 6 IEnMin= 6 EnMin= -1375.06676677671     IErMin= 6 ErrMin= 2.31D-05
 ErrMax= 2.31D-05  0.00D+00 EMaxC= 1.00D-01 BMatC= 2.88D-07 BMatP= 8.47D-06
 IDIUse=1 WtCom= 1.00D+00 WtEn= 0.00D+00
 Coeff-Com: -0.173D-02 0.122D-01 0.211D-02 0.140D+00 0.201D+00 0.647D+00
 Coeff:     -0.173D-02 0.122D-01 0.211D-02 0.140D+00 0.201D+00 0.647D+00
 Gap=     0.139 Goal=   None    Shift=    0.000
 RMSDP=2.07D-06 MaxDP=8.69D-05 DE=-7.89D-06 OVMax= 1.84D-04

 Cycle   7  Pass 1  IDiag  1:
 RMSU=  1.42D-06    CP:  1.00D+00  1.04D+00  4.74D-01  6.97D-01  5.80D-01
                    CP:  7.82D-01
 E= -1375.06676702276     Delta-E=       -0.000000246056 Rises=F Damp=F
 DIIS: error= 1.50D-05 at cycle   7 NSaved=   7.
 NSaved= 7 IEnMin= 7 EnMin= -1375.06676702276     IErMin= 7 ErrMin= 1.50D-05
 ErrMax= 1.50D-05  0.00D+00 EMaxC= 1.00D-01 BMatC= 6.07D-08 BMatP= 2.88D-07
 IDIUse=1 WtCom= 1.00D+00 WtEn= 0.00D+00
 Coeff-Com:  0.249D-03-0.114D-01-0.811D-02 0.314D-01 0.776D-01 0.401D+00
 Coeff-Com:  0.509D+00
 Coeff:      0.249D-03-0.114D-01-0.811D-02 0.314D-01 0.776D-01 0.401D+00
 Coeff:      0.509D+00
 Gap=     0.139 Goal=   None    Shift=    0.000
 RMSDP=7.65D-07 MaxDP=3.08D-05 DE=-2.46D-07 OVMax= 6.54D-05

 Cycle   8  Pass 1  IDiag  1:
 RMSU=  4.03D-07    CP:  1.00D+00  1.04D+00  4.76D-01  7.00D-01  5.99D-01
                    CP:  8.30D-01  6.23D-01
 E= -1375.06676708239     Delta-E=       -0.000000059627 Rises=F Damp=F
 DIIS: error= 3.49D-06 at cycle   8 NSaved=   8.
 NSaved= 8 IEnMin= 8 EnMin= -1375.06676708239     IErMin= 8 ErrMin= 3.49D-06
 ErrMax= 3.49D-06  0.00D+00 EMaxC= 1.00D-01 BMatC= 4.04D-09 BMatP= 6.07D-08
 IDIUse=1 WtCom= 1.00D+00 WtEn= 0.00D+00
 Coeff-Com:  0.287D-03-0.730D-02-0.440D-02 0.219D-02 0.195D-01 0.148D+00
 Coeff-Com:  0.269D+00 0.572D+00
 Coeff:      0.287D-03-0.730D-02-0.440D-02 0.219D-02 0.195D-01 0.148D+00
 Coeff:      0.269D+00 0.572D+00
 Gap=     0.139 Goal=   None    Shift=    0.000
 RMSDP=2.07D-07 MaxDP=1.09D-05 DE=-5.96D-08 OVMax= 1.91D-05

 Cycle   9  Pass 1  IDiag  1:
 RMSU=  1.50D-07    CP:  1.00D+00  1.04D+00  4.77D-01  7.02D-01  5.98D-01
                    CP:  8.48D-01  6.51D-01  8.01D-01
 E= -1375.06676708555     Delta-E=       -0.000000003153 Rises=F Damp=F
 DIIS: error= 1.45D-06 at cycle   9 NSaved=   9.
 NSaved= 9 IEnMin= 9 EnMin= -1375.06676708555     IErMin= 9 ErrMin= 1.45D-06
 ErrMax= 1.45D-06  0.00D+00 EMaxC= 1.00D-01 BMatC= 8.77D-10 BMatP= 4.04D-09
 IDIUse=1 WtCom= 1.00D+00 WtEn= 0.00D+00
 Coeff-Com:  0.147D-03-0.299D-02-0.161D-02-0.303D-02 0.144D-02 0.377D-01
 Coeff-Com:  0.994D-01 0.361D+00 0.508D+00
 Coeff:      0.147D-03-0.299D-02-0.161D-02-0.303D-02 0.144D-02 0.377D-01
 Coeff:      0.994D-01 0.361D+00 0.508D+00
 Gap=     0.139 Goal=   None    Shift=    0.000
 RMSDP=8.55D-08 MaxDP=3.90D-06 DE=-3.15D-09 OVMax= 6.03D-06

 Cycle  10  Pass 1  IDiag  1:
 RMSU=  6.06D-08    CP:  1.00D+00  1.04D+00  4.77D-01  7.02D-01  6.00D-01
                    CP:  8.49D-01  6.71D-01  8.32D-01  7.52D-01
 E= -1375.06676708630     Delta-E=       -0.000000000759 Rises=F Damp=F
 DIIS: error= 2.62D-07 at cycle  10 NSaved=  10.
 NSaved=10 IEnMin=10 EnMin= -1375.06676708630     IErMin=10 ErrMin= 2.62D-07
 ErrMax= 2.62D-07  0.00D+00 EMaxC= 1.00D-01 BMatC= 5.86D-11 BMatP= 8.77D-10
 IDIUse=1 WtCom= 1.00D+00 WtEn= 0.00D+00
 Coeff-Com:  0.289D-04-0.328D-03-0.122D-03-0.207D-02-0.267D-02-0.411D-02
 Coeff-Com:  0.835D-02 0.961D-01 0.246D+00 0.658D+00
 Coeff:      0.289D-04-0.328D-03-0.122D-03-0.207D-02-0.267D-02-0.411D-02
 Coeff:      0.835D-02 0.961D-01 0.246D+00 0.658D+00
 Gap=     0.139 Goal=   None    Shift=    0.000
 RMSDP=3.18D-08 MaxDP=1.05D-06 DE=-7.59D-10 OVMax= 2.88D-06

 Cycle  11  Pass 1  IDiag  1:
 RMSU=  2.08D-08    CP:  1.00D+00  1.04D+00  4.77D-01  7.02D-01  6.01D-01
                    CP:  8.51D-01  6.72D-01  8.65D-01  8.04D-01  8.12D-01
 E= -1375.06676708633     Delta-E=       -0.000000000023 Rises=F Damp=F
 DIIS: error= 8.17D-08 at cycle  11 NSaved=  11.
 NSaved=11 IEnMin=11 EnMin= -1375.06676708633     IErMin=11 ErrMin= 8.17D-08
 ErrMax= 8.17D-08  0.00D+00 EMaxC= 1.00D-01 BMatC= 6.33D-12 BMatP= 5.86D-11
 IDIUse=1 WtCom= 1.00D+00 WtEn= 0.00D+00
 Coeff-Com: -0.221D-05 0.193D-03 0.123D-03-0.674D-03-0.148D-02-0.648D-02
 Coeff-Com: -0.757D-02 0.701D-02 0.609D-01 0.311D+00 0.637D+00
 Coeff:     -0.221D-05 0.193D-03 0.123D-03-0.674D-03-0.148D-02-0.648D-02
 Coeff:     -0.757D-02 0.701D-02 0.609D-01 0.311D+00 0.637D+00
 Gap=     0.139 Goal=   None    Shift=    0.000
 RMSDP=1.08D-08 MaxDP=3.93D-07 DE=-2.32D-11 OVMax= 1.27D-06

 Cycle  12  Pass 1  IDiag  1:
 RMSU=  5.63D-09    CP:  1.00D+00  1.04D+00  4.77D-01  7.02D-01  6.01D-01
                    CP:  8.51D-01  6.74D-01  8.71D-01  8.25D-01  8.76D-01
                    CP:  7.11D-01
 E= -1375.06676708631     Delta-E=        0.000000000020 Rises=F Damp=F
 DIIS: error= 3.59D-08 at cycle  12 NSaved=  12.
 NSaved=12 IEnMin=11 EnMin= -1375.06676708633     IErMin=12 ErrMin= 3.59D-08
 ErrMax= 3.59D-08  0.00D+00 EMaxC= 1.00D-01 BMatC= 7.71D-13 BMatP= 6.33D-12
 IDIUse=1 WtCom= 1.00D+00 WtEn= 0.00D+00
 Coeff-Com: -0.329D-05 0.129D-03 0.741D-04-0.228D-03-0.604D-03-0.319D-02
 Coeff-Com: -0.453D-02-0.282D-02 0.154D-01 0.119D+00 0.344D+00 0.533D+00
 Coeff:     -0.329D-05 0.129D-03 0.741D-04-0.228D-03-0.604D-03-0.319D-02
 Coeff:     -0.453D-02-0.282D-02 0.154D-01 0.119D+00 0.344D+00 0.533D+00
 Gap=     0.139 Goal=   None    Shift=    0.000
 RMSDP=3.28D-09 MaxDP=1.32D-07 DE= 2.05D-11 OVMax= 3.59D-07

 Error on total polarization charges =  0.01129
 SCF Done:  E(RB3LYP) =  -1375.06676709     A.U. after   12 cycles
            NFock= 12  Conv=0.33D-08     -V/T= 2.0464
 KE= 1.314136409005D+03 PE=-6.709054588136D+03 EE= 2.266373401657D+03
 Leave Link  502 at Mon Nov 17 10:50:53 2025, MaxMem=  2684354560 cpu:             933.0 elap:              31.0
 (Enter /home/programes/qq/gaussian/g16.A03/g16/l701.exe)
 ... and contract with generalized density number  0.
 Compute integral first derivatives.
 R6Disp: Adding Grimme-D3(BJ) dispersion energy 1st derivatives to the gradient.
   1 Symmetry operations used in ECPInt.
 ECPInt:  NShTT=   11175 NPrTT=  105620 LenC2=   10449 LenP2D=   50999.
 LDataN:  DoStor=T MaxTD1= 8 Len=  415
 D1PCM: PCM CHGder 1st derivatives, ID1Alg=3 FixD1E=F DoIter=F DoCFld=F I1PDM=0.
 GePol: Maximum number of non-zero 1st derivatives   =     252
 Leave Link  701 at Mon Nov 17 10:50:55 2025, MaxMem=  2684354560 cpu:              45.6 elap:               1.5
 (Enter /home/programes/qq/gaussian/g16.A03/g16/l702.exe)
 L702 exits ... SP integral derivatives will be done elsewhere.
 Leave Link  702 at Mon Nov 17 10:50:55 2025, MaxMem=  2684354560 cpu:               0.2 elap:               0.0
 (Enter /home/programes/qq/gaussian/g16.A03/g16/l703.exe)
 Integral derivatives from FoFJK, PRISM(SPDF).
 Compute integral first derivatives, UseDBF=F ICtDFT=           0.
 Calling FoFJK, ICntrl=      2127 FMM=F ISym2X=0 I1Cent= 0 IOpClX= 0 NMat=1 NMatS=1 NMatT=0.
 FoFJK:  IHMeth= 1 ICntrl=    2127 DoSepK=F KAlg= 0 I1Cent=           0 FoldK=F
 IRaf=         0 NMat=       1 IRICut=       1 DoRegI=T DoRafI=F ISym2E= 0 IDoP0=0 IntGTp=1.
 FoFCou: FMM=F IPFlag=           0 FMFlag=      100000 FMFlg1=         800
         NFxFlg=           0 DoJE=F BraDBF=F KetDBF=F FulRan=T
         wScrn=  0.000000 ICntrl=      2127 IOpCl=  0 I1Cent=           0 NGrid=           0
         NMat0=    1 NMatS0=      1 NMatT0=    0 NMatD0=    1 NMtDS0=    0 NMtDT0=    0
 Symmetry not used in FoFCou.
 Defaulting to unpruned grid for atomic number  75.
 Defaulting to unpruned grid for atomic number  75.
 Defaulting to unpruned grid for atomic number  75.
 Defaulting to unpruned grid for atomic number  75.
 Defaulting to unpruned grid for atomic number  75.
 Defaulting to unpruned grid for atomic number  75.
 Defaulting to unpruned grid for atomic number  75.
 Defaulting to unpruned grid for atomic number  75.
 Defaulting to unpruned grid for atomic number  75.
 Defaulting to unpruned grid for atomic number  75.
 Defaulting to unpruned grid for atomic number  75.
 Defaulting to unpruned grid for atomic number  75.
 Defaulting to unpruned grid for atomic number  75.
 Defaulting to unpruned grid for atomic number  75.
 Defaulting to unpruned grid for atomic number  75.
 Defaulting to unpruned grid for atomic number  75.
 Defaulting to unpruned grid for atomic number  75.
 Defaulting to unpruned grid for atomic number  75.
 Defaulting to unpruned grid for atomic number  75.
 Defaulting to unpruned grid for atomic number  75.
 Defaulting to unpruned grid for atomic number  75.
 Defaulting to unpruned grid for atomic number  75.
 Defaulting to unpruned grid for atomic number  75.
 Defaulting to unpruned grid for atomic number  75.
 Defaulting to unpruned grid for atomic number  75.
 Defaulting to unpruned grid for atomic number  75.
 Defaulting to unpruned grid for atomic number  75.
 Defaulting to unpruned grid for atomic number  75.
 Defaulting to unpruned grid for atomic number  75.
 Defaulting to unpruned grid for atomic number  75.
 Defaulting to unpruned grid for atomic number  75.
 Defaulting to unpruned grid for atomic number  75.
 Leave Link  703 at Mon Nov 17 10:51:00 2025, MaxMem=  2684354560 cpu:             148.8 elap:               4.7
 (Enter /home/programes/qq/gaussian/g16.A03/g16/l716.exe)
 Dipole        = 4.53204924D+00-2.73322347D+00 1.60076901D+00
 -------------------------------------------------------------------
 Center     Atomic                   Forces (Hartrees/Bohr)
 Number     Number              X              Y              Z
 -------------------------------------------------------------------
      1        6          -0.006077227   -0.009885139   -0.000402905
      2        6           0.003570605    0.004848675   -0.000129241
      3        6           0.000682378   -0.005645510   -0.000132158
      4        6          -0.003268271    0.003017299    0.000503598
      5        6           0.001395276   -0.001385278   -0.000406187
      6        6           0.005948916    0.009958144   -0.000427443
      7        6          -0.002637957   -0.005409466   -0.000170269
      8        6           0.005345770    0.002064982   -0.000096528
      9        6          -0.004217643    0.001473869    0.000509851
     10        6           0.001842219   -0.000671813   -0.000345277
     11        1          -0.000453044   -0.000624062    0.000051881
     12        1          -0.000028486    0.000323291   -0.000058739
     13        1           0.000304925   -0.000291096   -0.000131217
     14        1          -0.000724348   -0.000091121   -0.000033165
     15        1           0.000346304    0.000670188    0.000051972
     16        1          -0.000298319   -0.000130202   -0.000061441
     17        1           0.000397667   -0.000116182   -0.000132943
     18        1          -0.000290775    0.000699425   -0.000034505
     19        7          -0.010912651    0.013471417    0.001673409
     20        7          -0.016962369    0.003365581    0.001767253
     21       75           0.021068076   -0.012347463   -0.006568260
     22        6           0.003002004   -0.002253493    0.000262256
     23        6          -0.000556228   -0.001420669    0.001174310
     24        6           0.000904132    0.001143743    0.000833905
     25        8          -0.001606189    0.001192343   -0.001686786
     26        8           0.003243724    0.001307441   -0.000375370
     27        8           0.000363413   -0.003463830   -0.000282463
     28       17          -0.000381904    0.000198927    0.004646462
 -------------------------------------------------------------------
 Cartesian Forces:  Max     0.021068076 RMS     0.004599831
 Leave Link  716 at Mon Nov 17 10:51:00 2025, MaxMem=  2684354560 cpu:               0.3 elap:               0.0
 (Enter /home/programes/qq/gaussian/g16.A03/g16/l103.exe)

 GradGradGradGradGradGradGradGradGradGradGradGradGradGradGradGradGradGrad
 Berny optimization.
 Using GEDIIS/GDIIS optimizer.
 FormGI is forming the generalized inverse of G from B-inverse, IUseBI=4.
 Internal  Forces:  Max     0.017452066 RMS     0.002322685
 Search for a local minimum.
 Step number   7 out of a maximum of  168
 All quantities printed in internal units (Hartrees-Bohrs-Radians)
 RMS Force = .23227D-02 SwitMx=.10000D-02 MixMth= 1
 Mixed Optimization -- RFO/linear search
 Update second derivatives using D2CorX and points    5    6    7
 DE= -7.54D-04 DEPred=-2.78D-03 R= 2.71D-01
 Trust test= 2.71D-01 RLast= 1.66D-01 DXMaxT set to 6.69D-01
 ITU=  0  0  1  1 -1  1  0
 Use linear search instead of GDIIS.
     Eigenvalues ---    0.00623   0.00909   0.01067   0.01497   0.01699
     Eigenvalues ---    0.01783   0.01832   0.01869   0.01930   0.01946
     Eigenvalues ---    0.02017   0.02018   0.02149   0.02151   0.02248
     Eigenvalues ---    0.02249   0.02312   0.02313   0.03596   0.04207
     Eigenvalues ---    0.04643   0.04693   0.04693   0.04709   0.04917
     Eigenvalues ---    0.06583   0.06729   0.08439   0.10832   0.12293
     Eigenvalues ---    0.13783   0.15745   0.15986   0.15994   0.16000
     Eigenvalues ---    0.16000   0.16000   0.16000   0.16001   0.16061
     Eigenvalues ---    0.17509   0.18107   0.21997   0.22000   0.22618
     Eigenvalues ---    0.22970   0.24113   0.24499   0.24557   0.24848
     Eigenvalues ---    0.24979   0.25141   0.29879   0.34513   0.34514
     Eigenvalues ---    0.34526   0.34546   0.34574   0.34585   0.34735
     Eigenvalues ---    0.34747   0.35935   0.36444   0.38617   0.38709
     Eigenvalues ---    0.39160   0.41464   0.47087   0.47420   0.49541
     Eigenvalues ---    0.50155   0.50831   0.51500   0.59024   1.11275
     Eigenvalues ---    1.18100   1.19576   1.53694
 RFO step:  Lambda=-3.17167254D-03 EMin= 6.23446123D-03
 Quartic linear search produced a step of -0.45547.
 Iteration  1 RMS(Cart)=  0.04997869 RMS(Int)=  0.00106739
 Iteration  2 RMS(Cart)=  0.00165517 RMS(Int)=  0.00023431
 Iteration  3 RMS(Cart)=  0.00000092 RMS(Int)=  0.00023431
 ITry= 1 IFail=0 DXMaxC= 2.33D-01 DCOld= 1.00D+10 DXMaxT= 6.69D-01 DXLimC= 3.00D+00 Rises=F
 Variable       Old X    -DE/DX   Delta X   Delta X   Delta X     New X
                                 (Linear)    (Quad)   (Total)
    R1        2.63769   0.00200  -0.00131   0.00483   0.00350   2.64119
    R2        2.82852  -0.00784   0.00378  -0.02575  -0.02198   2.80655
    R3        2.55523   0.00132  -0.00032   0.01162   0.01138   2.56662
    R4        2.64137  -0.00284   0.00279  -0.01051  -0.00780   2.63357
    R5        2.05425   0.00028  -0.00019   0.00114   0.00095   2.05521
    R6        2.62697   0.00327   0.00086   0.00399   0.00478   2.63175
    R7        2.06093  -0.00001   0.00052  -0.00100  -0.00048   2.06045
    R8        2.63398  -0.00116   0.00234  -0.00760  -0.00524   2.62873
    R9        2.05946  -0.00014   0.00067  -0.00140  -0.00073   2.05873
   R10        2.05758   0.00034   0.00014   0.00017   0.00031   2.05789
   R11        2.54009  -0.00153   0.00068   0.00249   0.00324   2.54333
   R12        2.63748   0.00200  -0.00142   0.00497   0.00353   2.64102
   R13        2.55510   0.00134  -0.00035   0.01170   0.01140   2.56649
   R14        2.64143  -0.00286   0.00278  -0.01055  -0.00783   2.63360
   R15        2.05387   0.00029  -0.00026   0.00126   0.00100   2.05487
   R16        2.62691   0.00330   0.00083   0.00404   0.00482   2.63173
   R17        2.06094  -0.00001   0.00055  -0.00103  -0.00048   2.06046
   R18        2.63403  -0.00118   0.00237  -0.00767  -0.00529   2.62874
   R19        2.05947  -0.00015   0.00064  -0.00137  -0.00073   2.05874
   R20        2.05761   0.00037   0.00011   0.00019   0.00030   2.05792
   R21        2.54000  -0.00145   0.00067   0.00261   0.00335   2.54335
   R22        4.39665  -0.01745  -0.03236  -0.04120  -0.07357   4.32308
   R23        4.39761  -0.01745  -0.03244  -0.04123  -0.07365   4.32396
   R24        3.59759  -0.00145  -0.00426  -0.00439  -0.00864   3.58895
   R25        3.60253  -0.00261  -0.00335   0.01421   0.01086   3.61339
   R26        3.60260  -0.00258  -0.00334   0.01418   0.01084   3.61344
   R27        4.83108  -0.00467   0.03540   0.14471   0.18011   5.01118
   R28        2.19904  -0.00173   0.00029   0.00058   0.00087   2.19991
   R29        2.19754  -0.00346  -0.00048  -0.00177  -0.00225   2.19529
   R30        2.19755  -0.00345  -0.00053  -0.00170  -0.00223   2.19532
    A1        2.13620   0.00162   0.00027   0.00563   0.00600   2.14221
    A2        2.11345  -0.00108   0.00532  -0.00822  -0.00264   2.11080
    A3        2.03352  -0.00054  -0.00559   0.00257  -0.00337   2.03015
    A4        2.08214   0.00048  -0.00400   0.00937   0.00532   2.08746
    A5        2.11560  -0.00098   0.00479  -0.01366  -0.00884   2.10676
    A6        2.08544   0.00050  -0.00079   0.00429   0.00352   2.08896
    A7        2.07958  -0.00015   0.00017  -0.00208  -0.00204   2.07754
    A8        2.09118   0.00041  -0.00201   0.00575   0.00377   2.09495
    A9        2.11242  -0.00026   0.00185  -0.00363  -0.00175   2.11067
   A10        2.06830  -0.00013   0.00212  -0.00185   0.00024   2.06854
   A11        2.12866  -0.00035   0.00106  -0.00329  -0.00224   2.12642
   A12        2.08622   0.00048  -0.00317   0.00516   0.00198   2.08820
   A13        2.11218   0.00055  -0.00019   0.00010  -0.00016   2.11201
   A14        2.13619   0.00022  -0.00243   0.00773   0.00543   2.14163
   A15        2.03482  -0.00077   0.00262  -0.00782  -0.00527   2.02955
   A16        2.13583   0.00164   0.00022   0.00578   0.00613   2.14196
   A17        2.03399  -0.00056  -0.00553   0.00236  -0.00354   2.03045
   A18        2.11335  -0.00108   0.00532  -0.00816  -0.00260   2.11075
   A19        2.08245   0.00047  -0.00393   0.00924   0.00525   2.08770
   A20        2.11463  -0.00095   0.00470  -0.01342  -0.00869   2.10593
   A21        2.08611   0.00048  -0.00076   0.00418   0.00344   2.08955
   A22        2.07930  -0.00013   0.00010  -0.00194  -0.00196   2.07734
   A23        2.09131   0.00040  -0.00200   0.00570   0.00373   2.09504
   A24        2.11257  -0.00026   0.00190  -0.00372  -0.00179   2.11078
   A25        2.06832  -0.00013   0.00214  -0.00190   0.00022   2.06854
   A26        2.12833  -0.00035   0.00099  -0.00317  -0.00220   2.12613
   A27        2.08654   0.00048  -0.00313   0.00509   0.00195   2.08849
   A28        2.11206   0.00057  -0.00021   0.00013  -0.00014   2.11192
   A29        2.13628   0.00020  -0.00245   0.00778   0.00544   2.14172
   A30        2.03484  -0.00077   0.00266  -0.00790  -0.00530   2.02954
   A31        2.08663   0.00067  -0.00117  -0.00483  -0.00655   2.08009
   A32        2.05738  -0.00101   0.00301  -0.01117  -0.00943   2.04794
   A33        2.13854   0.00033  -0.00225   0.01366   0.01053   2.14907
   A34        2.08668   0.00067  -0.00117  -0.00476  -0.00655   2.08013
   A35        2.05734  -0.00102   0.00306  -0.01118  -0.00941   2.04793
   A36        2.13867   0.00035  -0.00228   0.01377   0.01049   2.14916
   A37        1.24029   0.00311   0.00445   0.01225   0.01650   1.25678
   A38        1.61129  -0.00062   0.00113   0.01814   0.01925   1.63054
   A39        1.74423  -0.00202  -0.00208  -0.01161  -0.01365   1.73058
   A40        1.44530   0.00029   0.00139   0.00959   0.01087   1.45617
   A41        1.61196  -0.00054   0.00174   0.01616   0.01778   1.62975
   A42        1.74317  -0.00189  -0.00201  -0.01102  -0.01298   1.73019
   A43        1.44543   0.00035   0.00165   0.01019   0.01170   1.45713
   A44        1.58968  -0.00004   0.00227  -0.00298  -0.00058   1.58910
   A45        1.58911   0.00018   0.00309  -0.00380  -0.00066   1.58845
   A46        1.55208   0.00085  -0.00090   0.00891   0.00788   1.55996
   A47        1.62579   0.00023  -0.00524  -0.01995  -0.02513   1.60066
   A48        1.62722   0.00019  -0.00502  -0.02072  -0.02575   1.60147
   A49        2.98345   0.00123   0.00245   0.00124   0.00352   2.98698
   A50        2.98451   0.00109   0.00237   0.00065   0.00285   2.98736
   A51        3.05660  -0.00033   0.00252   0.02773   0.03012   3.08672
   A52        3.12001   0.00198  -0.00352   0.02198   0.01847   3.13847
   A53        3.10279   0.00082  -0.00681   0.00543  -0.00139   3.10140
   A54        3.10246   0.00080  -0.00748   0.00561  -0.00187   3.10059
   A55        3.08710   0.00037  -0.00410  -0.01251  -0.01665   3.07045
   A56        3.19753  -0.00050   0.00400   0.01091   0.01493   3.21245
   A57        3.20203   0.00029  -0.00247  -0.01771  -0.02033   3.18170
   A58        3.18444  -0.00360  -0.00940  -0.04278  -0.05219   3.13225
   A59        3.14201   0.00107  -0.01526   0.02083   0.00557   3.14758
   A60        3.14027  -0.00085   0.01689  -0.02009  -0.00320   3.13707
    D1       -3.13415   0.00005  -0.00079   0.00407   0.00348  -3.13067
    D2        0.00851   0.00001  -0.00094   0.00145   0.00063   0.00914
    D3        0.00184  -0.00002   0.00136   0.00027   0.00172   0.00356
    D4       -3.13868  -0.00005   0.00120  -0.00235  -0.00113  -3.13981
    D5       -0.00344   0.00001  -0.00008   0.00058   0.00049  -0.00296
    D6        3.13379  -0.00008   0.00205  -0.00390  -0.00193   3.13186
    D7       -3.13968   0.00007  -0.00214   0.00424   0.00217  -3.13751
    D8       -0.00245  -0.00001  -0.00001  -0.00024  -0.00025  -0.00270
    D9       -0.00792   0.00008   0.00220   0.02026   0.02225   0.01433
   D10        3.10055  -0.00007  -0.00752  -0.05113  -0.05812   3.04243
   D11        3.12839   0.00003   0.00423   0.01669   0.02064  -3.13416
   D12       -0.04632  -0.00013  -0.00549  -0.05470  -0.05974  -0.10606
   D13        0.00421  -0.00005  -0.00243  -0.01162  -0.01408  -0.00987
   D14        3.14123   0.00004  -0.00072  -0.00084  -0.00156   3.13967
   D15       -3.13844  -0.00002  -0.00227  -0.00906  -0.01127   3.13348
   D16       -0.00141   0.00007  -0.00056   0.00172   0.00125  -0.00016
   D17       -0.00416   0.00004   0.00007   0.00285   0.00290  -0.00126
   D18        3.13548   0.00011   0.00066   0.01127   0.01197  -3.13573
   D19       -3.14113  -0.00005  -0.00166  -0.00809  -0.00975   3.13230
   D20       -0.00149   0.00002  -0.00107   0.00033  -0.00067  -0.00216
   D21        3.14154   0.00007   0.00231   0.01603   0.01851  -3.12313
   D22       -0.00196   0.00004   0.00360   0.01817   0.02187   0.01992
   D23        0.00185  -0.00000   0.00173   0.00783   0.00964   0.01149
   D24        3.14154  -0.00004   0.00302   0.00997   0.01300  -3.12864
   D25        0.00804  -0.00009  -0.00475  -0.02980  -0.03450  -0.02646
   D26       -3.09882   0.00009   0.00526   0.04557   0.05120  -3.04762
   D27       -3.13538  -0.00012  -0.00352  -0.02775  -0.03128   3.11653
   D28        0.04094   0.00006   0.00650   0.04763   0.05442   0.09536
   D29        3.13512  -0.00008   0.00064  -0.00644  -0.00599   3.12913
   D30       -0.00757  -0.00004   0.00075  -0.00346  -0.00284  -0.01040
   D31       -0.00191   0.00001  -0.00159  -0.00179  -0.00346  -0.00537
   D32        3.13858   0.00005  -0.00148   0.00119  -0.00031   3.13827
   D33       -3.12888   0.00001  -0.00398  -0.01341  -0.01713   3.13717
   D34        0.05003   0.00015   0.00552   0.05506   0.06014   0.11016
   D35        0.00841  -0.00007  -0.00188  -0.01779  -0.01948  -0.01107
   D36       -3.09587   0.00007   0.00762   0.05068   0.05779  -3.03808
   D37       -0.00455   0.00005   0.00253   0.01183   0.01439   0.00984
   D38       -3.14146  -0.00004   0.00057   0.00068   0.00125  -3.14020
   D39        3.13812   0.00001   0.00242   0.00892   0.01128  -3.13379
   D40        0.00122  -0.00008   0.00046  -0.00224  -0.00186  -0.00065
   D41        0.00450  -0.00003  -0.00013  -0.00275  -0.00286   0.00164
   D42       -3.13512  -0.00011  -0.00094  -0.01183  -0.01280   3.13526
   D43        3.14134   0.00005   0.00185   0.00857   0.01042  -3.13143
   D44        0.00172  -0.00002   0.00105  -0.00051   0.00047   0.00220
   D45       -3.14124  -0.00008  -0.00250  -0.01665  -0.01933   3.12261
   D46        0.00204  -0.00003  -0.00344  -0.01728  -0.02082  -0.01878
   D47       -0.00158  -0.00000  -0.00171  -0.00781  -0.00961  -0.01119
   D48       -3.14148   0.00005  -0.00266  -0.00843  -0.01110   3.13060
   D49       -0.00855   0.00008   0.00447   0.02763   0.03204   0.02350
   D50        3.09392  -0.00010  -0.00531  -0.04474  -0.05041   3.04351
   D51        3.13467   0.00012   0.00357   0.02702   0.03061  -3.11790
   D52       -0.04605  -0.00005  -0.00621  -0.04534  -0.05184  -0.09789
   D53       -0.05365  -0.00023  -0.00635  -0.06058  -0.06693  -0.12058
   D54       -1.65410   0.00004  -0.00794  -0.07183  -0.07992  -1.73402
   D55        3.03200   0.00028  -0.01035  -0.07148  -0.08185   2.95015
   D56        1.42706  -0.00025  -0.00548  -0.05412  -0.05959   1.36747
   D57        3.12644  -0.00009   0.00341   0.01051   0.01406   3.14050
   D58        1.52600   0.00018   0.00182  -0.00074   0.00106   1.52706
   D59       -0.07109   0.00041  -0.00059  -0.00039  -0.00087  -0.07195
   D60       -1.67603  -0.00011   0.00428   0.01697   0.02139  -1.65464
   D61        0.05229   0.00022   0.00634   0.06047   0.06679   0.11908
   D62        1.65180  -0.00015   0.00710   0.07451   0.08182   1.73362
   D63       -3.03481  -0.00015   0.01044   0.07298   0.08344  -2.95137
   D64       -1.42825   0.00033   0.00583   0.05485   0.06059  -1.36766
   D65       -3.12348   0.00007  -0.00365  -0.01359  -0.01739  -3.14086
   D66       -1.52397  -0.00030  -0.00289   0.00045  -0.00236  -1.52633
   D67        0.07261  -0.00030   0.00046  -0.00108  -0.00074   0.07187
   D68        1.67917   0.00018  -0.00416  -0.01921  -0.02359   1.65558
         Item               Value     Threshold  Converged?
 Maximum Force            0.017452     0.000450     NO 
 RMS     Force            0.002323     0.000300     NO 
 Maximum Displacement     0.232689     0.001800     NO 
 RMS     Displacement     0.050176     0.001200     NO 
 Predicted change in Energy=-3.050059D-04
 Lowest energy point so far.  Saving SCF results.
 GradGradGradGradGradGradGradGradGradGradGradGradGradGradGradGradGradGrad

 Leave Link  103 at Mon Nov 17 10:51:00 2025, MaxMem=  2684354560 cpu:               6.4 elap:               0.2
 (Enter /home/programes/qq/gaussian/g16.A03/g16/l202.exe)
                          Input orientation:                          
 ---------------------------------------------------------------------
 Center     Atomic      Atomic             Coordinates (Angstroms)
 Number     Number       Type             X           Y           Z
 ---------------------------------------------------------------------
      1          6           0       -2.283611    0.297564    0.048503
      2          6           0       -0.893428    0.342022   -0.088838
      3          6           0       -0.237966    1.571588   -0.061960
      4          6           0       -0.988804    2.734613    0.090101
      5          6           0       -2.370312    2.622570    0.208202
      6          6           0       -3.050961   -0.973990    0.043516
      7          6           0       -2.441956   -2.223398   -0.102365
      8          6           0       -3.223572   -3.377056   -0.082848
      9          6           0       -4.602476   -3.256442    0.070632
     10          6           0       -5.147797   -1.982969    0.197004
     11          1           0       -0.318244   -0.572377   -0.214708
     12          1           0        0.846500    1.614272   -0.166663
     13          1           0       -0.524257    3.719802    0.111774
     14          1           0       -2.998055    3.506390    0.311632
     15          1           0       -1.364963   -2.303938   -0.228911
     16          1           0       -2.755449   -4.355421   -0.194753
     17          1           0       -5.257001   -4.127202    0.086334
     18          1           0       -6.222418   -1.840751    0.301360
     19          7           0       -4.395991   -0.866643    0.198075
     20          7           0       -3.006752    1.436695    0.203879
     21         75           0       -5.286430    1.240537    0.217431
     22          6           0       -5.392705    1.301336    2.112672
     23          6           0       -7.140202    0.788615    0.092903
     24          6           0       -5.751041    3.091547    0.098172
     25          8           0       -5.459306    1.349202    3.273922
     26          8           0       -8.254012    0.469246    0.009402
     27          8           0       -5.986920    4.226350    0.019670
     28         17           0       -4.984869    1.062846   -2.411172
 ---------------------------------------------------------------------
                    Distance matrix (angstroms):
                    1          2          3          4          5
     1  C    0.000000
     2  C    1.397658   0.000000
     3  C    2.412468   1.393623   0.000000
     4  C    2.759976   2.401168   1.392662   0.000000
     5  C    2.332097   2.733189   2.392582   1.391067   0.000000
     6  C    1.485160   2.530683   3.795265   4.243631   3.664103
     7  C    2.530432   2.996582   4.388750   5.170162   4.856439
     8  C    3.795209   4.388752   5.779564   6.509731   6.066983
     9  C    4.243652   5.170243   6.509716   6.996553   6.290014
    10  C    3.664211   4.856639   6.066991   6.290011   5.378247
    11  H    2.165352   1.087569   2.150899   3.388030   3.820671
    12  H    3.402589   2.156856   1.090345   2.165510   3.391912
    13  H    3.848512   3.403811   2.174159   1.089436   2.149683
    14  H    3.297913   3.821394   3.391330   2.163748   1.088989
    15  H    2.772848   2.691295   4.039517   5.062634   5.047007
    16  H    4.683169   5.054138   6.440869   7.312370   7.000219
    17  H    5.331138   6.248633   7.595321   8.080967   7.342155
    18  H    4.488933   5.771904   6.898530   6.954804   5.896493
    19  N    2.416588   3.716333   4.827189   4.958793   4.034611
    20  N    1.358194   2.397943   2.784787   2.402010   1.345874
    21  Re   3.151929   4.494396   5.067015   4.551710   3.227049
    22  C    3.864558   5.100041   5.601195   5.053654   3.808874
    23  C    4.881555   6.265354   6.948229   6.451870   5.111608
    24  C    4.453299   5.584914   5.721006   4.775602   3.414875
    25  O    4.646967   5.759323   6.199996   5.660518   4.534532
    26  O    5.972997   7.362339   8.091801   7.610628   6.268513
    27  O    5.399137   6.406515   6.332842   5.216455   3.960746
    28  Cl   3.732620   4.759486   5.320780   5.001971   4.016189
                    6          7          8          9         10
     6  C    0.000000
     7  C    1.397565   0.000000
     8  C    2.412568   1.393639   0.000000
     9  C    2.759986   2.401032   1.392653   0.000000
    10  C    2.332020   2.732948   2.392580   1.391071   0.000000
    11  H    2.774115   2.692330   4.040364   5.063622   5.048154
    12  H    4.683319   5.054284   6.440952   7.312421   7.000285
    13  H    5.331095   6.248604   7.595365   8.080937   7.342069
    14  H    4.488707   5.771578   6.898428   6.954721   5.896405
    15  H    2.164617   1.087389   2.151126   3.387991   3.820243
    16  H    3.402671   2.156927   1.090348   2.165570   3.391951
    17  H    3.848530   3.403609   2.173976   1.089436   2.149862
    18  H    3.297862   3.821165   3.391301   2.163707   1.089002
    19  N    1.358130   2.397770   2.784898   2.402086   1.345882
    20  N    2.416417   3.716054   4.827154   4.958793   4.034628
    21  Re   3.151460   4.493568   5.066332   4.551062   3.226551
    22  C    3.865525   5.102652   5.604712   5.056454   3.810042
    23  C    4.453213   5.584252   5.720463   4.775252   3.414995
    24  C    4.880780   6.264096   6.947207   6.451118   5.111202
    25  O    4.651115   5.767771   6.213206   5.675137   4.546188
    26  O    5.399614   6.406467   6.333078   5.217108   3.961959
    27  O    5.971931   7.360769   8.090636   7.609958   6.268271
    28  Cl   3.730174   4.753567   5.313755   4.996181   4.013242
                   11         12         13         14         15
    11  H    0.000000
    12  H    2.477977   0.000000
    13  H    4.309505   2.527797   0.000000
    14  H    4.908642   4.311552   2.491017   0.000000
    15  H    2.023394   4.499646   6.091658   6.059628   0.000000
    16  H    4.500198   6.972234   8.383400   7.881837   2.478548
    17  H    6.092513   8.383391   9.163786   7.964001   4.309481
    18  H    6.060888   7.881993   7.963964   6.244080   4.908217
    19  N    4.109136   5.811340   6.002770   4.592443   3.381607
    20  N    3.382257   3.875098   3.373995   2.072517   4.107933
    21  Re   5.306249   6.156301   5.369936   3.221742   5.304756
    22  C    5.888773   6.649885   5.792612   3.720263   5.890986
    23  C    6.963192   8.033461   7.236225   4.958985   6.559027
    24  C    6.560299   6.766094   5.264424   2.792238   6.961029
    25  O    6.503347   7.188259   6.322470   4.414338   6.509909
    26  O    8.006973   9.173953   8.386043   6.077884   7.430097
    27  O    7.430788   7.318012   5.486872   3.088187   8.004308
    28  Cl   5.410712   6.272699   5.772498   4.163171   5.403815
                   16         17         18         19         20
    16  H    0.000000
    17  H    2.527619   0.000000
    18  H    4.311562   2.491209   0.000000
    19  N    3.875211   3.374177   2.072532   0.000000
    20  N    5.811253   6.002864   4.592565   2.689866   0.000000
    21  Re   6.155527   5.369420   3.221405   2.287677   2.288142
    22  C    6.654189   5.795988   3.720482   3.059290   3.058526
    23  C    6.765346   5.264194   2.792731   3.206499   4.185419
    24  C    8.032229   7.235644   4.958936   4.184903   3.206374
    25  O    7.203143   6.339767   4.426541   3.937187   3.930374
    26  O    7.318011   5.487743   3.090097   4.087117   5.339243
    27  O    9.172523   8.385646   6.078201   5.338676   4.086259
    28  Cl   6.264219   5.766124   4.161758   3.298162   3.300182
                   21         22         23         24         25
    21  Re   0.000000
    22  C    1.899192   0.000000
    23  C    1.912122   2.719577   0.000000
    24  C    1.912151   2.718726   2.689478   0.000000
    25  O    3.063304   1.164143   3.641230   3.634043   0.000000
    26  O    3.073225   3.647356   1.161698   3.626184   4.386548
    27  O    3.073251   3.645471   3.626768   1.161714   4.375673
    28  Cl   2.651804   4.548447   3.315276   3.316542   5.712038
                   26         27         28
    26  O    0.000000
    27  O    4.388126   0.000000
    28  Cl   4.110819   4.113497   0.000000
 Symmetry turned off by external request.
 Stoichiometry    C13H8ClN2O3Re
 Framework group  C1[X(C13H8ClN2O3Re)]
 Deg. of freedom    78
 Full point group                 C1      NOp   1
 Rotational constants (GHZ):           0.3366022           0.2667024           0.1992618
 Leave Link  202 at Mon Nov 17 10:51:00 2025, MaxMem=  2684354560 cpu:               0.1 elap:               0.0
 (Enter /home/programes/qq/gaussian/g16.A03/g16/l301.exe)
 Basis read from rwf:  (5D, 7F)
 Pseudo-potential data read from rwf file.
   339 basis functions,   774 primitive gaussians,   363 cartesian basis functions
    78 alpha electrons       78 beta electrons
       nuclear repulsion energy      1752.8719253802 Hartrees.
 IExCor=  402 DFT=T Ex+Corr=B3LYP ExCW=0 ScaHFX=  0.200000
 ScaDFX=  0.800000  0.720000  1.000000  0.810000 ScalE2=  1.000000  1.000000
 IRadAn=      5 IRanWt=     -1 IRanGd=            0 ICorTp=0 IEmpDi=141
 NAtoms=   28 NActive=   28 NUniq=   28 SFac= 1.00D+00 NAtFMM=   60 NAOKFM=F Big=F
 Integral buffers will be    131072 words long.
 Raffenetti 2 integral format.
 Two-electron integral symmetry is turned off.
 R6Disp:  Grimme-D3(BJ) Dispersion energy=       -0.0844040075 Hartrees.
 Nuclear repulsion after empirical dispersion term =     1752.7875213727 Hartrees.
 No density basis found on file   724.
 ------------------------------------------------------------------------------
 Polarizable Continuum Model (PCM)
 =================================
 Model                : PCM.
 Atomic radii         : UFF (Universal Force Field).
 Polarization charges : Total charges.
 Charge compensation  : None.
 Solution method      : On-the-fly selection.
 Cavity type          : Scaled VdW (van der Waals Surface) (Alpha=1.100).
 Cavity algorithm     : GePol (No added spheres)
                        Default sphere list used, NSphG=   28.
                        Lebedev-Laikov grids with approx.  5.0 points / Ang**2.
                        Smoothing algorithm: York/Karplus (Gamma=1.0000).
                        Polarization charges: spherical gaussians, with
                                              point-specific exponents (IZeta= 3).
                        Self-potential: point-specific (ISelfS= 7).
                        Self-field    : sphere-specific E.n sum rule (ISelfD= 2).
 1st derivatives      : Analytical E(r).r(x)/FMM algorithm (CHGder, D1EAlg=3).
                        Cavity 1st derivative terms included.
 Solvent              : n,n-DiMethylFormamide, Eps=  37.219000 Eps(inf)=   2.046330
 ------------------------------------------------------------------------------
 GePol: Number of generator spheres                  =      28
 GePol: Total number of spheres                      =      28
 GePol: Number of exposed spheres                    =      27 ( 96.43%)
 GePol: Number of points                             =    2586
 GePol: Average weight of points                     =       0.13
 GePol: Minimum weight of points                     =   0.16D-07
 GePol: Maximum weight of points                     =    0.21616
 GePol: Number of points with low weight             =     125
 GePol: Fraction of low-weight points (<1% of avg)   =       4.83%
 GePol: Cavity surface area                          =    342.470 Ang**2
 GePol: Cavity volume                                =    378.293 Ang**3
 Leave Link  301 at Mon Nov 17 10:51:00 2025, MaxMem=  2684354560 cpu:               1.2 elap:               0.0
 (Enter /home/programes/qq/gaussian/g16.A03/g16/l302.exe)
 NPDir=0 NMtPBC=     1 NCelOv=     1 NCel=       1 NClECP=     1 NCelD=      1
         NCelK=      1 NCelE2=     1 NClLst=     1 CellRange=     0.0.
 One-electron integrals computed using PRISM.
   1 Symmetry operations used in ECPInt.
 ECPInt:  NShTT=   11175 NPrTT=  105620 LenC2=   10448 LenP2D=   51082.
 LDataN:  DoStor=T MaxTD1= 7 Len=  274
 NBasis=   339 RedAO= T EigKep=  3.66D-04  NBF=   339
 NBsUse=   339 1.00D-06 EigRej= -1.00D+00 NBFU=   339
 Precomputing XC quadrature grid using
 IXCGrd= 4 IRadAn=           5 IRanWt=          -1 IRanGd=           0 AccXCQ= 0.00D+00.
 Defaulting to unpruned grid for atomic number  75.
 Generated NRdTot=       0 NPtTot=           0 NUsed=           0 NTot=          32
 NSgBfM=   363   363   363   363   363 MxSgAt=    28 MxSgA2=    28.
 Leave Link  302 at Mon Nov 17 10:51:00 2025, MaxMem=  2684354560 cpu:              12.3 elap:               0.4
 (Enter /home/programes/qq/gaussian/g16.A03/g16/l303.exe)
 DipDrv:  MaxL=1.
 Leave Link  303 at Mon Nov 17 10:51:01 2025, MaxMem=  2684354560 cpu:               1.7 elap:               0.1
 (Enter /home/programes/qq/gaussian/g16.A03/g16/l401.exe)
 Initial guess from the checkpoint file:  "re-bpy-co3-cl.chk"
 B after Tr=     0.029298   -0.017723    0.079567
         Rot=    0.999993    0.002002    0.003087   -0.000009 Ang=   0.42 deg.
 Guess basis will be translated and rotated to current coordinates.
 JPrj=2 DoOrth=T DoCkMO=T.
 Generating alternative initial guess.
 ExpMin= 2.80D-02 ExpMax= 1.28D+05 ExpMxC= 1.24D+03 IAcc=3 IRadAn=         5 AccDes= 0.00D+00
 Harris functional with IExCor=  402 and IRadAn=       5 diagonalized for initial guess.
 HarFok:  IExCor=  402 AccDes= 0.00D+00 IRadAn=         5 IDoV= 1 UseB2=F ITyADJ=14
 ICtDFT=  3500011 ScaDFX=  1.000000  1.000000  1.000000  1.000000
 Defaulting to unpruned grid for atomic number  75.
 FoFCou: FMM=F IPFlag=           0 FMFlag=      100000 FMFlg1=           0
         NFxFlg=           0 DoJE=T BraDBF=F KetDBF=T FulRan=T
         wScrn=  0.000000 ICntrl=       500 IOpCl=  0 I1Cent=   200000004 NGrid=           0
         NMat0=    1 NMatS0=      1 NMatT0=    0 NMatD0=    1 NMtDS0=    0 NMtDT0=    0
 Symmetry not used in FoFCou.
 Harris En= -1374.75458057760    
 Leave Link  401 at Mon Nov 17 10:51:02 2025, MaxMem=  2684354560 cpu:              31.8 elap:               1.0
 (Enter /home/programes/qq/gaussian/g16.A03/g16/l502.exe)
 Two-electron integral symmetry not used.
 Closed shell SCF:
 Using DIIS extrapolation, IDIIS=  1040.
 NGot=  2684354560 LenX=  2684076439 LenY=  2683944229
 Requested convergence on RMS density matrix=1.00D-08 within 128 cycles.
 Requested convergence on MAX density matrix=1.00D-06.
 Requested convergence on             energy=1.00D-06.
 No special actions if energy rises.
 Fock matrices will be formed incrementally for  20 cycles.

 Cycle   1  Pass 1  IDiag  1:
 FoFJK:  IHMeth= 1 ICntrl=       0 DoSepK=F KAlg= 0 I1Cent=           0 FoldK=F
 IRaf= 870000000 NMat=       1 IRICut=       1 DoRegI=T DoRafI=F ISym2E= 0 IDoP0=0 IntGTp=1.
 FoFCou: FMM=F IPFlag=           0 FMFlag=      100000 FMFlg1=           0
         NFxFlg=           0 DoJE=F BraDBF=F KetDBF=F FulRan=T
         wScrn=  0.000000 ICntrl=         0 IOpCl=  0 I1Cent=           0 NGrid=           0
         NMat0=    1 NMatS0=      1 NMatT0=    0 NMatD0=    1 NMtDS0=    0 NMtDT0=    0
 Symmetry not used in FoFCou.
 Defaulting to unpruned grid for atomic number  75.
 Defaulting to unpruned grid for atomic number  75.
 Defaulting to unpruned grid for atomic number  75.
 Defaulting to unpruned grid for atomic number  75.
 Defaulting to unpruned grid for atomic number  75.
 Defaulting to unpruned grid for atomic number  75.
 Defaulting to unpruned grid for atomic number  75.
 Defaulting to unpruned grid for atomic number  75.
 Defaulting to unpruned grid for atomic number  75.
 Defaulting to unpruned grid for atomic number  75.
 Defaulting to unpruned grid for atomic number  75.
 Defaulting to unpruned grid for atomic number  75.
 Defaulting to unpruned grid for atomic number  75.
 Defaulting to unpruned grid for atomic number  75.
 Defaulting to unpruned grid for atomic number  75.
 Defaulting to unpruned grid for atomic number  75.
 Defaulting to unpruned grid for atomic number  75.
 Defaulting to unpruned grid for atomic number  75.
 Defaulting to unpruned grid for atomic number  75.
 Defaulting to unpruned grid for atomic number  75.
 Defaulting to unpruned grid for atomic number  75.
 Defaulting to unpruned grid for atomic number  75.
 Defaulting to unpruned grid for atomic number  75.
 Defaulting to unpruned grid for atomic number  75.
 Defaulting to unpruned grid for atomic number  75.
 Defaulting to unpruned grid for atomic number  75.
 Defaulting to unpruned grid for atomic number  75.
 Defaulting to unpruned grid for atomic number  75.
 Defaulting to unpruned grid for atomic number  75.
 Defaulting to unpruned grid for atomic number  75.
 Defaulting to unpruned grid for atomic number  75.
 Defaulting to unpruned grid for atomic number  75.
 Inv3:  Mode=1 IEnd=    20062188.
 Iteration    1 A*A^-1 deviation from unit magnitude is 1.08D-14 for    469.
 Iteration    1 A*A^-1 deviation from orthogonality  is 2.70D-15 for   1313     87.
 Iteration    1 A^-1*A deviation from unit magnitude is 9.88D-15 for    469.
 Iteration    1 A^-1*A deviation from orthogonality  is 1.97D-15 for   2562   1419.
 E= -1375.05023816524    
 DIIS: error= 4.86D-03 at cycle   1 NSaved=   1.
 NSaved= 1 IEnMin= 1 EnMin= -1375.05023816524     IErMin= 1 ErrMin= 4.86D-03
 ErrMax= 4.86D-03  0.00D+00 EMaxC= 1.00D-01 BMatC= 1.03D-02 BMatP= 1.03D-02
 IDIUse=3 WtCom= 9.51D-01 WtEn= 4.86D-02
 Coeff-Com:  0.100D+01
 Coeff-En:   0.100D+01
 Coeff:      0.100D+01
 Gap=     0.613 Goal=   None    Shift=    0.000
 GapD=    0.613 DampG=2.000 DampE=1.000 DampFc=2.0000 IDamp=-1.
 RMSDP=5.31D-04 MaxDP=2.18D-02              OVMax= 3.40D-02

 Cycle   2  Pass 1  IDiag  1:
 RMSU=  5.31D-04    CP:  1.00D+00
 E= -1375.06698802441     Delta-E=       -0.016749859171 Rises=F Damp=F
 DIIS: error= 8.08D-04 at cycle   2 NSaved=   2.
 NSaved= 2 IEnMin= 2 EnMin= -1375.06698802441     IErMin= 2 ErrMin= 8.08D-04
 ErrMax= 8.08D-04  0.00D+00 EMaxC= 1.00D-01 BMatC= 4.20D-04 BMatP= 1.03D-02
 IDIUse=3 WtCom= 9.92D-01 WtEn= 8.08D-03
 Coeff-Com: -0.123D-01 0.101D+01
 Coeff-En:   0.000D+00 0.100D+01
 Coeff:     -0.122D-01 0.101D+01
 Gap=     0.138 Goal=   None    Shift=    0.000
 RMSDP=1.70D-04 MaxDP=6.12D-03 DE=-1.67D-02 OVMax= 1.09D-02

 Cycle   3  Pass 1  IDiag  1:
 RMSU=  1.70D-04    CP:  9.99D-01  9.97D-01
 E= -1375.06650560777     Delta-E=        0.000482416643 Rises=F Damp=F
 DIIS: error= 1.32D-03 at cycle   3 NSaved=   3.
 NSaved= 3 IEnMin= 2 EnMin= -1375.06698802441     IErMin= 2 ErrMin= 8.08D-04
 ErrMax= 1.32D-03  0.00D+00 EMaxC= 1.00D-01 BMatC= 1.09D-03 BMatP= 4.20D-04
 IDIUse=3 WtCom= 2.16D-01 WtEn= 7.84D-01
 Coeff-Com: -0.410D-01 0.658D+00 0.383D+00
 Coeff-En:   0.000D+00 0.672D+00 0.328D+00
 Coeff:     -0.887D-02 0.669D+00 0.340D+00
 Gap=     0.138 Goal=   None    Shift=    0.000
 RMSDP=1.02D-04 MaxDP=5.18D-03 DE= 4.82D-04 OVMax= 7.76D-03

 Cycle   4  Pass 1  IDiag  1:
 RMSU=  4.55D-05    CP:  1.00D+00  1.05D+00  4.88D-01
 E= -1375.06740498764     Delta-E=       -0.000899379872 Rises=F Damp=F
 DIIS: error= 5.34D-04 at cycle   4 NSaved=   4.
 NSaved= 4 IEnMin= 4 EnMin= -1375.06740498764     IErMin= 4 ErrMin= 5.34D-04
 ErrMax= 5.34D-04  0.00D+00 EMaxC= 1.00D-01 BMatC= 7.88D-05 BMatP= 4.20D-04
 IDIUse=3 WtCom= 9.95D-01 WtEn= 5.34D-03
 Coeff-Com: -0.265D-01 0.357D+00 0.240D+00 0.430D+00
 Coeff-En:   0.000D+00 0.000D+00 0.000D+00 0.100D+01
 Coeff:     -0.263D-01 0.355D+00 0.239D+00 0.433D+00
 Gap=     0.138 Goal=   None    Shift=    0.000
 RMSDP=3.93D-05 MaxDP=3.31D-03 DE=-8.99D-04 OVMax= 3.59D-03

 Cycle   5  Pass 1  IDiag  1:
 RMSU=  2.75D-05    CP:  9.99D-01  1.06D+00  4.83D-01  4.09D-01
 E= -1375.06744495005     Delta-E=       -0.000039962411 Rises=F Damp=F
 DIIS: error= 3.84D-04 at cycle   5 NSaved=   5.
 NSaved= 5 IEnMin= 5 EnMin= -1375.06744495005     IErMin= 5 ErrMin= 3.84D-04
 ErrMax= 3.84D-04  0.00D+00 EMaxC= 1.00D-01 BMatC= 3.69D-05 BMatP= 7.88D-05
 IDIUse=3 WtCom= 9.96D-01 WtEn= 3.84D-03
 Coeff-Com: -0.112D-01 0.128D+00 0.104D+00 0.374D+00 0.405D+00
 Coeff-En:   0.000D+00 0.000D+00 0.000D+00 0.363D+00 0.637D+00
 Coeff:     -0.112D-01 0.127D+00 0.104D+00 0.374D+00 0.405D+00
 Gap=     0.138 Goal=   None    Shift=    0.000
 RMSDP=1.80D-05 MaxDP=1.67D-03 DE=-4.00D-05 OVMax= 1.87D-03

 Cycle   6  Pass 1  IDiag  1:
 RMSU=  9.03D-06    CP:  9.99D-01  1.06D+00  4.87D-01  6.10D-01  5.50D-01
 E= -1375.06747891804     Delta-E=       -0.000033967994 Rises=F Damp=F
 DIIS: error= 5.74D-05 at cycle   6 NSaved=   6.
 NSaved= 6 IEnMin= 6 EnMin= -1375.06747891804     IErMin= 6 ErrMin= 5.74D-05
 ErrMax= 5.74D-05  0.00D+00 EMaxC= 1.00D-01 BMatC= 1.99D-06 BMatP= 3.69D-05
 IDIUse=1 WtCom= 1.00D+00 WtEn= 0.00D+00
 Coeff-Com: -0.177D-02 0.776D-02 0.159D-01 0.149D+00 0.246D+00 0.583D+00
 Coeff:     -0.177D-02 0.776D-02 0.159D-01 0.149D+00 0.246D+00 0.583D+00
 Gap=     0.138 Goal=   None    Shift=    0.000
 RMSDP=4.73D-06 MaxDP=2.69D-04 DE=-3.40D-05 OVMax= 3.89D-04

 Cycle   7  Pass 1  IDiag  1:
 RMSU=  3.47D-06    CP:  9.99D-01  1.06D+00  4.96D-01  6.20D-01  5.89D-01
                    CP:  7.19D-01
 E= -1375.06748033887     Delta-E=       -0.000001420828 Rises=F Damp=F
 DIIS: error= 2.96D-05 at cycle   7 NSaved=   7.
 NSaved= 7 IEnMin= 7 EnMin= -1375.06748033887     IErMin= 7 ErrMin= 2.96D-05
 ErrMax= 2.96D-05  0.00D+00 EMaxC= 1.00D-01 BMatC= 3.72D-07 BMatP= 1.99D-06
 IDIUse=1 WtCom= 1.00D+00 WtEn= 0.00D+00
 Coeff-Com:  0.449D-03-0.137D-01-0.533D-02 0.394D-01 0.997D-01 0.376D+00
 Coeff-Com:  0.503D+00
 Coeff:      0.449D-03-0.137D-01-0.533D-02 0.394D-01 0.997D-01 0.376D+00
 Coeff:      0.503D+00
 Gap=     0.138 Goal=   None    Shift=    0.000
 RMSDP=1.92D-06 MaxDP=8.02D-05 DE=-1.42D-06 OVMax= 2.07D-04

 Cycle   8  Pass 1  IDiag  1:
 RMSU=  7.06D-07    CP:  9.99D-01  1.06D+00  4.95D-01  6.29D-01  6.13D-01
                    CP:  7.51D-01  5.47D-01
 E= -1375.06748072531     Delta-E=       -0.000000386440 Rises=F Damp=F
 DIIS: error= 6.33D-06 at cycle   8 NSaved=   8.
 NSaved= 8 IEnMin= 8 EnMin= -1375.06748072531     IErMin= 8 ErrMin= 6.33D-06
 ErrMax= 6.33D-06  0.00D+00 EMaxC= 1.00D-01 BMatC= 7.44D-09 BMatP= 3.72D-07
 IDIUse=1 WtCom= 1.00D+00 WtEn= 0.00D+00
 Coeff-Com:  0.288D-03-0.623D-02-0.298D-02 0.598D-02 0.251D-01 0.113D+00
 Coeff-Com:  0.200D+00 0.665D+00
 Coeff:      0.288D-03-0.623D-02-0.298D-02 0.598D-02 0.251D-01 0.113D+00
 Coeff:      0.200D+00 0.665D+00
 Gap=     0.138 Goal=   None    Shift=    0.000
 RMSDP=3.45D-07 MaxDP=1.91D-05 DE=-3.86D-07 OVMax= 2.76D-05

 Cycle   9  Pass 1  IDiag  1:
 RMSU=  2.76D-07    CP:  9.99D-01  1.06D+00  4.95D-01  6.29D-01  6.13D-01
                    CP:  7.61D-01  5.75D-01  7.97D-01
 E= -1375.06748073028     Delta-E=       -0.000000004969 Rises=F Damp=F
 DIIS: error= 3.73D-06 at cycle   9 NSaved=   9.
 NSaved= 9 IEnMin= 9 EnMin= -1375.06748073028     IErMin= 9 ErrMin= 3.73D-06
 ErrMax= 3.73D-06  0.00D+00 EMaxC= 1.00D-01 BMatC= 3.16D-09 BMatP= 7.44D-09
 IDIUse=1 WtCom= 1.00D+00 WtEn= 0.00D+00
 Coeff-Com:  0.140D-03-0.271D-02-0.137D-02 0.912D-05 0.680D-02 0.368D-01
 Coeff-Com:  0.806D-01 0.438D+00 0.442D+00
 Coeff:      0.140D-03-0.271D-02-0.137D-02 0.912D-05 0.680D-02 0.368D-01
 Coeff:      0.806D-01 0.438D+00 0.442D+00
 Gap=     0.138 Goal=   None    Shift=    0.000
 RMSDP=1.48D-07 MaxDP=8.95D-06 DE=-4.97D-09 OVMax= 1.05D-05

 Cycle  10  Pass 1  IDiag  1:
 RMSU=  9.13D-08    CP:  9.99D-01  1.06D+00  4.96D-01  6.29D-01  6.15D-01
                    CP:  7.62D-01  5.81D-01  8.50D-01  6.88D-01
 E= -1375.06748073286     Delta-E=       -0.000000002580 Rises=F Damp=F
 DIIS: error= 5.48D-07 at cycle  10 NSaved=  10.
 NSaved=10 IEnMin=10 EnMin= -1375.06748073286     IErMin=10 ErrMin= 5.48D-07
 ErrMax= 5.48D-07  0.00D+00 EMaxC= 1.00D-01 BMatC= 1.69D-10 BMatP= 3.16D-09
 IDIUse=1 WtCom= 1.00D+00 WtEn= 0.00D+00
 Coeff-Com:  0.261D-04-0.367D-03-0.227D-03-0.101D-02-0.678D-03 0.622D-03
 Coeff-Com:  0.925D-02 0.124D+00 0.223D+00 0.646D+00
 Coeff:      0.261D-04-0.367D-03-0.227D-03-0.101D-02-0.678D-03 0.622D-03
 Coeff:      0.925D-02 0.124D+00 0.223D+00 0.646D+00
 Gap=     0.138 Goal=   None    Shift=    0.000
 RMSDP=5.16D-08 MaxDP=3.74D-06 DE=-2.58D-09 OVMax= 4.83D-06

 Cycle  11  Pass 1  IDiag  1:
 RMSU=  3.48D-08    CP:  9.99D-01  1.06D+00  4.96D-01  6.29D-01  6.15D-01
                    CP:  7.62D-01  5.81D-01  8.81D-01  6.88D-01  7.74D-01
 E= -1375.06748073304     Delta-E=       -0.000000000174 Rises=F Damp=F
 DIIS: error= 1.56D-07 at cycle  11 NSaved=  11.
 NSaved=11 IEnMin=11 EnMin= -1375.06748073304     IErMin=11 ErrMin= 1.56D-07
 ErrMax= 1.56D-07  0.00D+00 EMaxC= 1.00D-01 BMatC= 1.89D-11 BMatP= 1.69D-10
 IDIUse=1 WtCom= 1.00D+00 WtEn= 0.00D+00
 Coeff-Com: -0.254D-05 0.135D-03 0.434D-04-0.509D-03-0.107D-02-0.389D-02
 Coeff-Com: -0.456D-02 0.125D-01 0.630D-01 0.319D+00 0.615D+00
 Coeff:     -0.254D-05 0.135D-03 0.434D-04-0.509D-03-0.107D-02-0.389D-02
 Coeff:     -0.456D-02 0.125D-01 0.630D-01 0.319D+00 0.615D+00
 Gap=     0.138 Goal=   None    Shift=    0.000
 RMSDP=1.63D-08 MaxDP=1.36D-06 DE=-1.74D-10 OVMax= 1.66D-06

 Cycle  12  Pass 1  IDiag  1:
 RMSU=  8.49D-09    CP:  9.99D-01  1.06D+00  4.96D-01  6.29D-01  6.15D-01
                    CP:  7.62D-01  5.82D-01  8.82D-01  7.17D-01  8.35D-01
                    CP:  7.40D-01
 E= -1375.06748073302     Delta-E=        0.000000000015 Rises=F Damp=F
 DIIS: error= 4.92D-08 at cycle  12 NSaved=  12.
 NSaved=12 IEnMin=11 EnMin= -1375.06748073304     IErMin=12 ErrMin= 4.92D-08
 ErrMax= 4.92D-08  0.00D+00 EMaxC= 1.00D-01 BMatC= 1.29D-12 BMatP= 1.89D-11
 IDIUse=1 WtCom= 1.00D+00 WtEn= 0.00D+00
 Coeff-Com: -0.236D-05 0.833D-04 0.309D-04-0.197D-03-0.477D-03-0.189D-02
 Coeff-Com: -0.265D-02-0.339D-03 0.204D-01 0.121D+00 0.301D+00 0.563D+00
 Coeff:     -0.236D-05 0.833D-04 0.309D-04-0.197D-03-0.477D-03-0.189D-02
 Coeff:     -0.265D-02-0.339D-03 0.204D-01 0.121D+00 0.301D+00 0.563D+00
 Gap=     0.138 Goal=   None    Shift=    0.000
 RMSDP=4.01D-09 MaxDP=1.76D-07 DE= 1.55D-11 OVMax= 3.43D-07

 Error on total polarization charges =  0.01121
 SCF Done:  E(RB3LYP) =  -1375.06748073     A.U. after   12 cycles
            NFock= 12  Conv=0.40D-08     -V/T= 2.0464
 KE= 1.314110633864D+03 PE=-6.707587783159D+03 EE= 2.265622147189D+03
 Leave Link  502 at Mon Nov 17 10:51:33 2025, MaxMem=  2684354560 cpu:             957.2 elap:              31.7
 (Enter /home/programes/qq/gaussian/g16.A03/g16/l701.exe)
 ... and contract with generalized density number  0.
 Compute integral first derivatives.
 R6Disp: Adding Grimme-D3(BJ) dispersion energy 1st derivatives to the gradient.
   1 Symmetry operations used in ECPInt.
 ECPInt:  NShTT=   11175 NPrTT=  105620 LenC2=   10448 LenP2D=   51082.
 LDataN:  DoStor=T MaxTD1= 8 Len=  415
 D1PCM: PCM CHGder 1st derivatives, ID1Alg=3 FixD1E=F DoIter=F DoCFld=F I1PDM=0.
 GePol: Maximum number of non-zero 1st derivatives   =     257
 Leave Link  701 at Mon Nov 17 10:51:35 2025, MaxMem=  2684354560 cpu:              45.2 elap:               1.5
 (Enter /home/programes/qq/gaussian/g16.A03/g16/l702.exe)
 L702 exits ... SP integral derivatives will be done elsewhere.
 Leave Link  702 at Mon Nov 17 10:51:35 2025, MaxMem=  2684354560 cpu:               0.2 elap:               0.0
 (Enter /home/programes/qq/gaussian/g16.A03/g16/l703.exe)
 Integral derivatives from FoFJK, PRISM(SPDF).
 Compute integral first derivatives, UseDBF=F ICtDFT=           0.
 Calling FoFJK, ICntrl=      2127 FMM=F ISym2X=0 I1Cent= 0 IOpClX= 0 NMat=1 NMatS=1 NMatT=0.
 FoFJK:  IHMeth= 1 ICntrl=    2127 DoSepK=F KAlg= 0 I1Cent=           0 FoldK=F
 IRaf=         0 NMat=       1 IRICut=       1 DoRegI=T DoRafI=F ISym2E= 0 IDoP0=0 IntGTp=1.
 FoFCou: FMM=F IPFlag=           0 FMFlag=      100000 FMFlg1=         800
         NFxFlg=           0 DoJE=F BraDBF=F KetDBF=F FulRan=T
         wScrn=  0.000000 ICntrl=      2127 IOpCl=  0 I1Cent=           0 NGrid=           0
         NMat0=    1 NMatS0=      1 NMatT0=    0 NMatD0=    1 NMtDS0=    0 NMtDT0=    0
 Symmetry not used in FoFCou.
 Defaulting to unpruned grid for atomic number  75.
 Defaulting to unpruned grid for atomic number  75.
 Defaulting to unpruned grid for atomic number  75.
 Defaulting to unpruned grid for atomic number  75.
 Defaulting to unpruned grid for atomic number  75.
 Defaulting to unpruned grid for atomic number  75.
 Defaulting to unpruned grid for atomic number  75.
 Defaulting to unpruned grid for atomic number  75.
 Defaulting to unpruned grid for atomic number  75.
 Defaulting to unpruned grid for atomic number  75.
 Defaulting to unpruned grid for atomic number  75.
 Defaulting to unpruned grid for atomic number  75.
 Defaulting to unpruned grid for atomic number  75.
 Defaulting to unpruned grid for atomic number  75.
 Defaulting to unpruned grid for atomic number  75.
 Defaulting to unpruned grid for atomic number  75.
 Defaulting to unpruned grid for atomic number  75.
 Defaulting to unpruned grid for atomic number  75.
 Defaulting to unpruned grid for atomic number  75.
 Defaulting to unpruned grid for atomic number  75.
 Defaulting to unpruned grid for atomic number  75.
 Defaulting to unpruned grid for atomic number  75.
 Defaulting to unpruned grid for atomic number  75.
 Defaulting to unpruned grid for atomic number  75.
 Defaulting to unpruned grid for atomic number  75.
 Defaulting to unpruned grid for atomic number  75.
 Defaulting to unpruned grid for atomic number  75.
 Defaulting to unpruned grid for atomic number  75.
 Defaulting to unpruned grid for atomic number  75.
 Defaulting to unpruned grid for atomic number  75.
 Defaulting to unpruned grid for atomic number  75.
 Defaulting to unpruned grid for atomic number  75.
 Leave Link  703 at Mon Nov 17 10:51:40 2025, MaxMem=  2684354560 cpu:             148.7 elap:               4.7
 (Enter /home/programes/qq/gaussian/g16.A03/g16/l716.exe)
 Dipole        = 4.52403886D+00-2.73634088D+00 1.75940438D+00
 -------------------------------------------------------------------
 Center     Atomic                   Forces (Hartrees/Bohr)
 Number     Number              X              Y              Z
 -------------------------------------------------------------------
      1        6          -0.003201241   -0.002431168    0.001260981
      2        6           0.001106859    0.000732849    0.000500038
      3        6           0.000446785   -0.001587804   -0.000663335
      4        6          -0.000730642    0.001160148   -0.000144277
      5        6          -0.001107240   -0.000653698    0.001686135
      6        6           0.000669442    0.003934457    0.001312009
      7        6          -0.000143096   -0.001320815    0.000537768
      8        6           0.001620496    0.000375389   -0.000733089
      9        6          -0.001371727    0.000103296   -0.000149977
     10        6           0.000022123    0.001294100    0.001488495
     11        1          -0.000189144   -0.000189516    0.000060107
     12        1           0.000104882    0.000103048    0.000178999
     13        1           0.000153441   -0.000008346   -0.000165599
     14        1          -0.000309802   -0.000032028    0.000548647
     15        1           0.000074307    0.000254733    0.000076308
     16        1          -0.000034186   -0.000151607    0.000193189
     17        1           0.000083080   -0.000120690   -0.000111094
     18        1          -0.000115218    0.000305772    0.000561155
     19        7          -0.004271711    0.006484822   -0.003965996
     20        7          -0.007738818    0.000762226   -0.004211260
     21       75           0.012271294   -0.007880213   -0.008416698
     22        6          -0.000614282    0.001348290    0.000732901
     23        6           0.000330569   -0.000734044    0.000745336
     24        6           0.000820292    0.000035309    0.000946135
     25        8           0.000408224   -0.000754312   -0.001970030
     26        8           0.002021365    0.000931782   -0.000039660
     27        8           0.000082512   -0.002230627   -0.000148559
     28       17          -0.000388563    0.000268645    0.009891373
 -------------------------------------------------------------------
 Cartesian Forces:  Max     0.012271294 RMS     0.002706267
 Leave Link  716 at Mon Nov 17 10:51:40 2025, MaxMem=  2684354560 cpu:               0.3 elap:               0.0
 (Enter /home/programes/qq/gaussian/g16.A03/g16/l103.exe)

 GradGradGradGradGradGradGradGradGradGradGradGradGradGradGradGradGradGrad
 Berny optimization.
 Using GEDIIS/GDIIS optimizer.
 FormGI is forming the generalized inverse of G from B-inverse, IUseBI=4.
 Internal  Forces:  Max     0.010016057 RMS     0.001535485
 Search for a local minimum.
 Step number   8 out of a maximum of  168
 All quantities printed in internal units (Hartrees-Bohrs-Radians)
 RMS Force = .15355D-02 SwitMx=.10000D-02 MixMth= 1
 Mixed Optimization -- RFO/linear search
 Update second derivatives using D2CorX and points    5    6    7    8
 DE= -7.14D-04 DEPred=-3.05D-04 R= 2.34D+00
 TightC=F SS=  1.41D+00  RLast= 3.63D-01 DXNew= 1.1258D+00 1.0889D+00
 Trust test= 2.34D+00 RLast= 3.63D-01 DXMaxT set to 1.09D+00
 ITU=  1  0  0  1  1 -1  1  0
 Use linear search instead of GDIIS.
     Eigenvalues ---    0.00504   0.00921   0.01042   0.01505   0.01641
     Eigenvalues ---    0.01784   0.01834   0.01871   0.01947   0.01962
     Eigenvalues ---    0.02019   0.02025   0.02153   0.02163   0.02246
     Eigenvalues ---    0.02249   0.02313   0.02340   0.03527   0.04279
     Eigenvalues ---    0.04646   0.04693   0.04693   0.04760   0.05005
     Eigenvalues ---    0.06744   0.06834   0.08813   0.10538   0.12270
     Eigenvalues ---    0.13880   0.15719   0.15974   0.15994   0.15999
     Eigenvalues ---    0.16000   0.16000   0.16000   0.16000   0.16071
     Eigenvalues ---    0.17435   0.18014   0.21994   0.21999   0.22589
     Eigenvalues ---    0.23121   0.24043   0.24382   0.24398   0.24848
     Eigenvalues ---    0.24864   0.25211   0.29855   0.34513   0.34515
     Eigenvalues ---    0.34526   0.34550   0.34573   0.34585   0.34735
     Eigenvalues ---    0.34757   0.35835   0.36392   0.38691   0.38729
     Eigenvalues ---    0.39126   0.41278   0.47095   0.47411   0.49649
     Eigenvalues ---    0.50158   0.51020   0.51499   0.58819   1.12532
     Eigenvalues ---    1.18461   1.19576   1.60616
 RFO step:  Lambda=-8.07301298D-04 EMin= 5.04080333D-03
 Quartic linear search produced a step of -0.29103.
 Iteration  1 RMS(Cart)=  0.02566458 RMS(Int)=  0.00027539
 Iteration  2 RMS(Cart)=  0.00057939 RMS(Int)=  0.00006623
 Iteration  3 RMS(Cart)=  0.00000006 RMS(Int)=  0.00006623
 ITry= 1 IFail=0 DXMaxC= 1.01D-01 DCOld= 1.00D+10 DXMaxT= 1.09D+00 DXLimC= 3.00D+00 Rises=F
 Variable       Old X    -DE/DX   Delta X   Delta X   Delta X     New X
                                 (Linear)    (Quad)   (Total)
    R1        2.64119   0.00066  -0.00102   0.00317   0.00216   2.64335
    R2        2.80655  -0.00275   0.00640  -0.01258  -0.00617   2.80038
    R3        2.56662  -0.00097  -0.00331   0.00383   0.00057   2.56718
    R4        2.63357  -0.00030   0.00227  -0.00423  -0.00198   2.63159
    R5        2.05521   0.00005  -0.00028   0.00057   0.00029   2.05550
    R6        2.63175   0.00151  -0.00139   0.00390   0.00248   2.63422
    R7        2.06045   0.00009   0.00014  -0.00012   0.00002   2.06047
    R8        2.62873   0.00024   0.00153  -0.00214  -0.00062   2.62811
    R9        2.05873   0.00005   0.00021  -0.00037  -0.00016   2.05858
   R10        2.05789   0.00020  -0.00009   0.00054   0.00045   2.05834
   R11        2.54333  -0.00128  -0.00094   0.00011  -0.00081   2.54252
   R12        2.64102   0.00064  -0.00103   0.00317   0.00216   2.64317
   R13        2.56649  -0.00099  -0.00332   0.00387   0.00058   2.56707
   R14        2.63360  -0.00031   0.00228  -0.00426  -0.00200   2.63160
   R15        2.05487   0.00005  -0.00029   0.00058   0.00029   2.05516
   R16        2.63173   0.00153  -0.00140   0.00394   0.00251   2.63424
   R17        2.06046   0.00010   0.00014  -0.00011   0.00003   2.06049
   R18        2.62874   0.00024   0.00154  -0.00217  -0.00064   2.62810
   R19        2.05874   0.00004   0.00021  -0.00038  -0.00016   2.05857
   R20        2.05792   0.00021  -0.00009   0.00058   0.00049   2.05840
   R21        2.54335  -0.00131  -0.00098   0.00015  -0.00081   2.54254
   R22        4.32308  -0.01002   0.02141  -0.01008   0.01131   4.33440
   R23        4.32396  -0.00997   0.02143  -0.00997   0.01146   4.33543
   R24        3.58895  -0.00120   0.00252   0.00174   0.00426   3.59321
   R25        3.61339  -0.00237  -0.00316  -0.00109  -0.00425   3.60913
   R26        3.61344  -0.00239  -0.00316  -0.00111  -0.00427   3.60917
   R27        5.01118  -0.00987  -0.05242  -0.01446  -0.06688   4.94430
   R28        2.19991  -0.00202  -0.00025  -0.00012  -0.00038   2.19953
   R29        2.19529  -0.00219   0.00066  -0.00034   0.00032   2.19561
   R30        2.19532  -0.00219   0.00065  -0.00031   0.00034   2.19566
    A1        2.14221   0.00054  -0.00175   0.00220   0.00039   2.14259
    A2        2.11080  -0.00031   0.00077  -0.00383  -0.00304   2.10776
    A3        2.03015  -0.00023   0.00098   0.00163   0.00266   2.03281
    A4        2.08746  -0.00015  -0.00155   0.00307   0.00152   2.08898
    A5        2.10676  -0.00019   0.00257  -0.00555  -0.00298   2.10378
    A6        2.08896   0.00035  -0.00102   0.00248   0.00145   2.09042
    A7        2.07754  -0.00012   0.00059  -0.00025   0.00028   2.07782
    A8        2.09495   0.00018  -0.00110   0.00235   0.00126   2.09621
    A9        2.11067  -0.00006   0.00051  -0.00203  -0.00152   2.10915
   A10        2.06854  -0.00020  -0.00007  -0.00090  -0.00102   2.06752
   A11        2.12642  -0.00006   0.00065  -0.00214  -0.00148   2.12495
   A12        2.08820   0.00026  -0.00058   0.00308   0.00252   2.09072
   A13        2.11201   0.00051   0.00005   0.00174   0.00177   2.11378
   A14        2.14163  -0.00042  -0.00158   0.00175   0.00019   2.14181
   A15        2.02955  -0.00009   0.00153  -0.00348  -0.00196   2.02759
   A16        2.14196   0.00056  -0.00178   0.00224   0.00040   2.14236
   A17        2.03045  -0.00024   0.00103   0.00159   0.00266   2.03312
   A18        2.11075  -0.00032   0.00076  -0.00383  -0.00306   2.10769
   A19        2.08770  -0.00015  -0.00153   0.00304   0.00151   2.08921
   A20        2.10593  -0.00019   0.00253  -0.00549  -0.00296   2.10297
   A21        2.08955   0.00035  -0.00100   0.00245   0.00145   2.09100
   A22        2.07734  -0.00012   0.00057  -0.00021   0.00030   2.07764
   A23        2.09504   0.00017  -0.00109   0.00233   0.00125   2.09628
   A24        2.11078  -0.00005   0.00052  -0.00205  -0.00152   2.10925
   A25        2.06854  -0.00020  -0.00006  -0.00093  -0.00104   2.06750
   A26        2.12613  -0.00005   0.00064  -0.00206  -0.00141   2.12472
   A27        2.08849   0.00026  -0.00057   0.00303   0.00248   2.09097
   A28        2.11192   0.00054   0.00004   0.00185   0.00188   2.11380
   A29        2.14172  -0.00043  -0.00158   0.00172   0.00016   2.14188
   A30        2.02954  -0.00011   0.00154  -0.00357  -0.00204   2.02750
   A31        2.08009   0.00124   0.00190   0.00064   0.00231   2.08240
   A32        2.04794  -0.00071   0.00275  -0.00070   0.00177   2.04971
   A33        2.14907  -0.00045  -0.00306   0.00396   0.00058   2.14965
   A34        2.08013   0.00121   0.00191   0.00067   0.00230   2.08243
   A35        2.04793  -0.00074   0.00274  -0.00076   0.00169   2.04962
   A36        2.14916  -0.00040  -0.00305   0.00419   0.00077   2.14993
   A37        1.25678   0.00202  -0.00480   0.00287  -0.00194   1.25484
   A38        1.63054   0.00027  -0.00560  -0.00331  -0.00892   1.62162
   A39        1.73058  -0.00118   0.00397  -0.00288   0.00109   1.73167
   A40        1.45617  -0.00067  -0.00316  -0.00168  -0.00481   1.45137
   A41        1.62975   0.00020  -0.00518  -0.00450  -0.00967   1.62008
   A42        1.73019  -0.00111   0.00378  -0.00232   0.00144   1.73164
   A43        1.45713  -0.00069  -0.00341  -0.00200  -0.00536   1.45177
   A44        1.58910  -0.00029   0.00017  -0.00243  -0.00230   1.58680
   A45        1.58845  -0.00040   0.00019  -0.00343  -0.00325   1.58520
   A46        1.55996   0.00030  -0.00229   0.00337   0.00105   1.56101
   A47        1.60066   0.00077   0.00731   0.00835   0.01564   1.61630
   A48        1.60147   0.00076   0.00749   0.00757   0.01506   1.61654
   A49        2.98698   0.00091  -0.00102   0.00054  -0.00050   2.98648
   A50        2.98736   0.00083  -0.00083  -0.00001  -0.00086   2.98651
   A51        3.08672  -0.00039  -0.00877  -0.00499  -0.01373   3.07299
   A52        3.13847   0.00012  -0.00537   0.02170   0.01632   3.15480
   A53        3.10140   0.00073   0.00040   0.02291   0.02331   3.12472
   A54        3.10059   0.00081   0.00054   0.02427   0.02481   3.12540
   A55        3.07045   0.00013   0.00484   0.00626   0.01113   3.08159
   A56        3.21245  -0.00011  -0.00434  -0.00673  -0.01110   3.20136
   A57        3.18170   0.00049   0.00592   0.00537   0.01133   3.19302
   A58        3.13225   0.00150   0.01519  -0.00565   0.00954   3.14179
   A59        3.14758   0.00043  -0.00162   0.03024   0.02861   3.17620
   A60        3.13707  -0.00063   0.00093  -0.03269  -0.03176   3.10532
    D1       -3.13067  -0.00027  -0.00101  -0.00004  -0.00112  -3.13179
    D2        0.00914  -0.00010  -0.00018   0.00169   0.00145   0.01059
    D3        0.00356  -0.00013  -0.00050   0.00014  -0.00039   0.00317
    D4       -3.13981   0.00003   0.00033   0.00187   0.00218  -3.13763
    D5       -0.00296  -0.00000  -0.00014  -0.00031  -0.00045  -0.00340
    D6        3.13186   0.00013   0.00056  -0.00016   0.00043   3.13229
    D7       -3.13751  -0.00013  -0.00063  -0.00046  -0.00112  -3.13864
    D8       -0.00270   0.00000   0.00007  -0.00032  -0.00024  -0.00294
    D9        0.01433  -0.00027  -0.00648  -0.01734  -0.02376  -0.00943
   D10        3.04243   0.00041   0.01691   0.02179   0.03860   3.08104
   D11       -3.13416  -0.00014  -0.00601  -0.01717  -0.02309   3.12594
   D12       -0.10606   0.00054   0.01739   0.02197   0.03928  -0.06678
   D13       -0.00987   0.00029   0.00410   0.00993   0.01402   0.00415
   D14        3.13967   0.00005   0.00046   0.00044   0.00089   3.14056
   D15        3.13348   0.00013   0.00328   0.00823   0.01147  -3.13823
   D16       -0.00016  -0.00011  -0.00036  -0.00126  -0.00166  -0.00182
   D17       -0.00126  -0.00004  -0.00084  -0.00303  -0.00386  -0.00513
   D18       -3.13573  -0.00021  -0.00348  -0.00851  -0.01198   3.13548
   D19        3.13230   0.00021   0.00284   0.00657   0.00939  -3.14149
   D20       -0.00216   0.00004   0.00020   0.00109   0.00127  -0.00089
   D21       -3.12313  -0.00038  -0.00539  -0.01125  -0.01667  -3.13980
   D22        0.01992  -0.00040  -0.00637  -0.01473  -0.02110  -0.00119
   D23        0.01149  -0.00021  -0.00281  -0.00592  -0.00873   0.00276
   D24       -3.12864  -0.00023  -0.00378  -0.00939  -0.01317   3.14137
   D25       -0.02646   0.00054   0.01004   0.02494   0.03498   0.00852
   D26       -3.04762  -0.00016  -0.01490  -0.01623  -0.03123  -3.07885
   D27        3.11653   0.00052   0.00910   0.02161   0.03075  -3.13591
   D28        0.09536  -0.00018  -0.01584  -0.01956  -0.03547   0.05990
   D29        3.12913   0.00029   0.00174   0.00123   0.00304   3.13217
   D30       -0.01040   0.00012   0.00083  -0.00083   0.00004  -0.01036
   D31       -0.00537   0.00015   0.00101   0.00106   0.00210  -0.00327
   D32        3.13827  -0.00001   0.00009  -0.00100  -0.00090   3.13737
   D33        3.13717   0.00010   0.00499   0.01531   0.02022  -3.12579
   D34        0.11016  -0.00054  -0.01750  -0.02148  -0.03892   0.07124
   D35       -0.01107   0.00023   0.00567   0.01547   0.02109   0.01003
   D36       -3.03808  -0.00040  -0.01682  -0.02132  -0.03804  -3.07612
   D37        0.00984  -0.00030  -0.00419  -0.01021  -0.01440  -0.00456
   D38       -3.14020  -0.00004  -0.00036  -0.00038  -0.00074  -3.14095
   D39       -3.13379  -0.00013  -0.00328  -0.00818  -0.01143   3.13797
   D40       -0.00065   0.00013   0.00054   0.00166   0.00223   0.00159
   D41        0.00164   0.00005   0.00083   0.00309   0.00391   0.00554
   D42        3.13526   0.00024   0.00373   0.00907   0.01278  -3.13515
   D43       -3.13143  -0.00022  -0.00303  -0.00686  -0.00987  -3.14129
   D44        0.00220  -0.00003  -0.00014  -0.00088  -0.00100   0.00120
   D45        3.12261   0.00038   0.00563   0.01128   0.01693   3.13955
   D46       -0.01878   0.00037   0.00606   0.01398   0.02005   0.00127
   D47       -0.01119   0.00020   0.00280   0.00545   0.00826  -0.00293
   D48        3.13060   0.00019   0.00323   0.00815   0.01137  -3.14121
   D49        0.02350  -0.00050  -0.00933  -0.02328  -0.03261  -0.00911
   D50        3.04351   0.00016   0.01467   0.01542   0.03018   3.07369
   D51       -3.11790  -0.00051  -0.00891  -0.02070  -0.02964   3.13564
   D52       -0.09789   0.00015   0.01509   0.01800   0.03316  -0.06474
   D53       -0.12058   0.00049   0.01948   0.02399   0.04345  -0.07713
   D54       -1.73402   0.00028   0.02326   0.02752   0.05082  -1.68320
   D55        2.95015   0.00060   0.02382   0.03072   0.05454   3.00469
   D56        1.36747  -0.00021   0.01734   0.02215   0.03949   1.40696
   D57        3.14050  -0.00029  -0.00409  -0.01413  -0.01828   3.12222
   D58        1.52706  -0.00050  -0.00031  -0.01059  -0.01092   1.51615
   D59       -0.07195  -0.00018   0.00025  -0.00740  -0.00719  -0.07914
   D60       -1.65464  -0.00099  -0.00623  -0.01596  -0.02224  -1.67688
   D61        0.11908  -0.00049  -0.01944  -0.02416  -0.04358   0.07550
   D62        1.73362  -0.00018  -0.02381  -0.02606  -0.04992   1.68369
   D63       -2.95137  -0.00062  -0.02428  -0.03042  -0.05472  -3.00608
   D64       -1.36766   0.00017  -0.01763  -0.02277  -0.04038  -1.40804
   D65       -3.14086   0.00032   0.00506   0.01638   0.02151  -3.11935
   D66       -1.52633   0.00064   0.00069   0.01448   0.01517  -1.51116
   D67        0.07187   0.00019   0.00021   0.01012   0.01038   0.08225
   D68        1.65558   0.00098   0.00686   0.01778   0.02471   1.68029
         Item               Value     Threshold  Converged?
 Maximum Force            0.010016     0.000450     NO 
 RMS     Force            0.001535     0.000300     NO 
 Maximum Displacement     0.101491     0.001800     NO 
 RMS     Displacement     0.025624     0.001200     NO 
 Predicted change in Energy=-5.091561D-04
 Lowest energy point so far.  Saving SCF results.
 GradGradGradGradGradGradGradGradGradGradGradGradGradGradGradGradGradGrad

 Leave Link  103 at Mon Nov 17 10:51:40 2025, MaxMem=  2684354560 cpu:               3.8 elap:               0.1
 (Enter /home/programes/qq/gaussian/g16.A03/g16/l202.exe)
                          Input orientation:                          
 ---------------------------------------------------------------------
 Center     Atomic      Atomic             Coordinates (Angstroms)
 Number     Number       Type             X           Y           Z
 ---------------------------------------------------------------------
      1          6           0       -2.285596    0.297500    0.032400
      2          6           0       -0.891526    0.340514   -0.074216
      3          6           0       -0.235613    1.568742   -0.051783
      4          6           0       -0.987157    2.735092    0.082263
      5          6           0       -2.369874    2.624699    0.182536
      6          6           0       -3.051399   -0.971179    0.028414
      7          6           0       -2.439745   -2.223819   -0.086267
      8          6           0       -3.220468   -3.376877   -0.071585
      9          6           0       -4.602663   -3.256516    0.063446
     10          6           0       -5.149496   -1.982411    0.171915
     11          1           0       -0.316373   -0.577172   -0.175165
     12          1           0        0.850894    1.610071   -0.133428
     13          1           0       -0.519264    3.718434    0.110612
     14          1           0       -2.998865    3.507801    0.287008
     15          1           0       -1.359861   -2.303417   -0.187602
     16          1           0       -2.750510   -4.356790   -0.159921
     17          1           0       -5.254337   -4.129147    0.086234
     18          1           0       -6.224019   -1.838206    0.277243
     19          7           0       -4.400190   -0.865129    0.150347
     20          7           0       -3.008849    1.441010    0.154053
     21         75           0       -5.294376    1.246519    0.197991
     22          6           0       -5.354971    1.282910    2.098122
     23          6           0       -7.148461    0.795517    0.116913
     24          6           0       -5.760374    3.097053    0.120167
     25          8           0       -5.405599    1.297917    3.260867
     26          8           0       -8.269669    0.503851    0.028821
     27          8           0       -6.026101    4.224737    0.032303
     28         17           0       -5.018538    1.083305   -2.398717
 ---------------------------------------------------------------------
                    Distance matrix (angstroms):
                    1          2          3          4          5
     1  C    0.000000
     2  C    1.398803   0.000000
     3  C    2.413622   1.392576   0.000000
     4  C    2.762297   2.401589   1.393972   0.000000
     5  C    2.333559   2.732935   2.392701   1.390736   0.000000
     6  C    1.481896   2.529056   3.792925   4.242692   3.663137
     7  C    2.528813   2.995485   4.386673   5.170030   4.856467
     8  C    3.792868   4.386681   5.776581   6.509033   6.066878
     9  C    4.242734   5.170118   6.509034   6.997972   6.291918
    10  C    3.663248   4.856632   6.066875   6.291895   5.380695
    11  H    2.164712   1.087722   2.150975   3.389293   3.820576
    12  H    3.404102   2.156689   1.090354   2.165784   3.391555
    13  H    3.850823   3.403393   2.174398   1.089353   2.150857
    14  H    3.298425   3.821396   3.392682   2.164710   1.089226
    15  H    2.769505   2.687484   4.034352   5.059477   5.044151
    16  H    4.681405   5.052508   6.438038   7.311830   7.000240
    17  H    5.330246   6.248018   7.594246   8.082488   7.344647
    18  H    4.486910   5.771120   6.897576   6.955415   5.897536
    19  N    2.416014   3.716817   4.827865   4.961353   4.037589
    20  N    1.358496   2.397135   2.783796   2.401466   1.345444
    21  Re   3.159243   4.503336   5.075165   4.558660   3.233007
    22  C    3.828746   5.052672   5.559821   5.024969   3.792186
    23  C    4.889031   6.276368   6.958003   6.459476   5.117139
    24  C    4.463102   5.598390   5.734830   4.787071   3.423813
    25  O    4.599810   5.693527   6.146197   5.629531   4.522400
    26  O    5.987630   7.380670   8.104723   7.616841   6.271300
    27  O    5.423520   6.439130   6.371117   5.254760   3.993831
    28  Cl   3.741228   4.794505   5.349777   5.013551   4.006767
                    6          7          8          9         10
     6  C    0.000000
     7  C    1.398706   0.000000
     8  C    2.413703   1.392583   0.000000
     9  C    2.762320   2.401477   1.393981   0.000000
    10  C    2.333495   2.732708   2.392693   1.390733   0.000000
    11  H    2.770750   2.688505   4.035201   5.060445   5.045220
    12  H    4.681552   5.052647   6.438125   7.311889   7.000275
    13  H    5.330191   6.247990   7.594283   8.082469   7.344553
    14  H    4.486746   5.770911   6.897571   6.955439   5.897532
    15  H    2.163982   1.087544   2.151193   3.389275   3.820161
    16  H    3.404168   2.156749   1.090364   2.165863   3.391596
    17  H    3.850849   3.403228   2.174268   1.089349   2.151001
    18  H    3.298359   3.821200   3.392714   2.164742   1.089260
    19  N    1.358437   2.396950   2.783860   2.401516   1.345453
    20  N    2.415834   3.716532   4.827808   4.961372   4.037636
    21  Re   3.158780   4.502551   5.074402   4.557839   3.232284
    22  C    3.830281   5.056406   5.565729   5.031129   3.796684
    23  C    4.462619   5.597293   5.733545   4.785700   3.422831
    24  C    4.888505   6.275418   6.956987   6.458433   5.116328
    25  O    4.597805   5.692295   6.142779   5.622372   4.513066
    26  O    5.422735   6.437503   6.369032   5.252475   3.992174
    27  O    5.987188   7.379694   8.103512   7.615530   6.270296
    28  Cl   3.739186   4.789016   5.342455   5.006921   4.002989
                   11         12         13         14         15
    11  H    0.000000
    12  H    2.479574   0.000000
    13  H    4.309880   2.526278   0.000000
    14  H    4.908806   4.312631   2.494776   0.000000
    15  H    2.017163   4.495082   6.087547   6.056553   0.000000
    16  H    4.495639   6.969523   8.382177   7.881193   2.480123
    17  H    6.088378   8.382166   9.165481   7.965578   4.309897
    18  H    6.057653   7.881222   7.965441   6.243516   4.908414
    19  N    4.106877   5.812144   6.006015   4.594007   3.380307
    20  N    3.380958   3.874125   3.374401   2.071086   4.105682
    21  Re   5.314660   6.164929   5.377704   3.223460   5.313298
    22  C    5.832256   6.603000   5.767672   3.712345   5.834995
    23  C    6.974742   8.044616   7.244981   4.960299   6.572976
    24  C    6.574519   6.781171   5.277825   2.796869   6.973113
    25  O    6.420475   7.124772   6.297561   4.418121   6.421023
    26  O    8.029019   9.188836   8.391008   6.072210   7.461436
    27  O    7.463402   7.359144   5.530618   3.121382   8.027387
    28  Cl   5.460012   6.313418   5.786545   4.143715   5.453883
                   16         17         18         19         20
    16  H    0.000000
    17  H    2.526175   0.000000
    18  H    4.312730   2.495031   0.000000
    19  N    3.874197   3.374535   2.071071   0.000000
    20  N    5.812040   6.006119   4.594100   2.693348   0.000000
    21  Re   6.164124   5.376976   3.222738   2.293664   2.294208
    22  C    6.609704   5.774788   3.716478   3.052786   3.051014
    23  C    6.779740   5.276453   2.795853   3.211208   4.189801
    24  C    8.043476   7.243976   4.959478   4.189260   3.211621
    25  O    7.122289   6.289213   4.405348   3.919815   3.926471
    26  O    7.356804   5.528128   3.119556   4.106305   5.345107
    27  O    9.187440   8.389631   6.071116   5.344554   4.107038
    28  Cl   6.304823   5.779294   4.141156   3.267488   3.268553
                   21         22         23         24         25
    21  Re   0.000000
    22  C    1.901445   0.000000
    23  C    1.909871   2.716496   0.000000
    24  C    1.909892   2.714365   2.687726   0.000000
    25  O    3.065326   1.163944   3.629659   3.636860   0.000000
    26  O    3.071244   3.658470   1.161867   3.609654   4.390850
    27  O    3.071263   3.656825   3.609211   1.161896   4.401695
    28  Cl   2.616413   4.513822   3.308745   3.309120   5.676862
                   26         27         28
    26  O    0.000000
    27  O    4.344951   0.000000
    28  Cl   4.098604   4.098004   0.000000
 Symmetry turned off by external request.
 Stoichiometry    C13H8ClN2O3Re
 Framework group  C1[X(C13H8ClN2O3Re)]
 Deg. of freedom    78
 Full point group                 C1      NOp   1
 Rotational constants (GHZ):           0.3382928           0.2662456           0.1988877
 Leave Link  202 at Mon Nov 17 10:51:40 2025, MaxMem=  2684354560 cpu:               0.1 elap:               0.0
 (Enter /home/programes/qq/gaussian/g16.A03/g16/l301.exe)
 Basis read from rwf:  (5D, 7F)
 Pseudo-potential data read from rwf file.
   339 basis functions,   774 primitive gaussians,   363 cartesian basis functions
    78 alpha electrons       78 beta electrons
       nuclear repulsion energy      1753.8651597600 Hartrees.
 IExCor=  402 DFT=T Ex+Corr=B3LYP ExCW=0 ScaHFX=  0.200000
 ScaDFX=  0.800000  0.720000  1.000000  0.810000 ScalE2=  1.000000  1.000000
 IRadAn=      5 IRanWt=     -1 IRanGd=            0 ICorTp=0 IEmpDi=141
 NAtoms=   28 NActive=   28 NUniq=   28 SFac= 1.00D+00 NAtFMM=   60 NAOKFM=F Big=F
 Integral buffers will be    131072 words long.
 Raffenetti 2 integral format.
 Two-electron integral symmetry is turned off.
 R6Disp:  Grimme-D3(BJ) Dispersion energy=       -0.0842339251 Hartrees.
 Nuclear repulsion after empirical dispersion term =     1753.7809258349 Hartrees.
 No density basis found on file   724.
 ------------------------------------------------------------------------------
 Polarizable Continuum Model (PCM)
 =================================
 Model                : PCM.
 Atomic radii         : UFF (Universal Force Field).
 Polarization charges : Total charges.
 Charge compensation  : None.
 Solution method      : On-the-fly selection.
 Cavity type          : Scaled VdW (van der Waals Surface) (Alpha=1.100).
 Cavity algorithm     : GePol (No added spheres)
                        Default sphere list used, NSphG=   28.
                        Lebedev-Laikov grids with approx.  5.0 points / Ang**2.
                        Smoothing algorithm: York/Karplus (Gamma=1.0000).
                        Polarization charges: spherical gaussians, with
                                              point-specific exponents (IZeta= 3).
                        Self-potential: point-specific (ISelfS= 7).
                        Self-field    : sphere-specific E.n sum rule (ISelfD= 2).
 1st derivatives      : Analytical E(r).r(x)/FMM algorithm (CHGder, D1EAlg=3).
                        Cavity 1st derivative terms included.
 Solvent              : n,n-DiMethylFormamide, Eps=  37.219000 Eps(inf)=   2.046330
 ------------------------------------------------------------------------------
 GePol: Number of generator spheres                  =      28
 GePol: Total number of spheres                      =      28
 GePol: Number of exposed spheres                    =      27 ( 96.43%)
 GePol: Number of points                             =    2591
 GePol: Average weight of points                     =       0.13
 GePol: Minimum weight of points                     =   0.50D-10
 GePol: Maximum weight of points                     =    0.21616
 GePol: Number of points with low weight             =     117
 GePol: Fraction of low-weight points (<1% of avg)   =       4.52%
 GePol: Cavity surface area                          =    342.432 Ang**2
 GePol: Cavity volume                                =    378.017 Ang**3
 Leave Link  301 at Mon Nov 17 10:51:40 2025, MaxMem=  2684354560 cpu:               1.2 elap:               0.1
 (Enter /home/programes/qq/gaussian/g16.A03/g16/l302.exe)
 NPDir=0 NMtPBC=     1 NCelOv=     1 NCel=       1 NClECP=     1 NCelD=      1
         NCelK=      1 NCelE2=     1 NClLst=     1 CellRange=     0.0.
 One-electron integrals computed using PRISM.
   1 Symmetry operations used in ECPInt.
 ECPInt:  NShTT=   11175 NPrTT=  105620 LenC2=   10449 LenP2D=   51048.
 LDataN:  DoStor=T MaxTD1= 7 Len=  274
 NBasis=   339 RedAO= T EigKep=  3.67D-04  NBF=   339
 NBsUse=   339 1.00D-06 EigRej= -1.00D+00 NBFU=   339
 Precomputing XC quadrature grid using
 IXCGrd= 4 IRadAn=           5 IRanWt=          -1 IRanGd=           0 AccXCQ= 0.00D+00.
 Defaulting to unpruned grid for atomic number  75.
 Generated NRdTot=       0 NPtTot=           0 NUsed=           0 NTot=          32
 NSgBfM=   363   363   363   363   363 MxSgAt=    28 MxSgA2=    28.
 Leave Link  302 at Mon Nov 17 10:51:41 2025, MaxMem=  2684354560 cpu:              12.3 elap:               0.4
 (Enter /home/programes/qq/gaussian/g16.A03/g16/l303.exe)
 DipDrv:  MaxL=1.
 Leave Link  303 at Mon Nov 17 10:51:41 2025, MaxMem=  2684354560 cpu:               1.2 elap:               0.1
 (Enter /home/programes/qq/gaussian/g16.A03/g16/l401.exe)
 Initial guess from the checkpoint file:  "re-bpy-co3-cl.chk"
 B after Tr=    -0.009627    0.006407   -0.045772
         Rot=    0.999998   -0.001070   -0.001608   -0.000017 Ang=  -0.22 deg.
 Guess basis will be translated and rotated to current coordinates.
 JPrj=2 DoOrth=T DoCkMO=T.
 Generating alternative initial guess.
 ExpMin= 2.80D-02 ExpMax= 1.28D+05 ExpMxC= 1.24D+03 IAcc=3 IRadAn=         5 AccDes= 0.00D+00
 Harris functional with IExCor=  402 and IRadAn=       5 diagonalized for initial guess.
 HarFok:  IExCor=  402 AccDes= 0.00D+00 IRadAn=         5 IDoV= 1 UseB2=F ITyADJ=14
 ICtDFT=  3500011 ScaDFX=  1.000000  1.000000  1.000000  1.000000
 Defaulting to unpruned grid for atomic number  75.
 FoFCou: FMM=F IPFlag=           0 FMFlag=      100000 FMFlg1=           0
         NFxFlg=           0 DoJE=T BraDBF=F KetDBF=T FulRan=T
         wScrn=  0.000000 ICntrl=       500 IOpCl=  0 I1Cent=   200000004 NGrid=           0
         NMat0=    1 NMatS0=      1 NMatT0=    0 NMatD0=    1 NMtDS0=    0 NMtDT0=    0
 Symmetry not used in FoFCou.
 Harris En= -1374.75562684167    
 Leave Link  401 at Mon Nov 17 10:51:42 2025, MaxMem=  2684354560 cpu:              30.4 elap:               1.2
 (Enter /home/programes/qq/gaussian/g16.A03/g16/l502.exe)
 Two-electron integral symmetry not used.
 Closed shell SCF:
 Using DIIS extrapolation, IDIIS=  1040.
 NGot=  2684354560 LenX=  2684076439 LenY=  2683944229
 Requested convergence on RMS density matrix=1.00D-08 within 128 cycles.
 Requested convergence on MAX density matrix=1.00D-06.
 Requested convergence on             energy=1.00D-06.
 No special actions if energy rises.
 Fock matrices will be formed incrementally for  20 cycles.

 Cycle   1  Pass 1  IDiag  1:
 FoFJK:  IHMeth= 1 ICntrl=       0 DoSepK=F KAlg= 0 I1Cent=           0 FoldK=F
 IRaf= 870000000 NMat=       1 IRICut=       1 DoRegI=T DoRafI=F ISym2E= 0 IDoP0=0 IntGTp=1.
 FoFCou: FMM=F IPFlag=           0 FMFlag=      100000 FMFlg1=           0
         NFxFlg=           0 DoJE=F BraDBF=F KetDBF=F FulRan=T
         wScrn=  0.000000 ICntrl=         0 IOpCl=  0 I1Cent=           0 NGrid=           0
         NMat0=    1 NMatS0=      1 NMatT0=    0 NMatD0=    1 NMtDS0=    0 NMtDT0=    0
 Symmetry not used in FoFCou.
 Defaulting to unpruned grid for atomic number  75.
 Defaulting to unpruned grid for atomic number  75.
 Defaulting to unpruned grid for atomic number  75.
 Defaulting to unpruned grid for atomic number  75.
 Defaulting to unpruned grid for atomic number  75.
 Defaulting to unpruned grid for atomic number  75.
 Defaulting to unpruned grid for atomic number  75.
 Defaulting to unpruned grid for atomic number  75.
 Defaulting to unpruned grid for atomic number  75.
 Defaulting to unpruned grid for atomic number  75.
 Defaulting to unpruned grid for atomic number  75.
 Defaulting to unpruned grid for atomic number  75.
 Defaulting to unpruned grid for atomic number  75.
 Defaulting to unpruned grid for atomic number  75.
 Defaulting to unpruned grid for atomic number  75.
 Defaulting to unpruned grid for atomic number  75.
 Defaulting to unpruned grid for atomic number  75.
 Defaulting to unpruned grid for atomic number  75.
 Defaulting to unpruned grid for atomic number  75.
 Defaulting to unpruned grid for atomic number  75.
 Defaulting to unpruned grid for atomic number  75.
 Defaulting to unpruned grid for atomic number  75.
 Defaulting to unpruned grid for atomic number  75.
 Defaulting to unpruned grid for atomic number  75.
 Defaulting to unpruned grid for atomic number  75.
 Defaulting to unpruned grid for atomic number  75.
 Defaulting to unpruned grid for atomic number  75.
 Defaulting to unpruned grid for atomic number  75.
 Defaulting to unpruned grid for atomic number  75.
 Defaulting to unpruned grid for atomic number  75.
 Defaulting to unpruned grid for atomic number  75.
 Defaulting to unpruned grid for atomic number  75.
 Inv3:  Mode=1 IEnd=    20139843.
 Iteration    1 A*A^-1 deviation from unit magnitude is 8.44D-15 for    224.
 Iteration    1 A*A^-1 deviation from orthogonality  is 3.01D-15 for   1629    760.
 Iteration    1 A^-1*A deviation from unit magnitude is 8.22D-15 for    224.
 Iteration    1 A^-1*A deviation from orthogonality  is 2.61D-15 for   2591   2473.
 E= -1375.06290434177    
 DIIS: error= 2.52D-03 at cycle   1 NSaved=   1.
 NSaved= 1 IEnMin= 1 EnMin= -1375.06290434177     IErMin= 1 ErrMin= 2.52D-03
 ErrMax= 2.52D-03  0.00D+00 EMaxC= 1.00D-01 BMatC= 2.73D-03 BMatP= 2.73D-03
 IDIUse=3 WtCom= 9.75D-01 WtEn= 2.52D-02
 Coeff-Com:  0.100D+01
 Coeff-En:   0.100D+01
 Coeff:      0.100D+01
 Gap=     0.612 Goal=   None    Shift=    0.000
 GapD=    0.612 DampG=2.000 DampE=1.000 DampFc=2.0000 IDamp=-1.
 RMSDP=2.67D-04 MaxDP=8.14D-03              OVMax= 1.49D-02

 Cycle   2  Pass 1  IDiag  1:
 RMSU=  2.67D-04    CP:  1.00D+00
 E= -1375.06773139165     Delta-E=       -0.004827049882 Rises=F Damp=F
 DIIS: error= 3.98D-04 at cycle   2 NSaved=   2.
 NSaved= 2 IEnMin= 2 EnMin= -1375.06773139165     IErMin= 2 ErrMin= 3.98D-04
 ErrMax= 3.98D-04  0.00D+00 EMaxC= 1.00D-01 BMatC= 9.23D-05 BMatP= 2.73D-03
 IDIUse=3 WtCom= 9.96D-01 WtEn= 3.98D-03
 Coeff-Com: -0.289D-01 0.103D+01
 Coeff-En:   0.000D+00 0.100D+01
 Coeff:     -0.288D-01 0.103D+01
 Gap=     0.138 Goal=   None    Shift=    0.000
 RMSDP=8.32D-05 MaxDP=4.00D-03 DE=-4.83D-03 OVMax= 6.92D-03

 Cycle   3  Pass 1  IDiag  1:
 RMSU=  8.09D-05    CP:  1.00D+00  1.07D+00
 E= -1375.06761985554     Delta-E=        0.000111536110 Rises=F Damp=F
 DIIS: error= 7.49D-04 at cycle   3 NSaved=   3.
 NSaved= 3 IEnMin= 2 EnMin= -1375.06773139165     IErMin= 2 ErrMin= 3.98D-04
 ErrMax= 7.49D-04  0.00D+00 EMaxC= 1.00D-01 BMatC= 2.59D-04 BMatP= 9.23D-05
 IDIUse=3 WtCom= 2.68D-01 WtEn= 7.32D-01
 Coeff-Com: -0.452D-01 0.679D+00 0.366D+00
 Coeff-En:   0.000D+00 0.670D+00 0.330D+00
 Coeff:     -0.121D-01 0.672D+00 0.340D+00
 Gap=     0.137 Goal=   None    Shift=    0.000
 RMSDP=5.57D-05 MaxDP=3.92D-03 DE= 1.12D-04 OVMax= 5.44D-03

 Cycle   4  Pass 1  IDiag  1:
 RMSU=  2.89D-05    CP:  1.00D+00  1.09D+00  4.18D-01
 E= -1375.06782556599     Delta-E=       -0.000205710450 Rises=F Damp=F
 DIIS: error= 3.53D-04 at cycle   4 NSaved=   4.
 NSaved= 4 IEnMin= 4 EnMin= -1375.06782556599     IErMin= 4 ErrMin= 3.53D-04
 ErrMax= 3.53D-04  0.00D+00 EMaxC= 1.00D-01 BMatC= 3.53D-05 BMatP= 9.23D-05
 IDIUse=3 WtCom= 9.96D-01 WtEn= 3.53D-03
 Coeff-Com: -0.305D-01 0.387D+00 0.269D+00 0.374D+00
 Coeff-En:   0.000D+00 0.000D+00 0.124D+00 0.876D+00
 Coeff:     -0.304D-01 0.386D+00 0.269D+00 0.376D+00
 Gap=     0.137 Goal=   None    Shift=    0.000
 RMSDP=2.17D-05 MaxDP=1.85D-03 DE=-2.06D-04 OVMax= 2.00D-03

 Cycle   5  Pass 1  IDiag  1:
 RMSU=  1.40D-05    CP:  1.00D+00  1.10D+00  4.57D-01  4.54D-01
 E= -1375.06785375806     Delta-E=       -0.000028192068 Rises=F Damp=F
 DIIS: error= 1.33D-04 at cycle   5 NSaved=   5.
 NSaved= 5 IEnMin= 5 EnMin= -1375.06785375806     IErMin= 5 ErrMin= 1.33D-04
 ErrMax= 1.33D-04  0.00D+00 EMaxC= 1.00D-01 BMatC= 5.99D-06 BMatP= 3.53D-05
 IDIUse=3 WtCom= 9.99D-01 WtEn= 1.33D-03
 Coeff-Com: -0.107D-01 0.114D+00 0.111D+00 0.295D+00 0.491D+00
 Coeff-En:   0.000D+00 0.000D+00 0.000D+00 0.189D+00 0.811D+00
 Coeff:     -0.107D-01 0.114D+00 0.110D+00 0.295D+00 0.492D+00
 Gap=     0.137 Goal=   None    Shift=    0.000
 RMSDP=7.23D-06 MaxDP=5.93D-04 DE=-2.82D-05 OVMax= 8.00D-04

 Cycle   6  Pass 1  IDiag  1:
 RMSU=  4.48D-06    CP:  1.00D+00  1.11D+00  4.67D-01  5.88D-01  7.16D-01
 E= -1375.06785912107     Delta-E=       -0.000005363011 Rises=F Damp=F
 DIIS: error= 2.80D-05 at cycle   6 NSaved=   6.
 NSaved= 6 IEnMin= 6 EnMin= -1375.06785912107     IErMin= 6 ErrMin= 2.80D-05
 ErrMax= 2.80D-05  0.00D+00 EMaxC= 1.00D-01 BMatC= 5.24D-07 BMatP= 5.99D-06
 IDIUse=1 WtCom= 1.00D+00 WtEn= 0.00D+00
 Coeff-Com: -0.103D-02-0.193D-02 0.154D-01 0.110D+00 0.297D+00 0.581D+00
 Coeff:     -0.103D-02-0.193D-02 0.154D-01 0.110D+00 0.297D+00 0.581D+00
 Gap=     0.137 Goal=   None    Shift=    0.000
 RMSDP=2.42D-06 MaxDP=1.00D-04 DE=-5.36D-06 OVMax= 1.90D-04

 Cycle   7  Pass 1  IDiag  1:
 RMSU=  1.70D-06    CP:  1.00D+00  1.11D+00  4.76D-01  6.11D-01  7.59D-01
                    CP:  7.21D-01
 E= -1375.06785949890     Delta-E=       -0.000000377827 Rises=F Damp=F
 DIIS: error= 1.59D-05 at cycle   7 NSaved=   7.
 NSaved= 7 IEnMin= 7 EnMin= -1375.06785949890     IErMin= 7 ErrMin= 1.59D-05
 ErrMax= 1.59D-05  0.00D+00 EMaxC= 1.00D-01 BMatC= 1.07D-07 BMatP= 5.24D-07
 IDIUse=1 WtCom= 1.00D+00 WtEn= 0.00D+00
 Coeff-Com:  0.844D-03-0.179D-01-0.677D-02 0.267D-01 0.123D+00 0.382D+00
 Coeff-Com:  0.492D+00
 Coeff:      0.844D-03-0.179D-01-0.677D-02 0.267D-01 0.123D+00 0.382D+00
 Coeff:      0.492D+00
 Gap=     0.137 Goal=   None    Shift=    0.000
 RMSDP=1.02D-06 MaxDP=3.99D-05 DE=-3.78D-07 OVMax= 1.08D-04

 Cycle   8  Pass 1  IDiag  1:
 RMSU=  4.79D-07    CP:  1.00D+00  1.11D+00  4.75D-01  6.17D-01  7.85D-01
                    CP:  7.49D-01  5.41D-01
 E= -1375.06785961032     Delta-E=       -0.000000111421 Rises=F Damp=F
 DIIS: error= 2.02D-06 at cycle   8 NSaved=   8.
 NSaved= 8 IEnMin= 8 EnMin= -1375.06785961032     IErMin= 8 ErrMin= 2.02D-06
 ErrMax= 2.02D-06  0.00D+00 EMaxC= 1.00D-01 BMatC= 1.61D-09 BMatP= 1.07D-07
 IDIUse=1 WtCom= 1.00D+00 WtEn= 0.00D+00
 Coeff-Com:  0.331D-03-0.581D-02-0.325D-02 0.359D-03 0.190D-01 0.826D-01
 Coeff-Com:  0.164D+00 0.743D+00
 Coeff:      0.331D-03-0.581D-02-0.325D-02 0.359D-03 0.190D-01 0.826D-01
 Coeff:      0.164D+00 0.743D+00
 Gap=     0.137 Goal=   None    Shift=    0.000
 RMSDP=2.16D-07 MaxDP=1.38D-05 DE=-1.11D-07 OVMax= 2.26D-05

 Cycle   9  Pass 1  IDiag  1:
 RMSU=  1.62D-07    CP:  1.00D+00  1.11D+00  4.75D-01  6.17D-01  7.88D-01
                    CP:  7.67D-01  5.95D-01  9.23D-01
 E= -1375.06785961203     Delta-E=       -0.000000001712 Rises=F Damp=F
 DIIS: error= 1.23D-06 at cycle   9 NSaved=   9.
 NSaved= 9 IEnMin= 9 EnMin= -1375.06785961203     IErMin= 9 ErrMin= 1.23D-06
 ErrMax= 1.23D-06  0.00D+00 EMaxC= 1.00D-01 BMatC= 4.76D-10 BMatP= 1.61D-09
 IDIUse=1 WtCom= 1.00D+00 WtEn= 0.00D+00
 Coeff-Com:  0.110D-03-0.162D-02-0.123D-02-0.230D-02-0.301D-03 0.130D-01
 Coeff-Com:  0.486D-01 0.414D+00 0.530D+00
 Coeff:      0.110D-03-0.162D-02-0.123D-02-0.230D-02-0.301D-03 0.130D-01
 Coeff:      0.486D-01 0.414D+00 0.530D+00
 Gap=     0.137 Goal=   None    Shift=    0.000
 RMSDP=8.17D-08 MaxDP=4.05D-06 DE=-1.71D-09 OVMax= 5.41D-06

 Cycle  10  Pass 1  IDiag  1:
 RMSU=  4.79D-08    CP:  1.00D+00  1.11D+00  4.76D-01  6.17D-01  7.89D-01
                    CP:  7.68D-01  6.02D-01  9.86D-01  6.89D-01
 E= -1375.06785961244     Delta-E=       -0.000000000411 Rises=F Damp=F
 DIIS: error= 4.69D-07 at cycle  10 NSaved=  10.
 NSaved=10 IEnMin=10 EnMin= -1375.06785961244     IErMin=10 ErrMin= 4.69D-07
 ErrMax= 4.69D-07  0.00D+00 EMaxC= 1.00D-01 BMatC= 8.25D-11 BMatP= 4.76D-10
 IDIUse=1 WtCom= 1.00D+00 WtEn= 0.00D+00
 Coeff-Com:  0.110D-04 0.454D-04-0.223D-03-0.162D-02-0.384D-02-0.681D-02
 Coeff-Com:  0.122D-02 0.136D+00 0.323D+00 0.552D+00
 Coeff:      0.110D-04 0.454D-04-0.223D-03-0.162D-02-0.384D-02-0.681D-02
 Coeff:      0.122D-02 0.136D+00 0.323D+00 0.552D+00
 Gap=     0.137 Goal=   None    Shift=    0.000
 RMSDP=3.01D-08 MaxDP=1.67D-06 DE=-4.11D-10 OVMax= 2.04D-06

 Cycle  11  Pass 1  IDiag  1:
 RMSU=  1.95D-08    CP:  1.00D+00  1.11D+00  4.76D-01  6.17D-01  7.89D-01
                    CP:  7.69D-01  6.02D-01  1.01D+00  7.10D-01  7.33D-01
 E= -1375.06785961252     Delta-E=       -0.000000000073 Rises=F Damp=F
 DIIS: error= 1.51D-07 at cycle  11 NSaved=  11.
 NSaved=11 IEnMin=11 EnMin= -1375.06785961252     IErMin=11 ErrMin= 1.51D-07
 ErrMax= 1.51D-07  0.00D+00 EMaxC= 1.00D-01 BMatC= 9.28D-12 BMatP= 8.25D-11
 IDIUse=1 WtCom= 1.00D+00 WtEn= 0.00D+00
 Coeff-Com: -0.100D-04 0.283D-03 0.550D-04-0.602D-03-0.209D-02-0.577D-02
 Coeff-Com: -0.658D-02 0.160D-01 0.104D+00 0.308D+00 0.587D+00
 Coeff:     -0.100D-04 0.283D-03 0.550D-04-0.602D-03-0.209D-02-0.577D-02
 Coeff:     -0.658D-02 0.160D-01 0.104D+00 0.308D+00 0.587D+00
 Gap=     0.137 Goal=   None    Shift=    0.000
 RMSDP=1.04D-08 MaxDP=7.51D-07 DE=-7.28D-11 OVMax= 9.28D-07

 Cycle  12  Pass 1  IDiag  1:
 RMSU=  5.52D-09    CP:  1.00D+00  1.11D+00  4.76D-01  6.17D-01  7.90D-01
                    CP:  7.69D-01  6.03D-01  1.01D+00  7.43D-01  7.81D-01
                    CP:  7.35D-01
 E= -1375.06785961259     Delta-E=       -0.000000000072 Rises=F Damp=F
 DIIS: error= 3.53D-08 at cycle  12 NSaved=  12.
 NSaved=12 IEnMin=12 EnMin= -1375.06785961259     IErMin=12 ErrMin= 3.53D-08
 ErrMax= 3.53D-08  0.00D+00 EMaxC= 1.00D-01 BMatC= 5.26D-13 BMatP= 9.28D-12
 IDIUse=1 WtCom= 1.00D+00 WtEn= 0.00D+00
 Coeff-Com: -0.540D-05 0.127D-03 0.383D-04-0.168D-03-0.697D-03-0.218D-02
 Coeff-Com: -0.308D-02-0.157D-02 0.258D-01 0.100D+00 0.268D+00 0.613D+00
 Coeff:     -0.540D-05 0.127D-03 0.383D-04-0.168D-03-0.697D-03-0.218D-02
 Coeff:     -0.308D-02-0.157D-02 0.258D-01 0.100D+00 0.268D+00 0.613D+00
 Gap=     0.137 Goal=   None    Shift=    0.000
 RMSDP=2.93D-09 MaxDP=1.30D-07 DE=-7.19D-11 OVMax= 3.21D-07

 Error on total polarization charges =  0.01127
 SCF Done:  E(RB3LYP) =  -1375.06785961     A.U. after   12 cycles
            NFock= 12  Conv=0.29D-08     -V/T= 2.0464
 KE= 1.314127012734D+03 PE=-6.709601342921D+03 EE= 2.266625544739D+03
 Leave Link  502 at Mon Nov 17 10:52:13 2025, MaxMem=  2684354560 cpu:             942.6 elap:              31.3
 (Enter /home/programes/qq/gaussian/g16.A03/g16/l701.exe)
 ... and contract with generalized density number  0.
 Compute integral first derivatives.
 R6Disp: Adding Grimme-D3(BJ) dispersion energy 1st derivatives to the gradient.
   1 Symmetry operations used in ECPInt.
 ECPInt:  NShTT=   11175 NPrTT=  105620 LenC2=   10449 LenP2D=   51048.
 LDataN:  DoStor=T MaxTD1= 8 Len=  415
 D1PCM: PCM CHGder 1st derivatives, ID1Alg=3 FixD1E=F DoIter=F DoCFld=F I1PDM=0.
 GePol: Maximum number of non-zero 1st derivatives   =     255
 Leave Link  701 at Mon Nov 17 10:52:15 2025, MaxMem=  2684354560 cpu:              44.7 elap:               1.5
 (Enter /home/programes/qq/gaussian/g16.A03/g16/l702.exe)
 L702 exits ... SP integral derivatives will be done elsewhere.
 Leave Link  702 at Mon Nov 17 10:52:15 2025, MaxMem=  2684354560 cpu:               0.2 elap:               0.0
 (Enter /home/programes/qq/gaussian/g16.A03/g16/l703.exe)
 Integral derivatives from FoFJK, PRISM(SPDF).
 Compute integral first derivatives, UseDBF=F ICtDFT=           0.
 Calling FoFJK, ICntrl=      2127 FMM=F ISym2X=0 I1Cent= 0 IOpClX= 0 NMat=1 NMatS=1 NMatT=0.
 FoFJK:  IHMeth= 1 ICntrl=    2127 DoSepK=F KAlg= 0 I1Cent=           0 FoldK=F
 IRaf=         0 NMat=       1 IRICut=       1 DoRegI=T DoRafI=F ISym2E= 0 IDoP0=0 IntGTp=1.
 FoFCou: FMM=F IPFlag=           0 FMFlag=      100000 FMFlg1=         800
         NFxFlg=           0 DoJE=F BraDBF=F KetDBF=F FulRan=T
         wScrn=  0.000000 ICntrl=      2127 IOpCl=  0 I1Cent=           0 NGrid=           0
         NMat0=    1 NMatS0=      1 NMatT0=    0 NMatD0=    1 NMtDS0=    0 NMtDT0=    0
 Symmetry not used in FoFCou.
 Defaulting to unpruned grid for atomic number  75.
 Defaulting to unpruned grid for atomic number  75.
 Defaulting to unpruned grid for atomic number  75.
 Defaulting to unpruned grid for atomic number  75.
 Defaulting to unpruned grid for atomic number  75.
 Defaulting to unpruned grid for atomic number  75.
 Defaulting to unpruned grid for atomic number  75.
 Defaulting to unpruned grid for atomic number  75.
 Defaulting to unpruned grid for atomic number  75.
 Defaulting to unpruned grid for atomic number  75.
 Defaulting to unpruned grid for atomic number  75.
 Defaulting to unpruned grid for atomic number  75.
 Defaulting to unpruned grid for atomic number  75.
 Defaulting to unpruned grid for atomic number  75.
 Defaulting to unpruned grid for atomic number  75.
 Defaulting to unpruned grid for atomic number  75.
 Defaulting to unpruned grid for atomic number  75.
 Defaulting to unpruned grid for atomic number  75.
 Defaulting to unpruned grid for atomic number  75.
 Defaulting to unpruned grid for atomic number  75.
 Defaulting to unpruned grid for atomic number  75.
 Defaulting to unpruned grid for atomic number  75.
 Defaulting to unpruned grid for atomic number  75.
 Defaulting to unpruned grid for atomic number  75.
 Defaulting to unpruned grid for atomic number  75.
 Defaulting to unpruned grid for atomic number  75.
 Defaulting to unpruned grid for atomic number  75.
 Defaulting to unpruned grid for atomic number  75.
 Defaulting to unpruned grid for atomic number  75.
 Defaulting to unpruned grid for atomic number  75.
 Defaulting to unpruned grid for atomic number  75.
 Defaulting to unpruned grid for atomic number  75.
 Leave Link  703 at Mon Nov 17 10:52:20 2025, MaxMem=  2684354560 cpu:             149.7 elap:               4.7
 (Enter /home/programes/qq/gaussian/g16.A03/g16/l716.exe)
 Dipole        = 4.57477937D+00-2.75386272D+00 1.75552776D+00
 -------------------------------------------------------------------
 Center     Atomic                   Forces (Hartrees/Bohr)
 Number     Number              X              Y              Z
 -------------------------------------------------------------------
      1        6          -0.000686354   -0.000053274   -0.000249587
      2        6           0.000274676   -0.000362435    0.000005821
      3        6           0.000272996   -0.000235188    0.000171600
      4        6           0.000085491    0.000151712    0.000264569
      5        6          -0.000646098   -0.000006158   -0.000124152
      6        6          -0.000261345    0.000626413   -0.000226901
      7        6           0.000435371   -0.000055316   -0.000025514
      8        6           0.000338912   -0.000133495    0.000186209
      9        6          -0.000093691   -0.000149004    0.000250744
     10        6          -0.000318584    0.000553707   -0.000101916
     11        1          -0.000002818    0.000036860    0.000073649
     12        1           0.000075123    0.000002008   -0.000133960
     13        1           0.000035453    0.000094689   -0.000074418
     14        1          -0.000053865    0.000039777   -0.000087395
     15        1          -0.000043146   -0.000018633    0.000075128
     16        1           0.000035064   -0.000071502   -0.000128526
     17        1          -0.000062946   -0.000067182   -0.000074410
     18        1          -0.000065416    0.000038177   -0.000063314
     19        7          -0.000762356    0.000284504   -0.000477160
     20        7          -0.000547750    0.000517698   -0.000450687
     21       75           0.003838706   -0.001206996    0.002578830
     22        6          -0.001890163   -0.000668022    0.001083895
     23        6          -0.000689850    0.002594054   -0.002855815
     24        6          -0.002813450   -0.000509793   -0.003478983
     25        8           0.001074672    0.000217725   -0.001028829
     26        8           0.001134208   -0.000936884    0.001598342
     27        8           0.001421617   -0.000622386    0.001768777
     28       17          -0.000084457   -0.000061056    0.001524003
 -------------------------------------------------------------------
 Cartesian Forces:  Max     0.003838706 RMS     0.000994751
 Leave Link  716 at Mon Nov 17 10:52:20 2025, MaxMem=  2684354560 cpu:               0.3 elap:               0.0
 (Enter /home/programes/qq/gaussian/g16.A03/g16/l103.exe)

 GradGradGradGradGradGradGradGradGradGradGradGradGradGradGradGradGradGrad
 Berny optimization.
 Using GEDIIS/GDIIS optimizer.
 FormGI is forming the generalized inverse of G from B-inverse, IUseBI=4.
 Internal  Forces:  Max     0.003643638 RMS     0.000628270
 Search for a local minimum.
 Step number   9 out of a maximum of  168
 All quantities printed in internal units (Hartrees-Bohrs-Radians)
 RMS Force = .62827D-03 SwitMx=.10000D-02 MixMth= 2
 Mixed Optimization -- En-DIIS/RFO-DIIS
 Update second derivatives using D2CorX and points    5    6    7    8    9
 DE= -3.79D-04 DEPred=-5.09D-04 R= 7.44D-01
 TightC=F SS=  1.41D+00  RLast= 2.22D-01 DXNew= 1.8313D+00 6.6693D-01
 Trust test= 7.44D-01 RLast= 2.22D-01 DXMaxT set to 1.09D+00
 ITU=  1  1  0  0  1  1 -1  1  0
 Use linear search instead of GDIIS.
     Eigenvalues ---    0.00467   0.00910   0.01012   0.01501   0.01637
     Eigenvalues ---    0.01784   0.01836   0.01872   0.01947   0.01973
     Eigenvalues ---    0.02020   0.02028   0.02154   0.02173   0.02239
     Eigenvalues ---    0.02250   0.02313   0.02325   0.03458   0.04266
     Eigenvalues ---    0.04647   0.04693   0.04693   0.04768   0.05559
     Eigenvalues ---    0.06823   0.07871   0.10321   0.12246   0.13622
     Eigenvalues ---    0.14050   0.15344   0.15739   0.15995   0.16000
     Eigenvalues ---    0.16000   0.16000   0.16000   0.16001   0.16023
     Eigenvalues ---    0.17897   0.21045   0.21872   0.22000   0.22123
     Eigenvalues ---    0.22609   0.24060   0.24142   0.24480   0.24850
     Eigenvalues ---    0.24955   0.25153   0.29686   0.34493   0.34513
     Eigenvalues ---    0.34526   0.34550   0.34560   0.34584   0.34735
     Eigenvalues ---    0.34741   0.35915   0.36277   0.38064   0.38699
     Eigenvalues ---    0.38993   0.39148   0.47100   0.47420   0.49464
     Eigenvalues ---    0.50161   0.50692   0.51500   0.58520   1.11547
     Eigenvalues ---    1.18254   1.19576   1.48321
 RFO step:  Lambda=-2.38855220D-04 EMin= 4.66578801D-03
 Quartic linear search produced a step of -0.21497.
 Iteration  1 RMS(Cart)=  0.00699730 RMS(Int)=  0.00009050
 Iteration  2 RMS(Cart)=  0.00009255 RMS(Int)=  0.00002429
 Iteration  3 RMS(Cart)=  0.00000001 RMS(Int)=  0.00002429
 ITry= 1 IFail=0 DXMaxC= 3.59D-02 DCOld= 1.00D+10 DXMaxT= 1.09D+00 DXLimC= 3.00D+00 Rises=F
 Variable       Old X    -DE/DX   Delta X   Delta X   Delta X     New X
                                 (Linear)    (Quad)   (Total)
    R1        2.64335   0.00029  -0.00047   0.00081   0.00035   2.64370
    R2        2.80038  -0.00011   0.00133  -0.00151  -0.00019   2.80019
    R3        2.56718  -0.00005  -0.00012   0.00043   0.00029   2.56748
    R4        2.63159   0.00015   0.00043  -0.00035   0.00009   2.63167
    R5        2.05550  -0.00004  -0.00006   0.00008   0.00002   2.05552
    R6        2.63422   0.00049  -0.00053   0.00165   0.00113   2.63536
    R7        2.06047   0.00008  -0.00000   0.00018   0.00018   2.06065
    R8        2.62811   0.00040   0.00013   0.00055   0.00069   2.62880
    R9        2.05858   0.00010   0.00003   0.00014   0.00018   2.05875
   R10        2.05834   0.00005  -0.00010   0.00036   0.00026   2.05860
   R11        2.54252  -0.00022   0.00017  -0.00063  -0.00047   2.54206
   R12        2.64317   0.00028  -0.00046   0.00077   0.00030   2.64348
   R13        2.56707  -0.00005  -0.00012   0.00042   0.00029   2.56736
   R14        2.63160   0.00015   0.00043  -0.00036   0.00008   2.63168
   R15        2.05516  -0.00005  -0.00006   0.00006  -0.00001   2.05515
   R16        2.63424   0.00049  -0.00054   0.00166   0.00114   2.63538
   R17        2.06049   0.00009  -0.00001   0.00020   0.00019   2.06068
   R18        2.62810   0.00040   0.00014   0.00054   0.00068   2.62878
   R19        2.05857   0.00009   0.00004   0.00012   0.00015   2.05872
   R20        2.05840   0.00006  -0.00010   0.00038   0.00028   2.05868
   R21        2.54254  -0.00020   0.00017  -0.00060  -0.00043   2.54211
   R22        4.33440  -0.00116  -0.00243   0.00568   0.00325   4.33765
   R23        4.33543  -0.00109  -0.00246   0.00599   0.00352   4.33895
   R24        3.59321   0.00008  -0.00092   0.00180   0.00089   3.59410
   R25        3.60913  -0.00077   0.00091  -0.00313  -0.00222   3.60692
   R26        3.60917  -0.00068   0.00092  -0.00295  -0.00203   3.60714
   R27        4.94430  -0.00152   0.01438  -0.02253  -0.00815   4.93615
   R28        2.19953  -0.00107   0.00008  -0.00074  -0.00066   2.19887
   R29        2.19561  -0.00098  -0.00007  -0.00068  -0.00075   2.19486
   R30        2.19566  -0.00106  -0.00007  -0.00071  -0.00078   2.19488
    A1        2.14259  -0.00022  -0.00008  -0.00109  -0.00117   2.14143
    A2        2.10776   0.00005   0.00065  -0.00056   0.00008   2.10784
    A3        2.03281   0.00017  -0.00057   0.00164   0.00108   2.03389
    A4        2.08898  -0.00012  -0.00033   0.00002  -0.00030   2.08868
    A5        2.10378   0.00008   0.00064  -0.00075  -0.00011   2.10368
    A6        2.09042   0.00005  -0.00031   0.00073   0.00041   2.09083
    A7        2.07782  -0.00004  -0.00006   0.00001  -0.00003   2.07779
    A8        2.09621   0.00001  -0.00027   0.00032   0.00005   2.09626
    A9        2.10915   0.00003   0.00033  -0.00034  -0.00002   2.10913
   A10        2.06752   0.00004   0.00022   0.00003   0.00026   2.06778
   A11        2.12495  -0.00002   0.00032  -0.00063  -0.00032   2.12463
   A12        2.09072  -0.00002  -0.00054   0.00060   0.00006   2.09078
   A13        2.11378   0.00013  -0.00038   0.00119   0.00082   2.11460
   A14        2.14181  -0.00021  -0.00004  -0.00068  -0.00073   2.14108
   A15        2.02759   0.00009   0.00042  -0.00052  -0.00009   2.02749
   A16        2.14236  -0.00021  -0.00009  -0.00106  -0.00114   2.14122
   A17        2.03312   0.00018  -0.00057   0.00165   0.00109   2.03420
   A18        2.10769   0.00004   0.00066  -0.00059   0.00005   2.10774
   A19        2.08921  -0.00011  -0.00033   0.00004  -0.00028   2.08893
   A20        2.10297   0.00008   0.00064  -0.00074  -0.00011   2.10286
   A21        2.09100   0.00004  -0.00031   0.00070   0.00039   2.09139
   A22        2.07764  -0.00004  -0.00006   0.00002  -0.00002   2.07762
   A23        2.09628   0.00001  -0.00027   0.00032   0.00005   2.09633
   A24        2.10925   0.00003   0.00033  -0.00034  -0.00002   2.10923
   A25        2.06750   0.00004   0.00022   0.00002   0.00026   2.06776
   A26        2.12472  -0.00002   0.00030  -0.00061  -0.00031   2.12441
   A27        2.09097  -0.00002  -0.00053   0.00059   0.00005   2.09102
   A28        2.11380   0.00014  -0.00040   0.00128   0.00089   2.11468
   A29        2.14188  -0.00022  -0.00003  -0.00072  -0.00076   2.14112
   A30        2.02750   0.00008   0.00044  -0.00057  -0.00012   2.02738
   A31        2.08240   0.00030  -0.00050   0.00117   0.00076   2.08316
   A32        2.04971  -0.00043  -0.00038  -0.00066  -0.00090   2.04881
   A33        2.14965   0.00013  -0.00013   0.00040   0.00040   2.15005
   A34        2.08243   0.00029  -0.00049   0.00112   0.00072   2.08315
   A35        2.04962  -0.00045  -0.00036  -0.00076  -0.00099   2.04863
   A36        2.14993   0.00016  -0.00017   0.00053   0.00050   2.15043
   A37        1.25484   0.00056   0.00042  -0.00012   0.00031   1.25515
   A38        1.62162   0.00018   0.00192  -0.00315  -0.00123   1.62039
   A39        1.73167   0.00037  -0.00023   0.00135   0.00111   1.73278
   A40        1.45137  -0.00042   0.00103  -0.00409  -0.00305   1.44831
   A41        1.62008   0.00042   0.00208  -0.00231  -0.00022   1.61986
   A42        1.73164   0.00053  -0.00031   0.00234   0.00203   1.73367
   A43        1.45177  -0.00033   0.00115  -0.00310  -0.00195   1.44982
   A44        1.58680   0.00005   0.00049  -0.00070  -0.00021   1.58660
   A45        1.58520   0.00055   0.00070   0.00164   0.00234   1.58753
   A46        1.56101  -0.00154  -0.00022  -0.00331  -0.00352   1.55749
   A47        1.61630  -0.00013  -0.00336   0.00523   0.00188   1.61817
   A48        1.61654  -0.00021  -0.00324   0.00514   0.00191   1.61844
   A49        2.98648   0.00109   0.00011   0.00222   0.00234   2.98882
   A50        2.98651   0.00093   0.00018   0.00123   0.00142   2.98793
   A51        3.07299  -0.00025   0.00295  -0.00723  -0.00428   3.06871
   A52        3.15480  -0.00225  -0.00351  -0.00852  -0.01202   3.14277
   A53        3.12472  -0.00249  -0.00501  -0.01369  -0.01870   3.10602
   A54        3.12540  -0.00260  -0.00533  -0.01418  -0.01951   3.10589
   A55        3.08159  -0.00073  -0.00239   0.00116  -0.00124   3.08035
   A56        3.20136   0.00051   0.00239  -0.00256  -0.00017   3.20119
   A57        3.19302  -0.00014  -0.00243   0.00338   0.00095   3.19397
   A58        3.14179   0.00056  -0.00205  -0.00479  -0.00684   3.13494
   A59        3.17620  -0.00330  -0.00615  -0.01211  -0.01826   3.15794
   A60        3.10532   0.00364   0.00683   0.01492   0.02175   3.12706
    D1       -3.13179  -0.00010   0.00024  -0.00002   0.00022  -3.13157
    D2        0.01059  -0.00008  -0.00031   0.00049   0.00018   0.01078
    D3        0.00317  -0.00005   0.00008  -0.00111  -0.00103   0.00215
    D4       -3.13763  -0.00004  -0.00047  -0.00060  -0.00106  -3.13869
    D5       -0.00340  -0.00001   0.00010  -0.00044  -0.00034  -0.00375
    D6        3.13229   0.00004  -0.00009  -0.00147  -0.00156   3.13073
    D7       -3.13864  -0.00005   0.00024   0.00062   0.00086  -3.13778
    D8       -0.00294  -0.00001   0.00005  -0.00041  -0.00036  -0.00330
    D9       -0.00943   0.00015   0.00511  -0.00459   0.00052  -0.00891
   D10        3.08104   0.00022  -0.00830   0.01426   0.00595   3.08699
   D11        3.12594   0.00019   0.00496  -0.00562  -0.00066   3.12527
   D12       -0.06678   0.00026  -0.00844   0.01323   0.00477  -0.06201
   D13        0.00415  -0.00004  -0.00301   0.00355   0.00054   0.00469
   D14        3.14056   0.00007  -0.00019   0.00214   0.00195  -3.14068
   D15       -3.13823  -0.00006  -0.00247   0.00304   0.00057  -3.13766
   D16       -0.00182   0.00006   0.00036   0.00163   0.00199   0.00016
   D17       -0.00513   0.00004   0.00083  -0.00043   0.00040  -0.00472
   D18        3.13548   0.00010   0.00258  -0.00130   0.00127   3.13675
   D19       -3.14149  -0.00008  -0.00202   0.00099  -0.00102   3.14067
   D20       -0.00089  -0.00002  -0.00027   0.00012  -0.00015  -0.00104
   D21       -3.13980  -0.00000   0.00358  -0.00490  -0.00132  -3.14112
   D22       -0.00119   0.00007   0.00454  -0.00546  -0.00093  -0.00212
   D23        0.00276  -0.00006   0.00188  -0.00405  -0.00217   0.00059
   D24        3.14137   0.00001   0.00283  -0.00461  -0.00178   3.13959
   D25        0.00852  -0.00016  -0.00752   0.00799   0.00047   0.00899
   D26       -3.07885  -0.00021   0.00671  -0.01196  -0.00525  -3.08410
   D27       -3.13591  -0.00009  -0.00661   0.00746   0.00084  -3.13507
   D28        0.05990  -0.00015   0.00762  -0.01249  -0.00487   0.05502
   D29        3.13217   0.00010  -0.00065   0.00031  -0.00035   3.13183
   D30       -0.01036   0.00008  -0.00001  -0.00028  -0.00029  -0.01065
   D31       -0.00327   0.00005  -0.00045   0.00137   0.00092  -0.00235
   D32        3.13737   0.00003   0.00019   0.00079   0.00098   3.13835
   D33       -3.12579  -0.00018  -0.00435   0.00527   0.00093  -3.12486
   D34        0.07124  -0.00025   0.00837  -0.01260  -0.00422   0.06702
   D35        0.01003  -0.00014  -0.00453   0.00427  -0.00027   0.00976
   D36       -3.07612  -0.00021   0.00818  -0.01361  -0.00542  -3.08154
   D37       -0.00456   0.00004   0.00310  -0.00365  -0.00055  -0.00511
   D38       -3.14095  -0.00007   0.00016  -0.00210  -0.00194   3.14030
   D39        3.13797   0.00006   0.00246  -0.00307  -0.00061   3.13736
   D40        0.00159  -0.00006  -0.00048  -0.00152  -0.00200  -0.00041
   D41        0.00554  -0.00004  -0.00084   0.00044  -0.00040   0.00514
   D42       -3.13515  -0.00010  -0.00275   0.00155  -0.00119  -3.13634
   D43       -3.14129   0.00008   0.00212  -0.00112   0.00100  -3.14030
   D44        0.00120   0.00002   0.00022  -0.00001   0.00021   0.00140
   D45        3.13955   0.00001  -0.00364   0.00502   0.00139   3.14093
   D46        0.00127  -0.00006  -0.00431   0.00539   0.00108   0.00235
   D47       -0.00293   0.00007  -0.00178   0.00393   0.00216  -0.00077
   D48       -3.14121  -0.00000  -0.00245   0.00429   0.00185  -3.13935
   D49       -0.00911   0.00015   0.00701  -0.00776  -0.00074  -0.00985
   D50        3.07369   0.00020  -0.00649   0.01117   0.00468   3.07838
   D51        3.13564   0.00008   0.00637  -0.00741  -0.00103   3.13461
   D52       -0.06474   0.00013  -0.00713   0.01151   0.00439  -0.06035
   D53       -0.07713   0.00027  -0.00934   0.01424   0.00490  -0.07223
   D54       -1.68320  -0.00014  -0.01092   0.01565   0.00473  -1.67848
   D55        3.00469  -0.00024  -0.01173   0.01680   0.00508   3.00977
   D56        1.40696   0.00000  -0.00849   0.01227   0.00378   1.41074
   D57        3.12222   0.00020   0.00393  -0.00441  -0.00047   3.12174
   D58        1.51615  -0.00021   0.00235  -0.00300  -0.00065   1.51550
   D59       -0.07914  -0.00031   0.00155  -0.00185  -0.00030  -0.07944
   D60       -1.67688  -0.00007   0.00478  -0.00638  -0.00159  -1.67847
   D61        0.07550  -0.00027   0.00937  -0.01447  -0.00510   0.07040
   D62        1.68369  -0.00020   0.01073  -0.01704  -0.00631   1.67738
   D63       -3.00608   0.00045   0.01176  -0.01563  -0.00387  -3.00995
   D64       -1.40804   0.00012   0.00868  -0.01115  -0.00247  -1.41051
   D65       -3.11935  -0.00020  -0.00462   0.00519   0.00056  -3.11880
   D66       -1.51116  -0.00013  -0.00326   0.00262  -0.00065  -1.51181
   D67        0.08225   0.00053  -0.00223   0.00402   0.00179   0.08404
   D68        1.68029   0.00019  -0.00531   0.00850   0.00319   1.68348
         Item               Value     Threshold  Converged?
 Maximum Force            0.003644     0.000450     NO 
 RMS     Force            0.000628     0.000300     NO 
 Maximum Displacement     0.035852     0.001800     NO 
 RMS     Displacement     0.007006     0.001200     NO 
 Predicted change in Energy=-1.505597D-04
 Lowest energy point so far.  Saving SCF results.
 GradGradGradGradGradGradGradGradGradGradGradGradGradGradGradGradGradGrad

 Leave Link  103 at Mon Nov 17 10:52:20 2025, MaxMem=  2684354560 cpu:               4.1 elap:               0.2
 (Enter /home/programes/qq/gaussian/g16.A03/g16/l202.exe)
                          Input orientation:                          
 ---------------------------------------------------------------------
 Center     Atomic      Atomic             Coordinates (Angstroms)
 Number     Number       Type             X           Y           Z
 ---------------------------------------------------------------------
      1          6           0       -2.287524    0.298425    0.030285
      2          6           0       -0.892770    0.339550   -0.070377
      3          6           0       -0.235835    1.567278   -0.047694
      4          6           0       -0.987207    2.735022    0.081299
      5          6           0       -2.370750    2.626302    0.176934
      6          6           0       -3.053281   -0.970164    0.025821
      7          6           0       -2.439686   -2.222488   -0.083791
      8          6           0       -3.219489   -3.376225   -0.069582
      9          6           0       -4.602830   -3.256722    0.060594
     10          6           0       -5.151518   -1.982711    0.165346
     11          1           0       -0.318381   -0.579111   -0.166818
     12          1           0        0.851012    1.607625   -0.126519
     13          1           0       -0.518314    3.718026    0.108429
     14          1           0       -2.999864    3.509815    0.278581
     15          1           0       -1.359320   -2.300951   -0.180722
     16          1           0       -2.748507   -4.355949   -0.155785
     17          1           0       -5.253726   -4.130075    0.081692
     18          1           0       -6.226448   -1.838571    0.268100
     19          7           0       -4.402711   -0.865376    0.143398
     20          7           0       -3.010005    1.443067    0.147546
     21         75           0       -5.297303    1.247906    0.193736
     22          6           0       -5.355327    1.280485    2.094487
     23          6           0       -7.150893    0.799488    0.114662
     24          6           0       -5.767301    3.096313    0.115741
     25          8           0       -5.395362    1.306180    3.257108
     26          8           0       -8.267615    0.487374    0.047333
     27          8           0       -6.013105    4.229654    0.051275
     28         17           0       -5.018938    1.080842   -2.398111
 ---------------------------------------------------------------------
                    Distance matrix (angstroms):
                    1          2          3          4          5
     1  C    0.000000
     2  C    1.398986   0.000000
     3  C    2.413606   1.392621   0.000000
     4  C    2.762324   2.402126   1.394570   0.000000
     5  C    2.333976   2.734012   2.393711   1.391099   0.000000
     6  C    1.481796   2.528321   3.792362   4.242657   3.663776
     7  C    2.528076   2.992853   4.384129   5.168545   4.856284
     8  C    3.792306   4.384131   5.774157   6.507933   6.067245
     9  C    4.242715   5.168643   6.507945   6.998154   6.293306
    10  C    3.663917   4.856480   6.067268   6.293294   5.382918
    11  H    2.164819   1.087733   2.151276   3.390040   3.821656
    12  H    3.404262   2.156836   1.090449   2.166394   3.392571
    13  H    3.850958   3.403864   2.174830   1.089446   2.151295
    14  H    3.298803   3.822590   3.394078   2.165644   1.089363
    15  H    2.768184   2.683671   4.030273   5.056495   5.042691
    16  H    4.680847   5.049631   6.435046   7.310285   7.000375
    17  H    5.330348   6.246488   7.593142   8.082868   7.346378
    18  H    4.487586   5.771212   6.898331   6.957175   5.899984
    19  N    2.416866   3.717153   4.828786   4.963103   4.040026
    20  N    1.358651   2.397482   2.783804   2.401093   1.345198
    21  Re   3.160222   4.504972   5.077277   4.560820   3.234961
    22  C    3.825806   5.048407   5.557012   5.024846   3.794198
    23  C    4.889841   6.277729   6.959446   6.460529   5.117705
    24  C    4.465907   5.603162   5.741234   4.793852   3.429463
    25  O    4.592016   5.681537   6.132748   5.617756   4.514252
    26  O    5.983099   7.377265   8.104610   7.619541   6.274140
    27  O    5.416175   6.431604   6.361988   5.243518   3.981618
    28  Cl   3.737634   4.795114   5.351556   5.013845   4.004024
                    6          7          8          9         10
     6  C    0.000000
     7  C    1.398867   0.000000
     8  C    2.413681   1.392625   0.000000
     9  C    2.762365   2.402016   1.394582   0.000000
    10  C    2.333949   2.733788   2.393702   1.391092   0.000000
    11  H    2.769423   2.684682   4.031095   5.057452   5.043772
    12  H    4.680994   5.049781   6.435136   7.310354   7.000433
    13  H    5.330291   6.246465   7.593183   8.082863   7.346306
    14  H    4.487421   5.770997   6.898333   6.957230   5.900023
    15  H    2.164061   1.087540   2.151464   3.389999   3.821231
    16  H    3.404323   2.156899   1.090466   2.166479   3.392617
    17  H    3.850990   3.403688   2.174694   1.089429   2.151422
    18  H    3.298760   3.822405   3.394144   2.165721   1.089407
    19  N    1.358590   2.397256   2.783835   2.401134   1.345225
    20  N    2.416686   3.716863   4.828726   4.963131   4.040092
    21  Re   3.159694   4.504068   5.076341   4.559792   3.234029
    22  C    3.826776   5.051404   5.561470   5.028839   3.796258
    23  C    4.464302   5.600642   5.738159   4.790448   3.426470
    24  C    4.889808   6.277139   6.958407   6.459109   5.116457
    25  O    4.594377   5.687628   6.142165   5.627245   4.520537
    26  O    5.414255   6.428475   6.358037   5.239187   3.978103
    27  O    5.983253   7.376835   8.103597   7.618057   6.272863
    28  Cl   3.734419   4.787547   5.340928   5.003283   3.996779
                   11         12         13         14         15
    11  H    0.000000
    12  H    2.480105   0.000000
    13  H    4.310582   2.526667   0.000000
    14  H    4.909995   4.314126   2.496076   0.000000
    15  H    2.012083   4.490598   6.084322   6.055357   0.000000
    16  H    4.491118   6.965746   8.380492   7.881758   2.480622
    17  H    6.085124   8.380476   9.166108   7.967847   4.310564
    18  H    6.056454   7.881778   7.967688   6.246293   4.909600
    19  N    4.106084   5.812933   6.008105   4.596580   3.380556
    20  N    3.381252   3.874228   3.374240   2.070923   4.104898
    21  Re   5.315793   6.167150   5.380288   3.225160   5.314350
    22  C    5.826013   6.599889   5.769118   3.716939   5.828494
    23  C    6.975886   8.046225   7.246310   4.960220   6.575888
    24  C    6.578701   6.788000   5.285683   2.802892   6.974858
    25  O    6.407286   7.110343   6.286237   4.412034   6.412465
    26  O    8.023313   9.188827   8.395981   6.077649   7.453275
    27  O    7.456652   7.350017   5.518855   3.106358   8.022490
    28  Cl   5.461625   6.316165   5.787323   4.140199   5.454003
                   16         17         18         19         20
    16  H    0.000000
    17  H    2.526566   0.000000
    18  H    4.314272   2.496383   0.000000
    19  N    3.874275   3.374359   2.070912   0.000000
    20  N    5.812829   6.008205   4.596649   2.696025   0.000000
    21  Re   6.166176   5.379325   3.224156   2.295384   2.296074
    22  C    6.605197   5.773719   3.717936   3.052695   3.052466
    23  C    6.784739   5.282132   2.799553   3.213270   4.190732
    24  C    8.045064   7.244695   4.958538   4.190208   3.215107
    25  O    7.121333   6.297316   4.417502   3.923799   3.921485
    26  O    7.345719   5.514122   3.102437   4.095930   5.344703
    27  O    9.187658   8.394203   6.075844   5.344266   4.097920
    28  Cl   6.304093   5.775656   4.133973   3.259872   3.263034
                   21         22         23         24         25
    21  Re   0.000000
    22  C    1.901915   0.000000
    23  C    1.908698   2.715718   0.000000
    24  C    1.908818   2.717055   2.681368   0.000000
    25  O    3.065494   1.163594   3.635051   3.634708   0.000000
    26  O    3.069624   3.647092   1.161471   3.614251   4.384396
    27  O    3.069770   3.647599   3.614501   1.161481   4.382427
    28  Cl   2.612101   4.509595   3.307328   3.307812   5.672210
                   26         27         28
    26  O    0.000000
    27  O    4.368923   0.000000
    28  Cl   4.109294   4.111311   0.000000
 Symmetry turned off by external request.
 Stoichiometry    C13H8ClN2O3Re
 Framework group  C1[X(C13H8ClN2O3Re)]
 Deg. of freedom    78
 Full point group                 C1      NOp   1
 Rotational constants (GHZ):           0.3382145           0.2665155           0.1988382
 Leave Link  202 at Mon Nov 17 10:52:20 2025, MaxMem=  2684354560 cpu:               0.1 elap:               0.0
 (Enter /home/programes/qq/gaussian/g16.A03/g16/l301.exe)
 Basis read from rwf:  (5D, 7F)
 Pseudo-potential data read from rwf file.
   339 basis functions,   774 primitive gaussians,   363 cartesian basis functions
    78 alpha electrons       78 beta electrons
       nuclear repulsion energy      1754.1383180764 Hartrees.
 IExCor=  402 DFT=T Ex+Corr=B3LYP ExCW=0 ScaHFX=  0.200000
 ScaDFX=  0.800000  0.720000  1.000000  0.810000 ScalE2=  1.000000  1.000000
 IRadAn=      5 IRanWt=     -1 IRanGd=            0 ICorTp=0 IEmpDi=141
 NAtoms=   28 NActive=   28 NUniq=   28 SFac= 1.00D+00 NAtFMM=   60 NAOKFM=F Big=F
 Integral buffers will be    131072 words long.
 Raffenetti 2 integral format.
 Two-electron integral symmetry is turned off.
 R6Disp:  Grimme-D3(BJ) Dispersion energy=       -0.0842630652 Hartrees.
 Nuclear repulsion after empirical dispersion term =     1754.0540550112 Hartrees.
 No density basis found on file   724.
 ------------------------------------------------------------------------------
 Polarizable Continuum Model (PCM)
 =================================
 Model                : PCM.
 Atomic radii         : UFF (Universal Force Field).
 Polarization charges : Total charges.
 Charge compensation  : None.
 Solution method      : On-the-fly selection.
 Cavity type          : Scaled VdW (van der Waals Surface) (Alpha=1.100).
 Cavity algorithm     : GePol (No added spheres)
                        Default sphere list used, NSphG=   28.
                        Lebedev-Laikov grids with approx.  5.0 points / Ang**2.
                        Smoothing algorithm: York/Karplus (Gamma=1.0000).
                        Polarization charges: spherical gaussians, with
                                              point-specific exponents (IZeta= 3).
                        Self-potential: point-specific (ISelfS= 7).
                        Self-field    : sphere-specific E.n sum rule (ISelfD= 2).
 1st derivatives      : Analytical E(r).r(x)/FMM algorithm (CHGder, D1EAlg=3).
                        Cavity 1st derivative terms included.
 Solvent              : n,n-DiMethylFormamide, Eps=  37.219000 Eps(inf)=   2.046330
 ------------------------------------------------------------------------------
 GePol: Number of generator spheres                  =      28
 GePol: Total number of spheres                      =      28
 GePol: Number of exposed spheres                    =      27 ( 96.43%)
 GePol: Number of points                             =    2583
 GePol: Average weight of points                     =       0.13
 GePol: Minimum weight of points                     =   0.14D-09
 GePol: Maximum weight of points                     =    0.21616
 GePol: Number of points with low weight             =     115
 GePol: Fraction of low-weight points (<1% of avg)   =       4.45%
 GePol: Cavity surface area                          =    342.371 Ang**2
 GePol: Cavity volume                                =    378.076 Ang**3
 Leave Link  301 at Mon Nov 17 10:52:21 2025, MaxMem=  2684354560 cpu:               1.2 elap:               0.0
 (Enter /home/programes/qq/gaussian/g16.A03/g16/l302.exe)
 NPDir=0 NMtPBC=     1 NCelOv=     1 NCel=       1 NClECP=     1 NCelD=      1
         NCelK=      1 NCelE2=     1 NClLst=     1 CellRange=     0.0.
 One-electron integrals computed using PRISM.
   1 Symmetry operations used in ECPInt.
 ECPInt:  NShTT=   11175 NPrTT=  105620 LenC2=   10449 LenP2D=   51057.
 LDataN:  DoStor=T MaxTD1= 7 Len=  274
 NBasis=   339 RedAO= T EigKep=  3.67D-04  NBF=   339
 NBsUse=   339 1.00D-06 EigRej= -1.00D+00 NBFU=   339
 Precomputing XC quadrature grid using
 IXCGrd= 4 IRadAn=           5 IRanWt=          -1 IRanGd=           0 AccXCQ= 0.00D+00.
 Defaulting to unpruned grid for atomic number  75.
 Generated NRdTot=       0 NPtTot=           0 NUsed=           0 NTot=          32
 NSgBfM=   363   363   363   363   363 MxSgAt=    28 MxSgA2=    28.
 Leave Link  302 at Mon Nov 17 10:52:21 2025, MaxMem=  2684354560 cpu:              12.2 elap:               0.4
 (Enter /home/programes/qq/gaussian/g16.A03/g16/l303.exe)
 DipDrv:  MaxL=1.
 Leave Link  303 at Mon Nov 17 10:52:21 2025, MaxMem=  2684354560 cpu:               1.2 elap:               0.1
 (Enter /home/programes/qq/gaussian/g16.A03/g16/l401.exe)
 Initial guess from the checkpoint file:  "re-bpy-co3-cl.chk"
 B after Tr=    -0.001370    0.000970   -0.006880
         Rot=    1.000000    0.000021   -0.000283   -0.000023 Ang=   0.03 deg.
 Guess basis will be translated and rotated to current coordinates.
 JPrj=2 DoOrth=T DoCkMO=T.
 Generating alternative initial guess.
 ExpMin= 2.80D-02 ExpMax= 1.28D+05 ExpMxC= 1.24D+03 IAcc=3 IRadAn=         5 AccDes= 0.00D+00
 Harris functional with IExCor=  402 and IRadAn=       5 diagonalized for initial guess.
 HarFok:  IExCor=  402 AccDes= 0.00D+00 IRadAn=         5 IDoV= 1 UseB2=F ITyADJ=14
 ICtDFT=  3500011 ScaDFX=  1.000000  1.000000  1.000000  1.000000
 Defaulting to unpruned grid for atomic number  75.
 FoFCou: FMM=F IPFlag=           0 FMFlag=      100000 FMFlg1=           0
         NFxFlg=           0 DoJE=T BraDBF=F KetDBF=T FulRan=T
         wScrn=  0.000000 ICntrl=       500 IOpCl=  0 I1Cent=   200000004 NGrid=           0
         NMat0=    1 NMatS0=      1 NMatT0=    0 NMatD0=    1 NMtDS0=    0 NMtDT0=    0
 Symmetry not used in FoFCou.
 Harris En= -1374.75564629667    
 Leave Link  401 at Mon Nov 17 10:52:22 2025, MaxMem=  2684354560 cpu:              30.6 elap:               1.0
 (Enter /home/programes/qq/gaussian/g16.A03/g16/l502.exe)
 Two-electron integral symmetry not used.
 Closed shell SCF:
 Using DIIS extrapolation, IDIIS=  1040.
 NGot=  2684354560 LenX=  2684076439 LenY=  2683944229
 Requested convergence on RMS density matrix=1.00D-08 within 128 cycles.
 Requested convergence on MAX density matrix=1.00D-06.
 Requested convergence on             energy=1.00D-06.
 No special actions if energy rises.
 Fock matrices will be formed incrementally for  20 cycles.

 Cycle   1  Pass 1  IDiag  1:
 FoFJK:  IHMeth= 1 ICntrl=       0 DoSepK=F KAlg= 0 I1Cent=           0 FoldK=F
 IRaf= 870000000 NMat=       1 IRICut=       1 DoRegI=T DoRafI=F ISym2E= 0 IDoP0=0 IntGTp=1.
 FoFCou: FMM=F IPFlag=           0 FMFlag=      100000 FMFlg1=           0
         NFxFlg=           0 DoJE=F BraDBF=F KetDBF=F FulRan=T
         wScrn=  0.000000 ICntrl=         0 IOpCl=  0 I1Cent=           0 NGrid=           0
         NMat0=    1 NMatS0=      1 NMatT0=    0 NMatD0=    1 NMtDS0=    0 NMtDT0=    0
 Symmetry not used in FoFCou.
 Defaulting to unpruned grid for atomic number  75.
 Defaulting to unpruned grid for atomic number  75.
 Defaulting to unpruned grid for atomic number  75.
 Defaulting to unpruned grid for atomic number  75.
 Defaulting to unpruned grid for atomic number  75.
 Defaulting to unpruned grid for atomic number  75.
 Defaulting to unpruned grid for atomic number  75.
 Defaulting to unpruned grid for atomic number  75.
 Defaulting to unpruned grid for atomic number  75.
 Defaulting to unpruned grid for atomic number  75.
 Defaulting to unpruned grid for atomic number  75.
 Defaulting to unpruned grid for atomic number  75.
 Defaulting to unpruned grid for atomic number  75.
 Defaulting to unpruned grid for atomic number  75.
 Defaulting to unpruned grid for atomic number  75.
 Defaulting to unpruned grid for atomic number  75.
 Defaulting to unpruned grid for atomic number  75.
 Defaulting to unpruned grid for atomic number  75.
 Defaulting to unpruned grid for atomic number  75.
 Defaulting to unpruned grid for atomic number  75.
 Defaulting to unpruned grid for atomic number  75.
 Defaulting to unpruned grid for atomic number  75.
 Defaulting to unpruned grid for atomic number  75.
 Defaulting to unpruned grid for atomic number  75.
 Defaulting to unpruned grid for atomic number  75.
 Defaulting to unpruned grid for atomic number  75.
 Defaulting to unpruned grid for atomic number  75.
 Defaulting to unpruned grid for atomic number  75.
 Defaulting to unpruned grid for atomic number  75.
 Defaulting to unpruned grid for atomic number  75.
 Defaulting to unpruned grid for atomic number  75.
 Defaulting to unpruned grid for atomic number  75.
 Inv3:  Mode=1 IEnd=    20015667.
 Iteration    1 A*A^-1 deviation from unit magnitude is 8.22D-15 for    119.
 Iteration    1 A*A^-1 deviation from orthogonality  is 3.93D-15 for   1374    102.
 Iteration    1 A^-1*A deviation from unit magnitude is 8.66D-15 for    119.
 Iteration    1 A^-1*A deviation from orthogonality  is 2.77D-15 for   2238   1305.
 E= -1375.06692546245    
 DIIS: error= 1.40D-03 at cycle   1 NSaved=   1.
 NSaved= 1 IEnMin= 1 EnMin= -1375.06692546245     IErMin= 1 ErrMin= 1.40D-03
 ErrMax= 1.40D-03  0.00D+00 EMaxC= 1.00D-01 BMatC= 7.00D-04 BMatP= 7.00D-04
 IDIUse=3 WtCom= 9.86D-01 WtEn= 1.40D-02
 Coeff-Com:  0.100D+01
 Coeff-En:   0.100D+01
 Coeff:      0.100D+01
 Gap=     0.613 Goal=   None    Shift=    0.000
 GapD=    0.613 DampG=2.000 DampE=1.000 DampFc=2.0000 IDamp=-1.
 RMSDP=1.16D-04 MaxDP=6.10D-03              OVMax= 7.87D-03

 Cycle   2  Pass 1  IDiag  1:
 RMSU=  1.16D-04    CP:  1.00D+00
 E= -1375.06800615675     Delta-E=       -0.001080694301 Rises=F Damp=F
 DIIS: error= 1.22D-04 at cycle   2 NSaved=   2.
 NSaved= 2 IEnMin= 2 EnMin= -1375.06800615675     IErMin= 2 ErrMin= 1.22D-04
 ErrMax= 1.22D-04  0.00D+00 EMaxC= 1.00D-01 BMatC= 1.02D-05 BMatP= 7.00D-04
 IDIUse=3 WtCom= 9.99D-01 WtEn= 1.22D-03
 Coeff-Com: -0.730D-01 0.107D+01
 Coeff-En:   0.000D+00 0.100D+01
 Coeff:     -0.729D-01 0.107D+01
 Gap=     0.137 Goal=   None    Shift=    0.000
 RMSDP=1.92D-05 MaxDP=5.92D-04 DE=-1.08D-03 OVMax= 1.14D-03

 Cycle   3  Pass 1  IDiag  1:
 RMSU=  1.75D-05    CP:  1.00D+00  1.07D+00
 E= -1375.06801182360     Delta-E=       -0.000005666855 Rises=F Damp=F
 DIIS: error= 1.12D-04 at cycle   3 NSaved=   3.
 NSaved= 3 IEnMin= 3 EnMin= -1375.06801182360     IErMin= 3 ErrMin= 1.12D-04
 ErrMax= 1.12D-04  0.00D+00 EMaxC= 1.00D-01 BMatC= 1.01D-05 BMatP= 1.02D-05
 IDIUse=3 WtCom= 9.99D-01 WtEn= 1.12D-03
 Coeff-Com: -0.454D-01 0.598D+00 0.447D+00
 Coeff-En:   0.000D+00 0.253D+00 0.747D+00
 Coeff:     -0.453D-01 0.598D+00 0.447D+00
 Gap=     0.137 Goal=   None    Shift=    0.000
 RMSDP=1.23D-05 MaxDP=6.21D-04 DE=-5.67D-06 OVMax= 9.19D-04

 Cycle   4  Pass 1  IDiag  1:
 RMSU=  7.08D-06    CP:  1.00D+00  1.08D+00  4.28D-01
 E= -1375.06801867681     Delta-E=       -0.000006853209 Rises=F Damp=F
 DIIS: error= 7.26D-05 at cycle   4 NSaved=   4.
 NSaved= 4 IEnMin= 4 EnMin= -1375.06801867681     IErMin= 4 ErrMin= 7.26D-05
 ErrMax= 7.26D-05  0.00D+00 EMaxC= 1.00D-01 BMatC= 2.48D-06 BMatP= 1.01D-05
 IDIUse=1 WtCom= 1.00D+00 WtEn= 0.00D+00
 Coeff-Com: -0.172D-01 0.220D+00 0.323D+00 0.474D+00
 Coeff:     -0.172D-01 0.220D+00 0.323D+00 0.474D+00
 Gap=     0.137 Goal=   None    Shift=    0.000
 RMSDP=6.06D-06 MaxDP=4.78D-04 DE=-6.85D-06 OVMax= 5.56D-04

 Cycle   5  Pass 1  IDiag  1:
 RMSU=  4.17D-06    CP:  1.00D+00  1.08D+00  5.35D-01  4.47D-01
 E= -1375.06802009468     Delta-E=       -0.000001417866 Rises=F Damp=F
 DIIS: error= 6.43D-05 at cycle   5 NSaved=   5.
 NSaved= 5 IEnMin= 5 EnMin= -1375.06802009468     IErMin= 5 ErrMin= 6.43D-05
 ErrMax= 6.43D-05  0.00D+00 EMaxC= 1.00D-01 BMatC= 9.64D-07 BMatP= 2.48D-06
 IDIUse=1 WtCom= 1.00D+00 WtEn= 0.00D+00
 Coeff-Com: -0.730D-02 0.901D-01 0.201D+00 0.394D+00 0.322D+00
 Coeff:     -0.730D-02 0.901D-01 0.201D+00 0.394D+00 0.322D+00
 Gap=     0.137 Goal=   None    Shift=    0.000
 RMSDP=2.97D-06 MaxDP=2.72D-04 DE=-1.42D-06 OVMax= 3.04D-04

 Cycle   6  Pass 1  IDiag  1:
 RMSU=  1.13D-06    CP:  1.00D+00  1.08D+00  5.56D-01  6.37D-01  4.37D-01
 E= -1375.06802097768     Delta-E=       -0.000000882999 Rises=F Damp=F
 DIIS: error= 1.12D-05 at cycle   6 NSaved=   6.
 NSaved= 6 IEnMin= 6 EnMin= -1375.06802097768     IErMin= 6 ErrMin= 1.12D-05
 ErrMax= 1.12D-05  0.00D+00 EMaxC= 1.00D-01 BMatC= 4.95D-08 BMatP= 9.64D-07
 IDIUse=1 WtCom= 1.00D+00 WtEn= 0.00D+00
 Coeff-Com: -0.593D-03 0.326D-02 0.546D-01 0.149D+00 0.207D+00 0.586D+00
 Coeff:     -0.593D-03 0.326D-02 0.546D-01 0.149D+00 0.207D+00 0.586D+00
 Gap=     0.137 Goal=   None    Shift=    0.000
 RMSDP=6.90D-07 MaxDP=4.22D-05 DE=-8.83D-07 OVMax= 6.78D-05

 Cycle   7  Pass 1  IDiag  1:
 RMSU=  4.83D-07    CP:  1.00D+00  1.08D+00  5.68D-01  6.42D-01  4.81D-01
                    CP:  6.48D-01
 E= -1375.06802101173     Delta-E=       -0.000000034055 Rises=F Damp=F
 DIIS: error= 4.99D-06 at cycle   7 NSaved=   7.
 NSaved= 7 IEnMin= 7 EnMin= -1375.06802101173     IErMin= 7 ErrMin= 4.99D-06
 ErrMax= 4.99D-06  0.00D+00 EMaxC= 1.00D-01 BMatC= 1.01D-08 BMatP= 4.95D-08
 IDIUse=1 WtCom= 1.00D+00 WtEn= 0.00D+00
 Coeff-Com:  0.848D-03-0.138D-01 0.689D-03 0.278D-01 0.811D-01 0.384D+00
 Coeff-Com:  0.519D+00
 Coeff:      0.848D-03-0.138D-01 0.689D-03 0.278D-01 0.811D-01 0.384D+00
 Coeff:      0.519D+00
 Gap=     0.137 Goal=   None    Shift=    0.000
 RMSDP=3.14D-07 MaxDP=1.25D-05 DE=-3.41D-08 OVMax= 3.31D-05

 Cycle   8  Pass 1  IDiag  1:
 RMSU=  1.43D-07    CP:  1.00D+00  1.08D+00  5.66D-01  6.52D-01  5.01D-01
                    CP:  7.26D-01  5.09D-01
 E= -1375.06802102168     Delta-E=       -0.000000009952 Rises=F Damp=F
 DIIS: error= 8.20D-07 at cycle   8 NSaved=   8.
 NSaved= 8 IEnMin= 8 EnMin= -1375.06802102168     IErMin= 8 ErrMin= 8.20D-07
 ErrMax= 8.20D-07  0.00D+00 EMaxC= 1.00D-01 BMatC= 3.11D-10 BMatP= 1.01D-08
 IDIUse=1 WtCom= 1.00D+00 WtEn= 0.00D+00
 Coeff-Com:  0.420D-03-0.666D-02-0.260D-02 0.388D-02 0.261D-01 0.143D+00
 Coeff-Com:  0.249D+00 0.587D+00
 Coeff:      0.420D-03-0.666D-02-0.260D-02 0.388D-02 0.261D-01 0.143D+00
 Coeff:      0.249D+00 0.587D+00
 Gap=     0.137 Goal=   None    Shift=    0.000
 RMSDP=7.84D-08 MaxDP=3.64D-06 DE=-9.95D-09 OVMax= 6.74D-06

 Cycle   9  Pass 1  IDiag  1:
 RMSU=  5.01D-08    CP:  1.00D+00  1.08D+00  5.66D-01  6.51D-01  5.06D-01
                    CP:  7.41D-01  5.77D-01  7.03D-01
 E= -1375.06802102202     Delta-E=       -0.000000000337 Rises=F Damp=F
 DIIS: error= 2.57D-07 at cycle   9 NSaved=   9.
 NSaved= 9 IEnMin= 9 EnMin= -1375.06802102202     IErMin= 9 ErrMin= 2.57D-07
 ErrMax= 2.57D-07  0.00D+00 EMaxC= 1.00D-01 BMatC= 2.79D-11 BMatP= 3.11D-10
 IDIUse=1 WtCom= 1.00D+00 WtEn= 0.00D+00
 Coeff-Com:  0.102D-03-0.155D-02-0.134D-02-0.162D-02 0.285D-02 0.239D-01
 Coeff-Com:  0.602D-01 0.270D+00 0.648D+00
 Coeff:      0.102D-03-0.155D-02-0.134D-02-0.162D-02 0.285D-02 0.239D-01
 Coeff:      0.602D-01 0.270D+00 0.648D+00
 Gap=     0.137 Goal=   None    Shift=    0.000
 RMSDP=2.18D-08 MaxDP=8.42D-07 DE=-3.37D-10 OVMax= 1.46D-06

 Cycle  10  Pass 1  IDiag  1:
 RMSU=  1.52D-08    CP:  1.00D+00  1.08D+00  5.67D-01  6.51D-01  5.07D-01
                    CP:  7.42D-01  5.84D-01  7.80D-01  8.37D-01
 E= -1375.06802102203     Delta-E=       -0.000000000005 Rises=F Damp=F
 DIIS: error= 1.67D-07 at cycle  10 NSaved=  10.
 NSaved=10 IEnMin=10 EnMin= -1375.06802102203     IErMin=10 ErrMin= 1.67D-07
 ErrMax= 1.67D-07  0.00D+00 EMaxC= 1.00D-01 BMatC= 1.01D-11 BMatP= 2.79D-11
 IDIUse=1 WtCom= 1.00D+00 WtEn= 0.00D+00
 Coeff-Com:  0.748D-06 0.515D-04-0.498D-03-0.175D-02-0.244D-02-0.702D-02
 Coeff-Com:  0.556D-03 0.906D-01 0.420D+00 0.500D+00
 Coeff:      0.748D-06 0.515D-04-0.498D-03-0.175D-02-0.244D-02-0.702D-02
 Coeff:      0.556D-03 0.906D-01 0.420D+00 0.500D+00
 Gap=     0.137 Goal=   None    Shift=    0.000
 RMSDP=9.29D-09 MaxDP=6.33D-07 DE=-5.00D-12 OVMax= 6.86D-07

 Error on total polarization charges =  0.01128
 SCF Done:  E(RB3LYP) =  -1375.06802102     A.U. after   10 cycles
            NFock= 10  Conv=0.93D-08     -V/T= 2.0464
 KE= 1.314129257237D+03 PE=-6.710152833111D+03 EE= 2.266901499842D+03
 Leave Link  502 at Mon Nov 17 10:52:49 2025, MaxMem=  2684354560 cpu:             790.4 elap:              26.5
 (Enter /home/programes/qq/gaussian/g16.A03/g16/l701.exe)
 ... and contract with generalized density number  0.
 Compute integral first derivatives.
 R6Disp: Adding Grimme-D3(BJ) dispersion energy 1st derivatives to the gradient.
   1 Symmetry operations used in ECPInt.
 ECPInt:  NShTT=   11175 NPrTT=  105620 LenC2=   10449 LenP2D=   51057.
 LDataN:  DoStor=T MaxTD1= 8 Len=  415
 D1PCM: PCM CHGder 1st derivatives, ID1Alg=3 FixD1E=F DoIter=F DoCFld=F I1PDM=0.
 GePol: Maximum number of non-zero 1st derivatives   =     255
 Leave Link  701 at Mon Nov 17 10:52:50 2025, MaxMem=  2684354560 cpu:              43.5 elap:               1.4
 (Enter /home/programes/qq/gaussian/g16.A03/g16/l702.exe)
 L702 exits ... SP integral derivatives will be done elsewhere.
 Leave Link  702 at Mon Nov 17 10:52:51 2025, MaxMem=  2684354560 cpu:               0.2 elap:               0.0
 (Enter /home/programes/qq/gaussian/g16.A03/g16/l703.exe)
 Integral derivatives from FoFJK, PRISM(SPDF).
 Compute integral first derivatives, UseDBF=F ICtDFT=           0.
 Calling FoFJK, ICntrl=      2127 FMM=F ISym2X=0 I1Cent= 0 IOpClX= 0 NMat=1 NMatS=1 NMatT=0.
 FoFJK:  IHMeth= 1 ICntrl=    2127 DoSepK=F KAlg= 0 I1Cent=           0 FoldK=F
 IRaf=         0 NMat=       1 IRICut=       1 DoRegI=T DoRafI=F ISym2E= 0 IDoP0=0 IntGTp=1.
 FoFCou: FMM=F IPFlag=           0 FMFlag=      100000 FMFlg1=         800
         NFxFlg=           0 DoJE=F BraDBF=F KetDBF=F FulRan=T
         wScrn=  0.000000 ICntrl=      2127 IOpCl=  0 I1Cent=           0 NGrid=           0
         NMat0=    1 NMatS0=      1 NMatT0=    0 NMatD0=    1 NMtDS0=    0 NMtDT0=    0
 Symmetry not used in FoFCou.
 Defaulting to unpruned grid for atomic number  75.
 Defaulting to unpruned grid for atomic number  75.
 Defaulting to unpruned grid for atomic number  75.
 Defaulting to unpruned grid for atomic number  75.
 Defaulting to unpruned grid for atomic number  75.
 Defaulting to unpruned grid for atomic number  75.
 Defaulting to unpruned grid for atomic number  75.
 Defaulting to unpruned grid for atomic number  75.
 Defaulting to unpruned grid for atomic number  75.
 Defaulting to unpruned grid for atomic number  75.
 Defaulting to unpruned grid for atomic number  75.
 Defaulting to unpruned grid for atomic number  75.
 Defaulting to unpruned grid for atomic number  75.
 Defaulting to unpruned grid for atomic number  75.
 Defaulting to unpruned grid for atomic number  75.
 Defaulting to unpruned grid for atomic number  75.
 Defaulting to unpruned grid for atomic number  75.
 Defaulting to unpruned grid for atomic number  75.
 Defaulting to unpruned grid for atomic number  75.
 Defaulting to unpruned grid for atomic number  75.
 Defaulting to unpruned grid for atomic number  75.
 Defaulting to unpruned grid for atomic number  75.
 Defaulting to unpruned grid for atomic number  75.
 Defaulting to unpruned grid for atomic number  75.
 Defaulting to unpruned grid for atomic number  75.
 Defaulting to unpruned grid for atomic number  75.
 Defaulting to unpruned grid for atomic number  75.
 Defaulting to unpruned grid for atomic number  75.
 Defaulting to unpruned grid for atomic number  75.
 Defaulting to unpruned grid for atomic number  75.
 Defaulting to unpruned grid for atomic number  75.
 Defaulting to unpruned grid for atomic number  75.
 Leave Link  703 at Mon Nov 17 10:52:55 2025, MaxMem=  2684354560 cpu:             148.9 elap:               4.7
 (Enter /home/programes/qq/gaussian/g16.A03/g16/l716.exe)
 Dipole        = 4.55719445D+00-2.74980465D+00 1.73258808D+00
 -------------------------------------------------------------------
 Center     Atomic                   Forces (Hartrees/Bohr)
 Number     Number              X              Y              Z
 -------------------------------------------------------------------
      1        6          -0.000594609    0.000218649   -0.000161977
      2        6           0.000143344   -0.000172959   -0.000029494
      3        6          -0.000017251    0.000129863    0.000105818
      4        6           0.000140071   -0.000111759    0.000140310
      5        6          -0.000389843   -0.000067923   -0.000164312
      6        6          -0.000479796    0.000424481   -0.000133310
      7        6           0.000211415   -0.000043751   -0.000058574
      8        6          -0.000119540   -0.000050710    0.000117867
      9        6           0.000167358   -0.000067015    0.000134827
     10        6          -0.000130152    0.000387219   -0.000164081
     11        1           0.000027567    0.000115169    0.000040440
     12        1           0.000011411    0.000019096   -0.000049955
     13        1           0.000010882    0.000037024   -0.000018900
     14        1           0.000015796    0.000005432   -0.000120132
     15        1          -0.000086569   -0.000083284    0.000040128
     16        1          -0.000012431   -0.000018935   -0.000045037
     17        1          -0.000027861   -0.000025851   -0.000018308
     18        1           0.000005843   -0.000020122   -0.000099783
     19        7          -0.000321799    0.001082652    0.000065471
     20        7          -0.001088527   -0.000205266    0.000039956
     21       75           0.002615952   -0.001923685   -0.000520005
     22        6          -0.001248867    0.001201664    0.000229659
     23        6           0.000409854   -0.000249950   -0.000818566
     24        6           0.000432124   -0.000181542   -0.000492045
     25        8           0.000641954   -0.000576396   -0.000405012
     26        8          -0.000065939    0.000101485    0.000497591
     27        8          -0.000144348   -0.000029130    0.000350856
     28       17          -0.000106039    0.000105541    0.001536566
 -------------------------------------------------------------------
 Cartesian Forces:  Max     0.002615952 RMS     0.000523295
 Leave Link  716 at Mon Nov 17 10:52:55 2025, MaxMem=  2684354560 cpu:               0.3 elap:               0.0
 (Enter /home/programes/qq/gaussian/g16.A03/g16/l103.exe)

 GradGradGradGradGradGradGradGradGradGradGradGradGradGradGradGradGradGrad
 Berny optimization.
 Using GEDIIS/GDIIS optimizer.
 FormGI is forming the generalized inverse of G from B-inverse, IUseBI=4.
 Internal  Forces:  Max     0.001743395 RMS     0.000315016
 Search for a local minimum.
 Step number  10 out of a maximum of  168
 All quantities printed in internal units (Hartrees-Bohrs-Radians)
 RMS Force = .31502D-03 SwitMx=.10000D-02 MixMth= 2
 Mixed Optimization -- En-DIIS/RFO-DIIS
 Swapping is turned off.
 Update second derivatives using D2CorX and points    5    6    7    8    9
                                                     10
 DE= -1.61D-04 DEPred=-1.51D-04 R= 1.07D+00
 TightC=F SS=  1.41D+00  RLast= 4.86D-02 DXNew= 1.8313D+00 1.4585D-01
 Trust test= 1.07D+00 RLast= 4.86D-02 DXMaxT set to 1.09D+00
 ITU=  1  1  1  0  0  1  1 -1  1  0
     Eigenvalues ---    0.00445   0.00909   0.01057   0.01501   0.01633
     Eigenvalues ---    0.01783   0.01836   0.01871   0.01947   0.01991
     Eigenvalues ---    0.02020   0.02037   0.02154   0.02175   0.02247
     Eigenvalues ---    0.02250   0.02313   0.02424   0.03270   0.04271
     Eigenvalues ---    0.04646   0.04691   0.04693   0.04840   0.06512
     Eigenvalues ---    0.06790   0.08202   0.10811   0.11843   0.12411
     Eigenvalues ---    0.13936   0.15145   0.15740   0.15997   0.16000
     Eigenvalues ---    0.16000   0.16000   0.16000   0.16003   0.16024
     Eigenvalues ---    0.17282   0.21418   0.21999   0.22013   0.22177
     Eigenvalues ---    0.22611   0.24078   0.24129   0.24486   0.24850
     Eigenvalues ---    0.24962   0.25285   0.29554   0.34508   0.34513
     Eigenvalues ---    0.34526   0.34551   0.34581   0.34586   0.34735
     Eigenvalues ---    0.34747   0.35922   0.36131   0.38084   0.38701
     Eigenvalues ---    0.39151   0.39464   0.47077   0.47423   0.49477
     Eigenvalues ---    0.50160   0.50771   0.51500   0.57997   1.07226
     Eigenvalues ---    1.17809   1.19576   1.35008
 En-DIIS/RFO-DIIS/Sim-DIIS IScMMF=       -3 using points:    10    9
 RFO step:  Lambda=-9.78874915D-05.
 NNeg= 0 NGDIIS= 2 SimSw=  2.50D-01 Rises=F DC= -1.61D-04 SmlDif=  1.00D-05
 NRisDI= 0 DoIntr=F SqrtH=F CThrHd= 10.0 CDAdj=  3.0
 RMS Error=  0.3517889596D-02 NUsed= 2 OKEnD=T EnDIS=F
 InvSVX:  RCond= 5.86D-04 Info=           0 Equed=N FErr=  2.94D-15 BErr=  4.41D-17
 DidBck=F Rises=F RFO-DIIS coefs:    1.25995   -0.25995
 Iteration  1 RMS(Cart)=  0.00771732 RMS(Int)=  0.00005911
 Iteration  2 RMS(Cart)=  0.00006220 RMS(Int)=  0.00000131
 Iteration  3 RMS(Cart)=  0.00000001 RMS(Int)=  0.00000131
 ITry= 1 IFail=0 DXMaxC= 3.88D-02 DCOld= 1.00D+10 DXMaxT= 1.09D+00 DXLimC= 3.00D+00 Rises=F
 Variable       Old X    -DE/DX   Delta X   Delta X   Delta X     New X
                                 (Linear)    (Quad)   (Total)
    R1        2.64370   0.00022   0.00009   0.00087   0.00096   2.64466
    R2        2.80019  -0.00004  -0.00005  -0.00149  -0.00154   2.79865
    R3        2.56748  -0.00041   0.00008  -0.00007   0.00000   2.56748
    R4        2.63167   0.00011   0.00002  -0.00040  -0.00037   2.63130
    R5        2.05552  -0.00009   0.00000  -0.00015  -0.00014   2.05538
    R6        2.63536  -0.00008   0.00029   0.00019   0.00049   2.63584
    R7        2.06065   0.00002   0.00005   0.00004   0.00009   2.06074
    R8        2.62880   0.00008   0.00018  -0.00000   0.00017   2.62897
    R9        2.05875   0.00004   0.00005   0.00007   0.00012   2.05887
   R10        2.05860  -0.00002   0.00007   0.00009   0.00016   2.05875
   R11        2.54206  -0.00021  -0.00012  -0.00028  -0.00040   2.54165
   R12        2.64348   0.00023   0.00008   0.00087   0.00095   2.64443
   R13        2.56736  -0.00043   0.00008  -0.00010  -0.00002   2.56734
   R14        2.63168   0.00011   0.00002  -0.00041  -0.00038   2.63130
   R15        2.05515  -0.00008  -0.00000  -0.00014  -0.00015   2.05501
   R16        2.63538  -0.00009   0.00030   0.00019   0.00048   2.63586
   R17        2.06068   0.00002   0.00005   0.00005   0.00010   2.06078
   R18        2.62878   0.00007   0.00018  -0.00002   0.00016   2.62894
   R19        2.05872   0.00004   0.00004   0.00006   0.00010   2.05883
   R20        2.05868  -0.00002   0.00007   0.00009   0.00017   2.05885
   R21        2.54211  -0.00021  -0.00011  -0.00027  -0.00038   2.54173
   R22        4.33765  -0.00174   0.00084  -0.00020   0.00065   4.33830
   R23        4.33895  -0.00170   0.00092   0.00010   0.00102   4.33997
   R24        3.59410  -0.00014   0.00023   0.00086   0.00109   3.59519
   R25        3.60692  -0.00029  -0.00058  -0.00082  -0.00140   3.60552
   R26        3.60714  -0.00027  -0.00053  -0.00072  -0.00125   3.60590
   R27        4.93615  -0.00155  -0.00212  -0.00808  -0.01020   4.92595
   R28        2.19887  -0.00044  -0.00017  -0.00039  -0.00056   2.19831
   R29        2.19486   0.00001  -0.00019  -0.00007  -0.00027   2.19459
   R30        2.19488  -0.00002  -0.00020  -0.00009  -0.00030   2.19458
    A1        2.14143   0.00017  -0.00030   0.00020  -0.00010   2.14132
    A2        2.10784  -0.00009   0.00002  -0.00058  -0.00056   2.10728
    A3        2.03389  -0.00008   0.00028   0.00038   0.00066   2.03455
    A4        2.08868  -0.00006  -0.00008   0.00024   0.00015   2.08883
    A5        2.10368   0.00012  -0.00003  -0.00014  -0.00017   2.10350
    A6        2.09083  -0.00005   0.00011  -0.00009   0.00002   2.09085
    A7        2.07779  -0.00000  -0.00001   0.00001   0.00000   2.07779
    A8        2.09626   0.00002   0.00001   0.00037   0.00038   2.09664
    A9        2.10913  -0.00001  -0.00000  -0.00037  -0.00038   2.10875
   A10        2.06778  -0.00003   0.00007  -0.00009  -0.00002   2.06775
   A11        2.12463   0.00002  -0.00008  -0.00032  -0.00040   2.12423
   A12        2.09078   0.00001   0.00002   0.00041   0.00042   2.09120
   A13        2.11460   0.00001   0.00021   0.00027   0.00049   2.11509
   A14        2.14108  -0.00006  -0.00019   0.00006  -0.00014   2.14095
   A15        2.02749   0.00005  -0.00002  -0.00033  -0.00035   2.02715
   A16        2.14122   0.00018  -0.00030   0.00022  -0.00007   2.14115
   A17        2.03420  -0.00008   0.00028   0.00036   0.00064   2.03485
   A18        2.10774  -0.00009   0.00001  -0.00059  -0.00058   2.10716
   A19        2.08893  -0.00006  -0.00007   0.00025   0.00017   2.08910
   A20        2.10286   0.00012  -0.00003  -0.00011  -0.00014   2.10272
   A21        2.09139  -0.00006   0.00010  -0.00013  -0.00003   2.09136
   A22        2.07762  -0.00001  -0.00001   0.00000  -0.00000   2.07761
   A23        2.09633   0.00002   0.00001   0.00039   0.00039   2.09672
   A24        2.10923  -0.00001  -0.00000  -0.00038  -0.00038   2.10885
   A25        2.06776  -0.00002   0.00007  -0.00008  -0.00001   2.06774
   A26        2.12441   0.00002  -0.00008  -0.00031  -0.00039   2.12401
   A27        2.09102   0.00001   0.00001   0.00039   0.00041   2.09142
   A28        2.11468   0.00001   0.00023   0.00027   0.00051   2.11519
   A29        2.14112  -0.00006  -0.00020   0.00005  -0.00015   2.14096
   A30        2.02738   0.00005  -0.00003  -0.00032  -0.00035   2.02703
   A31        2.08316   0.00025   0.00020   0.00043   0.00062   2.08378
   A32        2.04881  -0.00008  -0.00024  -0.00025  -0.00049   2.04832
   A33        2.15005  -0.00017   0.00010  -0.00033  -0.00022   2.14982
   A34        2.08315   0.00024   0.00019   0.00041   0.00060   2.08375
   A35        2.04863  -0.00009  -0.00026  -0.00035  -0.00061   2.04803
   A36        2.15043  -0.00015   0.00013  -0.00018  -0.00005   2.15039
   A37        1.25515   0.00035   0.00008   0.00005   0.00013   1.25528
   A38        1.62039   0.00033  -0.00032   0.00058   0.00026   1.62065
   A39        1.73278  -0.00032   0.00029  -0.00111  -0.00082   1.73197
   A40        1.44831  -0.00013  -0.00079  -0.00074  -0.00153   1.44678
   A41        1.61986   0.00026  -0.00006  -0.00028  -0.00034   1.61952
   A42        1.73367  -0.00030   0.00053  -0.00069  -0.00016   1.73351
   A43        1.44982  -0.00016  -0.00051  -0.00162  -0.00213   1.44769
   A44        1.58660  -0.00009  -0.00005  -0.00080  -0.00085   1.58575
   A45        1.58753  -0.00024   0.00061  -0.00242  -0.00181   1.58572
   A46        1.55749   0.00026  -0.00091   0.00195   0.00104   1.55852
   A47        1.61817   0.00002   0.00049   0.00267   0.00316   1.62133
   A48        1.61844   0.00004   0.00050   0.00224   0.00274   1.62118
   A49        2.98882   0.00005   0.00061  -0.00064  -0.00003   2.98878
   A50        2.98793   0.00002   0.00037  -0.00105  -0.00069   2.98724
   A51        3.06871   0.00020  -0.00111  -0.00016  -0.00127   3.06744
   A52        3.14277  -0.00065  -0.00313  -0.00597  -0.00910   3.13368
   A53        3.10602   0.00029  -0.00486   0.01077   0.00591   3.11193
   A54        3.10589   0.00034  -0.00507   0.01212   0.00705   3.11294
   A55        3.08035  -0.00006  -0.00032   0.00184   0.00152   3.08187
   A56        3.20119   0.00012  -0.00004  -0.00125  -0.00130   3.19989
   A57        3.19397  -0.00001   0.00025   0.00197   0.00221   3.19619
   A58        3.13494   0.00164  -0.00178   0.02470   0.02292   3.15786
   A59        3.15794  -0.00105  -0.00475  -0.01212  -0.01687   3.14107
   A60        3.12706   0.00075   0.00565   0.00568   0.01133   3.13840
    D1       -3.13157  -0.00004   0.00006  -0.00071  -0.00065  -3.13222
    D2        0.01078  -0.00004   0.00005  -0.00120  -0.00115   0.00963
    D3        0.00215  -0.00002  -0.00027  -0.00171  -0.00198   0.00017
    D4       -3.13869  -0.00002  -0.00028  -0.00221  -0.00248  -3.14117
    D5       -0.00375  -0.00001  -0.00009  -0.00070  -0.00079  -0.00454
    D6        3.13073   0.00001  -0.00041  -0.00151  -0.00192   3.12881
    D7       -3.13778  -0.00003   0.00022   0.00027   0.00049  -3.13728
    D8       -0.00330  -0.00000  -0.00009  -0.00054  -0.00064  -0.00394
    D9       -0.00891   0.00010   0.00013   0.00556   0.00570  -0.00322
   D10        3.08699   0.00008   0.00155   0.00291   0.00445   3.09144
   D11        3.12527   0.00012  -0.00017   0.00461   0.00444   3.12971
   D12       -0.06201   0.00010   0.00124   0.00196   0.00320  -0.05881
   D13        0.00469  -0.00004   0.00014  -0.00181  -0.00167   0.00302
   D14       -3.14068   0.00002   0.00051   0.00162   0.00213  -3.13855
   D15       -3.13766  -0.00004   0.00015  -0.00132  -0.00117  -3.13883
   D16        0.00016   0.00003   0.00052   0.00211   0.00262   0.00279
   D17       -0.00472   0.00002   0.00010   0.00148   0.00158  -0.00314
   D18        3.13675   0.00006   0.00033   0.00369   0.00402   3.14077
   D19        3.14067  -0.00004  -0.00027  -0.00198  -0.00224   3.13843
   D20       -0.00104  -0.00000  -0.00004   0.00023   0.00019  -0.00085
   D21       -3.14112   0.00004  -0.00034   0.00159   0.00124  -3.13988
   D22       -0.00212   0.00006  -0.00024   0.00246   0.00222   0.00010
   D23        0.00059  -0.00000  -0.00056  -0.00058  -0.00115  -0.00056
   D24        3.13959   0.00003  -0.00046   0.00029  -0.00017   3.13942
   D25        0.00899  -0.00013   0.00012  -0.00600  -0.00588   0.00311
   D26       -3.08410  -0.00011  -0.00136  -0.00318  -0.00455  -3.08865
   D27       -3.13507  -0.00010   0.00022  -0.00517  -0.00495  -3.14002
   D28        0.05502  -0.00008  -0.00127  -0.00235  -0.00361   0.05141
   D29        3.13183   0.00004  -0.00009   0.00063   0.00054   3.13237
   D30       -0.01065   0.00004  -0.00007   0.00115   0.00107  -0.00958
   D31       -0.00235   0.00002   0.00024   0.00147   0.00171  -0.00064
   D32        3.13835   0.00002   0.00025   0.00199   0.00224   3.14059
   D33       -3.12486  -0.00012   0.00024  -0.00437  -0.00413  -3.12899
   D34        0.06702  -0.00009  -0.00110  -0.00114  -0.00223   0.06479
   D35        0.00976  -0.00010  -0.00007  -0.00516  -0.00523   0.00452
   D36       -3.08154  -0.00007  -0.00141  -0.00193  -0.00334  -3.08488
   D37       -0.00511   0.00004  -0.00014   0.00187   0.00172  -0.00339
   D38        3.14030  -0.00002  -0.00050  -0.00165  -0.00216   3.13814
   D39        3.13736   0.00004  -0.00016   0.00135   0.00119   3.13855
   D40       -0.00041  -0.00003  -0.00052  -0.00216  -0.00268  -0.00310
   D41        0.00514  -0.00002  -0.00010  -0.00151  -0.00161   0.00353
   D42       -3.13634  -0.00006  -0.00031  -0.00377  -0.00407  -3.14041
   D43       -3.14030   0.00004   0.00026   0.00204   0.00230  -3.13800
   D44        0.00140   0.00000   0.00005  -0.00022  -0.00017   0.00124
   D45        3.14093  -0.00003   0.00036  -0.00151  -0.00115   3.13978
   D46        0.00235  -0.00006   0.00028  -0.00227  -0.00199   0.00036
   D47       -0.00077   0.00001   0.00056   0.00070   0.00127   0.00050
   D48       -3.13935  -0.00002   0.00048  -0.00006   0.00043  -3.13893
   D49       -0.00985   0.00012  -0.00019   0.00563   0.00544  -0.00442
   D50        3.07838   0.00009   0.00122   0.00220   0.00342   3.08179
   D51        3.13461   0.00009  -0.00027   0.00490   0.00463   3.13924
   D52       -0.06035   0.00007   0.00114   0.00147   0.00261  -0.05773
   D53       -0.07223   0.00009   0.00127   0.00157   0.00285  -0.06938
   D54       -1.67848  -0.00008   0.00123   0.00205   0.00328  -1.67519
   D55        3.00977  -0.00003   0.00132   0.00282   0.00414   3.01391
   D56        1.41074  -0.00007   0.00098   0.00008   0.00107   1.41180
   D57        3.12174   0.00011  -0.00012   0.00492   0.00479   3.12654
   D58        1.51550  -0.00007  -0.00017   0.00540   0.00523   1.52073
   D59       -0.07944  -0.00002  -0.00008   0.00617   0.00609  -0.07335
   D60       -1.67847  -0.00006  -0.00041   0.00343   0.00302  -1.67546
   D61        0.07040  -0.00010  -0.00133  -0.00187  -0.00320   0.06720
   D62        1.67738   0.00018  -0.00164  -0.00117  -0.00281   1.67457
   D63       -3.00995  -0.00003  -0.00101  -0.00371  -0.00472  -3.01467
   D64       -1.41051   0.00002  -0.00064  -0.00160  -0.00224  -1.41275
   D65       -3.11880  -0.00011   0.00015  -0.00462  -0.00448  -3.12327
   D66       -1.51181   0.00017  -0.00017  -0.00392  -0.00409  -1.51590
   D67        0.08404  -0.00004   0.00047  -0.00646  -0.00599   0.07804
   D68        1.68348   0.00001   0.00083  -0.00435  -0.00352   1.67996
         Item               Value     Threshold  Converged?
 Maximum Force            0.001743     0.000450     NO 
 RMS     Force            0.000315     0.000300     NO 
 Maximum Displacement     0.038830     0.001800     NO 
 RMS     Displacement     0.007720     0.001200     NO 
 Predicted change in Energy=-4.904151D-05
 Lowest energy point so far.  Saving SCF results.
 GradGradGradGradGradGradGradGradGradGradGradGradGradGradGradGradGradGrad

 Leave Link  103 at Mon Nov 17 10:52:55 2025, MaxMem=  2684354560 cpu:               1.1 elap:               0.1
 (Enter /home/programes/qq/gaussian/g16.A03/g16/l202.exe)
                          Input orientation:                          
 ---------------------------------------------------------------------
 Center     Atomic      Atomic             Coordinates (Angstroms)
 Number     Number       Type             X           Y           Z
 ---------------------------------------------------------------------
      1          6           0       -2.288564    0.298696    0.030907
      2          6           0       -0.892898    0.339322   -0.064193
      3          6           0       -0.235766    1.566738   -0.042547
      4          6           0       -0.987573    2.735432    0.077823
      5          6           0       -2.371621    2.627383    0.168104
      6          6           0       -3.054008   -0.969129    0.026320
      7          6           0       -2.439862   -2.222131   -0.078788
      8          6           0       -3.219489   -3.375755   -0.065662
      9          6           0       -4.603771   -3.256051    0.056840
     10          6           0       -5.152994   -1.981827    0.157233
     11          1           0       -0.318433   -0.579775   -0.155020
     12          1           0        0.851299    1.607045   -0.119023
     13          1           0       -0.518331    3.718460    0.100060
     14          1           0       -3.001555    3.511290    0.261820
     15          1           0       -1.359156   -2.300698   -0.170864
     16          1           0       -2.748613   -4.355718   -0.150363
     17          1           0       -5.254687   -4.129562    0.072998
     18          1           0       -6.228563   -1.836927    0.252910
     19          7           0       -4.403770   -0.864926    0.140413
     20          7           0       -3.010529    1.444083    0.144024
     21         75           0       -5.298353    1.248746    0.190187
     22          6           0       -5.355891    1.282599    2.091508
     23          6           0       -7.150965    0.799003    0.113589
     24          6           0       -5.767951    3.096671    0.114581
     25          8           0       -5.374814    1.291803    3.254615
     26          8           0       -8.269971    0.491901    0.066678
     27          8           0       -6.021432    4.228878    0.064324
     28         17           0       -5.014739    1.079459   -2.395504
 ---------------------------------------------------------------------
                    Distance matrix (angstroms):
                    1          2          3          4          5
     1  C    0.000000
     2  C    1.399492   0.000000
     3  C    2.413981   1.392423   0.000000
     4  C    2.762690   2.402181   1.394829   0.000000
     5  C    2.334202   2.734192   2.393996   1.391191   0.000000
     6  C    1.480982   2.527970   3.791814   4.242237   3.663421
     7  C    2.527745   2.992383   4.383479   5.168278   4.856274
     8  C    3.791772   4.383472   5.773333   6.507583   6.067222
     9  C    4.242297   5.168359   6.507583   6.998228   6.293621
    10  C    3.663564   4.856458   6.067236   6.293613   5.383397
    11  H    2.165109   1.087658   2.151047   3.390068   3.821760
    12  H    3.404849   2.156931   1.090497   2.166439   3.392748
    13  H    3.851401   3.403800   2.174876   1.089508   2.151688
    14  H    3.298853   3.822839   3.394630   2.166087   1.089446
    15  H    2.767916   2.682999   4.029334   5.055939   5.042416
    16  H    4.680606   5.049208   6.434401   7.310112   7.000517
    17  H    5.330022   6.246195   7.592810   8.083095   7.346933
    18  H    4.487067   5.771130   6.898250   6.957378   5.900277
    19  N    2.416631   3.717298   4.828947   4.963557   4.040621
    20  N    1.358653   2.397543   2.783732   2.400899   1.344984
    21  Re   3.160189   4.505530   5.077901   4.561325   3.235258
    22  C    3.823956   5.045307   5.554332   5.024724   3.796550
    23  C    4.888772   6.277445   6.959438   6.460529   5.117429
    24  C    4.465624   5.603666   5.741990   4.794148   3.429017
    25  O    4.572034   5.657674   6.112011   5.605707   4.508824
    26  O    5.984633   7.379811   8.106519   7.620162   6.273843
    27  O    5.420494   6.437937   6.369643   5.250743   3.987065
    28  Cl   3.732169   4.792951   5.349058   5.007759   3.994274
                    6          7          8          9         10
     6  C    0.000000
     7  C    1.399370   0.000000
     8  C    2.414061   1.392421   0.000000
     9  C    2.762736   2.402059   1.394838   0.000000
    10  C    2.334189   2.733960   2.393984   1.391176   0.000000
    11  H    2.769088   2.683953   4.030088   5.056823   5.043434
    12  H    4.680729   5.049352   6.434474   7.310158   7.000561
    13  H    5.329970   6.246190   7.592865   8.083099   7.346879
    14  H    4.486910   5.770930   6.898269   6.957443   5.900335
    15  H    2.164366   1.087463   2.151198   3.389996   3.821326
    16  H    3.404918   2.156998   1.090517   2.166521   3.392790
    17  H    3.851429   3.403611   2.174737   1.089484   2.151791
    18  H    3.298821   3.822651   3.394703   2.166173   1.089495
    19  N    1.358578   2.397288   2.783748   2.400930   1.345023
    20  N    2.416472   3.717046   4.828920   4.963595   4.040691
    21  Re   3.159574   4.504476   5.076725   4.559980   3.234009
    22  C    3.825434   5.049410   5.560383   5.030397   3.799877
    23  C    4.463067   5.599889   5.737355   4.789037   3.424443
    24  C    4.889172   6.277198   6.958408   6.458770   5.115772
    25  O    4.573822   5.663325   6.120111   5.612775   4.512165
    26  O    5.416872   6.432519   6.362676   5.242925   3.980336
    27  O    5.985510   7.379949   8.105444   7.618003   6.271816
    28  Cl   3.729129   4.785150   5.338540   4.997952   3.988364
                   11         12         13         14         15
    11  H    0.000000
    12  H    2.480273   0.000000
    13  H    4.310435   2.526254   0.000000
    14  H    4.910164   4.314589   2.497096   0.000000
    15  H    2.011201   4.489906   6.083638   6.055072   0.000000
    16  H    4.490383   6.965263   8.380287   7.881858   2.480749
    17  H    6.084372   8.380250   9.166529   7.968367   4.310380
    18  H    6.056111   7.881861   7.968215   6.246366   4.909765
    19  N    4.105919   5.813235   6.008801   4.596978   3.380534
    20  N    3.381244   3.874205   3.374281   2.070580   4.104823
    21  Re   5.316226   6.167837   5.381099   3.224829   5.314714
    22  C    5.821624   6.597039   5.770725   3.722596   5.825138
    23  C    6.975433   8.046320   7.246740   4.959443   6.575265
    24  C    6.579223   6.788816   5.286335   2.801166   6.974994
    25  O    6.379295   7.088391   6.278957   4.417612   6.384785
    26  O    8.026493   9.191061   8.396411   6.075442   7.457506
    27  O    7.462939   7.358129   5.526837   3.110241   8.026674
    28  Cl   5.461512   6.314358   5.780125   4.126509   5.453234
                   16         17         18         19         20
    16  H    0.000000
    17  H    2.526152   0.000000
    18  H    4.314741   2.497394   0.000000
    19  N    3.874239   3.374382   2.070583   0.000000
    20  N    5.813170   6.008894   4.597024   2.696786   0.000000
    21  Re   6.166617   5.379761   3.223446   2.295727   2.296612
    22  C    6.604127   5.777206   3.724707   3.053714   3.052784
    23  C    6.783917   5.280935   2.796134   3.211924   4.190497
    24  C    8.045166   7.244557   4.956984   4.189976   3.214854
    25  O    7.098260   6.287154   4.419058   3.910582   3.910090
    26  O    7.350640   5.518143   3.102494   4.098039   5.345499
    27  O    9.189817   8.393539   6.072270   5.345040   4.102070
    28  Cl   6.302153   5.769313   4.122229   3.253427   3.255612
                   21         22         23         24         25
    21  Re   0.000000
    22  C    1.902493   0.000000
    23  C    1.907958   2.714465   0.000000
    24  C    1.908158   2.714570   2.681792   0.000000
    25  O    3.065684   1.163297   3.641924   3.643064   0.000000
    26  O    3.068970   3.635519   1.161329   3.612094   4.380036
    27  O    3.069182   3.637717   3.611414   1.161324   4.384344
    28  Cl   2.606701   4.504545   3.307214   3.307113   5.665561
                   26         27         28
    26  O    0.000000
    27  O    4.361299   0.000000
    28  Cl   4.123603   4.121047   0.000000
 Symmetry turned off by external request.
 Stoichiometry    C13H8ClN2O3Re
 Framework group  C1[X(C13H8ClN2O3Re)]
 Deg. of freedom    78
 Full point group                 C1      NOp   1
 Rotational constants (GHZ):           0.3385872           0.2666384           0.1988632
 Leave Link  202 at Mon Nov 17 10:52:56 2025, MaxMem=  2684354560 cpu:               0.1 elap:               0.0
 (Enter /home/programes/qq/gaussian/g16.A03/g16/l301.exe)
 Basis read from rwf:  (5D, 7F)
 Pseudo-potential data read from rwf file.
   339 basis functions,   774 primitive gaussians,   363 cartesian basis functions
    78 alpha electrons       78 beta electrons
       nuclear repulsion energy      1754.6373003496 Hartrees.
 IExCor=  402 DFT=T Ex+Corr=B3LYP ExCW=0 ScaHFX=  0.200000
 ScaDFX=  0.800000  0.720000  1.000000  0.810000 ScalE2=  1.000000  1.000000
 IRadAn=      5 IRanWt=     -1 IRanGd=            0 ICorTp=0 IEmpDi=141
 NAtoms=   28 NActive=   28 NUniq=   28 SFac= 1.00D+00 NAtFMM=   60 NAOKFM=F Big=F
 Integral buffers will be    131072 words long.
 Raffenetti 2 integral format.
 Two-electron integral symmetry is turned off.
 R6Disp:  Grimme-D3(BJ) Dispersion energy=       -0.0842139013 Hartrees.
 Nuclear repulsion after empirical dispersion term =     1754.5530864483 Hartrees.
 No density basis found on file   724.
 ------------------------------------------------------------------------------
 Polarizable Continuum Model (PCM)
 =================================
 Model                : PCM.
 Atomic radii         : UFF (Universal Force Field).
 Polarization charges : Total charges.
 Charge compensation  : None.
 Solution method      : On-the-fly selection.
 Cavity type          : Scaled VdW (van der Waals Surface) (Alpha=1.100).
 Cavity algorithm     : GePol (No added spheres)
                        Default sphere list used, NSphG=   28.
                        Lebedev-Laikov grids with approx.  5.0 points / Ang**2.
                        Smoothing algorithm: York/Karplus (Gamma=1.0000).
                        Polarization charges: spherical gaussians, with
                                              point-specific exponents (IZeta= 3).
                        Self-potential: point-specific (ISelfS= 7).
                        Self-field    : sphere-specific E.n sum rule (ISelfD= 2).
 1st derivatives      : Analytical E(r).r(x)/FMM algorithm (CHGder, D1EAlg=3).
                        Cavity 1st derivative terms included.
 Solvent              : n,n-DiMethylFormamide, Eps=  37.219000 Eps(inf)=   2.046330
 ------------------------------------------------------------------------------
 GePol: Number of generator spheres                  =      28
 GePol: Total number of spheres                      =      28
 GePol: Number of exposed spheres                    =      27 ( 96.43%)
 GePol: Number of points                             =    2580
 GePol: Average weight of points                     =       0.13
 GePol: Minimum weight of points                     =   0.12D-08
 GePol: Maximum weight of points                     =    0.21616
 GePol: Number of points with low weight             =     117
 GePol: Fraction of low-weight points (<1% of avg)   =       4.53%
 GePol: Cavity surface area                          =    342.349 Ang**2
 GePol: Cavity volume                                =    378.122 Ang**3
 Leave Link  301 at Mon Nov 17 10:52:56 2025, MaxMem=  2684354560 cpu:               1.2 elap:               0.0
 (Enter /home/programes/qq/gaussian/g16.A03/g16/l302.exe)
 NPDir=0 NMtPBC=     1 NCelOv=     1 NCel=       1 NClECP=     1 NCelD=      1
         NCelK=      1 NCelE2=     1 NClLst=     1 CellRange=     0.0.
 One-electron integrals computed using PRISM.
   1 Symmetry operations used in ECPInt.
 ECPInt:  NShTT=   11175 NPrTT=  105620 LenC2=   10451 LenP2D=   51065.
 LDataN:  DoStor=T MaxTD1= 7 Len=  274
 NBasis=   339 RedAO= T EigKep=  3.67D-04  NBF=   339
 NBsUse=   339 1.00D-06 EigRej= -1.00D+00 NBFU=   339
 Precomputing XC quadrature grid using
 IXCGrd= 4 IRadAn=           5 IRanWt=          -1 IRanGd=           0 AccXCQ= 0.00D+00.
 Defaulting to unpruned grid for atomic number  75.
 Generated NRdTot=       0 NPtTot=           0 NUsed=           0 NTot=          32
 NSgBfM=   363   363   363   363   363 MxSgAt=    28 MxSgA2=    28.
 Leave Link  302 at Mon Nov 17 10:52:56 2025, MaxMem=  2684354560 cpu:              12.1 elap:               0.4
 (Enter /home/programes/qq/gaussian/g16.A03/g16/l303.exe)
 DipDrv:  MaxL=1.
 Leave Link  303 at Mon Nov 17 10:52:56 2025, MaxMem=  2684354560 cpu:               1.1 elap:               0.1
 (Enter /home/programes/qq/gaussian/g16.A03/g16/l401.exe)
 Initial guess from the checkpoint file:  "re-bpy-co3-cl.chk"
 B after Tr=     0.000101    0.000496   -0.005986
         Rot=    1.000000   -0.000153   -0.000279   -0.000023 Ang=  -0.04 deg.
 Guess basis will be translated and rotated to current coordinates.
 JPrj=2 DoOrth=T DoCkMO=T.
 Generating alternative initial guess.
 ExpMin= 2.80D-02 ExpMax= 1.28D+05 ExpMxC= 1.24D+03 IAcc=3 IRadAn=         5 AccDes= 0.00D+00
 Harris functional with IExCor=  402 and IRadAn=       5 diagonalized for initial guess.
 HarFok:  IExCor=  402 AccDes= 0.00D+00 IRadAn=         5 IDoV= 1 UseB2=F ITyADJ=14
 ICtDFT=  3500011 ScaDFX=  1.000000  1.000000  1.000000  1.000000
 Defaulting to unpruned grid for atomic number  75.
 FoFCou: FMM=F IPFlag=           0 FMFlag=      100000 FMFlg1=           0
         NFxFlg=           0 DoJE=T BraDBF=F KetDBF=T FulRan=T
         wScrn=  0.000000 ICntrl=       500 IOpCl=  0 I1Cent=   200000004 NGrid=           0
         NMat0=    1 NMatS0=      1 NMatT0=    0 NMatD0=    1 NMtDS0=    0 NMtDT0=    0
 Symmetry not used in FoFCou.
 Harris En= -1374.75568453733    
 Leave Link  401 at Mon Nov 17 10:52:57 2025, MaxMem=  2684354560 cpu:              32.2 elap:               1.1
 (Enter /home/programes/qq/gaussian/g16.A03/g16/l502.exe)
 Two-electron integral symmetry not used.
 Closed shell SCF:
 Using DIIS extrapolation, IDIIS=  1040.
 NGot=  2684354560 LenX=  2684076439 LenY=  2683944229
 Requested convergence on RMS density matrix=1.00D-08 within 128 cycles.
 Requested convergence on MAX density matrix=1.00D-06.
 Requested convergence on             energy=1.00D-06.
 No special actions if energy rises.
 Fock matrices will be formed incrementally for  20 cycles.

 Cycle   1  Pass 1  IDiag  1:
 FoFJK:  IHMeth= 1 ICntrl=       0 DoSepK=F KAlg= 0 I1Cent=           0 FoldK=F
 IRaf= 870000000 NMat=       1 IRICut=       1 DoRegI=T DoRafI=F ISym2E= 0 IDoP0=0 IntGTp=1.
 FoFCou: FMM=F IPFlag=           0 FMFlag=      100000 FMFlg1=           0
         NFxFlg=           0 DoJE=F BraDBF=F KetDBF=F FulRan=T
         wScrn=  0.000000 ICntrl=         0 IOpCl=  0 I1Cent=           0 NGrid=           0
         NMat0=    1 NMatS0=      1 NMatT0=    0 NMatD0=    1 NMtDS0=    0 NMtDT0=    0
 Symmetry not used in FoFCou.
 Defaulting to unpruned grid for atomic number  75.
 Defaulting to unpruned grid for atomic number  75.
 Defaulting to unpruned grid for atomic number  75.
 Defaulting to unpruned grid for atomic number  75.
 Defaulting to unpruned grid for atomic number  75.
 Defaulting to unpruned grid for atomic number  75.
 Defaulting to unpruned grid for atomic number  75.
 Defaulting to unpruned grid for atomic number  75.
 Defaulting to unpruned grid for atomic number  75.
 Defaulting to unpruned grid for atomic number  75.
 Defaulting to unpruned grid for atomic number  75.
 Defaulting to unpruned grid for atomic number  75.
 Defaulting to unpruned grid for atomic number  75.
 Defaulting to unpruned grid for atomic number  75.
 Defaulting to unpruned grid for atomic number  75.
 Defaulting to unpruned grid for atomic number  75.
 Defaulting to unpruned grid for atomic number  75.
 Defaulting to unpruned grid for atomic number  75.
 Defaulting to unpruned grid for atomic number  75.
 Defaulting to unpruned grid for atomic number  75.
 Defaulting to unpruned grid for atomic number  75.
 Defaulting to unpruned grid for atomic number  75.
 Defaulting to unpruned grid for atomic number  75.
 Defaulting to unpruned grid for atomic number  75.
 Defaulting to unpruned grid for atomic number  75.
 Defaulting to unpruned grid for atomic number  75.
 Defaulting to unpruned grid for atomic number  75.
 Defaulting to unpruned grid for atomic number  75.
 Defaulting to unpruned grid for atomic number  75.
 Defaulting to unpruned grid for atomic number  75.
 Defaulting to unpruned grid for atomic number  75.
 Defaulting to unpruned grid for atomic number  75.
 Inv3:  Mode=1 IEnd=    19969200.
 Iteration    1 A*A^-1 deviation from unit magnitude is 6.77D-15 for    962.
 Iteration    1 A*A^-1 deviation from orthogonality  is 2.99D-15 for   1023    965.
 Iteration    1 A^-1*A deviation from unit magnitude is 6.00D-15 for    761.
 Iteration    1 A^-1*A deviation from orthogonality  is 1.50D-15 for   2529   1174.
 E= -1375.06722092008    
 DIIS: error= 1.36D-03 at cycle   1 NSaved=   1.
 NSaved= 1 IEnMin= 1 EnMin= -1375.06722092008     IErMin= 1 ErrMin= 1.36D-03
 ErrMax= 1.36D-03  0.00D+00 EMaxC= 1.00D-01 BMatC= 4.99D-04 BMatP= 4.99D-04
 IDIUse=3 WtCom= 9.86D-01 WtEn= 1.36D-02
 Coeff-Com:  0.100D+01
 Coeff-En:   0.100D+01
 Coeff:      0.100D+01
 Gap=     0.612 Goal=   None    Shift=    0.000
 GapD=    0.612 DampG=2.000 DampE=1.000 DampFc=2.0000 IDamp=-1.
 RMSDP=9.97D-05 MaxDP=5.59D-03              OVMax= 6.53D-03

 Cycle   2  Pass 1  IDiag  1:
 RMSU=  9.97D-05    CP:  1.00D+00
 E= -1375.06802525739     Delta-E=       -0.000804337318 Rises=F Damp=F
 DIIS: error= 1.43D-04 at cycle   2 NSaved=   2.
 NSaved= 2 IEnMin= 2 EnMin= -1375.06802525739     IErMin= 2 ErrMin= 1.43D-04
 ErrMax= 1.43D-04  0.00D+00 EMaxC= 1.00D-01 BMatC= 7.64D-06 BMatP= 4.99D-04
 IDIUse=3 WtCom= 9.99D-01 WtEn= 1.43D-03
 Coeff-Com: -0.746D-01 0.107D+01
 Coeff-En:   0.000D+00 0.100D+01
 Coeff:     -0.745D-01 0.107D+01
 Gap=     0.137 Goal=   None    Shift=    0.000
 RMSDP=1.76D-05 MaxDP=5.94D-04 DE=-8.04D-04 OVMax= 1.04D-03

 Cycle   3  Pass 1  IDiag  1:
 RMSU=  1.62D-05    CP:  1.00D+00  1.07D+00
 E= -1375.06802934881     Delta-E=       -0.000004091412 Rises=F Damp=F
 DIIS: error= 1.39D-04 at cycle   3 NSaved=   3.
 NSaved= 3 IEnMin= 3 EnMin= -1375.06802934881     IErMin= 3 ErrMin= 1.39D-04
 ErrMax= 1.39D-04  0.00D+00 EMaxC= 1.00D-01 BMatC= 8.71D-06 BMatP= 7.64D-06
 IDIUse=3 WtCom= 4.59D-01 WtEn= 5.41D-01
 Coeff-Com: -0.481D-01 0.620D+00 0.428D+00
 Coeff-En:   0.000D+00 0.292D+00 0.708D+00
 Coeff:     -0.221D-01 0.443D+00 0.580D+00
 Gap=     0.137 Goal=   None    Shift=    0.000
 RMSDP=1.53D-05 MaxDP=8.72D-04 DE=-4.09D-06 OVMax= 1.24D-03

 Cycle   4  Pass 1  IDiag  1:
 RMSU=  9.11D-06    CP:  1.00D+00  1.09D+00  2.52D-01
 E= -1375.06803007416     Delta-E=       -0.000000725355 Rises=F Damp=F
 DIIS: error= 1.37D-04 at cycle   4 NSaved=   4.
 NSaved= 4 IEnMin= 4 EnMin= -1375.06803007416     IErMin= 4 ErrMin= 1.37D-04
 ErrMax= 1.37D-04  0.00D+00 EMaxC= 1.00D-01 BMatC= 7.83D-06 BMatP= 7.64D-06
 IDIUse=3 WtCom= 9.99D-01 WtEn= 1.37D-03
 Coeff-Com: -0.199D-01 0.243D+00 0.436D+00 0.341D+00
 Coeff-En:   0.000D+00 0.000D+00 0.482D+00 0.518D+00
 Coeff:     -0.199D-01 0.243D+00 0.436D+00 0.341D+00
 Gap=     0.137 Goal=   None    Shift=    0.000
 RMSDP=8.67D-06 MaxDP=6.26D-04 DE=-7.25D-07 OVMax= 8.50D-04

 Cycle   5  Pass 1  IDiag  1:
 RMSU=  4.04D-06    CP:  1.00D+00  1.09D+00  5.37D-01  3.32D-01
 E= -1375.06803649837     Delta-E=       -0.000006424211 Rises=F Damp=F
 DIIS: error= 5.19D-05 at cycle   5 NSaved=   5.
 NSaved= 5 IEnMin= 5 EnMin= -1375.06803649837     IErMin= 5 ErrMin= 5.19D-05
 ErrMax= 5.19D-05  0.00D+00 EMaxC= 1.00D-01 BMatC= 8.75D-07 BMatP= 7.64D-06
 IDIUse=1 WtCom= 1.00D+00 WtEn= 0.00D+00
 Coeff-Com: -0.650D-02 0.729D-01 0.285D+00 0.296D+00 0.353D+00
 Coeff:     -0.650D-02 0.729D-01 0.285D+00 0.296D+00 0.353D+00
 Gap=     0.137 Goal=   None    Shift=    0.000
 RMSDP=2.76D-06 MaxDP=2.51D-04 DE=-6.42D-06 OVMax= 2.84D-04

 Cycle   6  Pass 1  IDiag  1:
 RMSU=  1.01D-06    CP:  1.00D+00  1.09D+00  5.66D-01  4.81D-01  4.75D-01
 E= -1375.06803729951     Delta-E=       -0.000000801138 Rises=F Damp=F
 DIIS: error= 9.01D-06 at cycle   6 NSaved=   6.
 NSaved= 6 IEnMin= 6 EnMin= -1375.06803729951     IErMin= 6 ErrMin= 9.01D-06
 ErrMax= 9.01D-06  0.00D+00 EMaxC= 1.00D-01 BMatC= 3.88D-08 BMatP= 8.75D-07
 IDIUse=1 WtCom= 1.00D+00 WtEn= 0.00D+00
 Coeff-Com: -0.272D-03-0.338D-02 0.929D-01 0.119D+00 0.215D+00 0.577D+00
 Coeff:     -0.272D-03-0.338D-02 0.929D-01 0.119D+00 0.215D+00 0.577D+00
 Gap=     0.137 Goal=   None    Shift=    0.000
 RMSDP=6.45D-07 MaxDP=3.99D-05 DE=-8.01D-07 OVMax= 5.93D-05

 Cycle   7  Pass 1  IDiag  1:
 RMSU=  4.29D-07    CP:  1.00D+00  1.09D+00  5.80D-01  4.88D-01  5.15D-01
                    CP:  6.19D-01
 E= -1375.06803732605     Delta-E=       -0.000000026537 Rises=F Damp=F
 DIIS: error= 4.37D-06 at cycle   7 NSaved=   7.
 NSaved= 7 IEnMin= 7 EnMin= -1375.06803732605     IErMin= 7 ErrMin= 4.37D-06
 ErrMax= 4.37D-06  0.00D+00 EMaxC= 1.00D-01 BMatC= 8.80D-09 BMatP= 3.88D-08
 IDIUse=1 WtCom= 1.00D+00 WtEn= 0.00D+00
 Coeff-Com:  0.968D-03-0.159D-01 0.904D-02 0.239D-01 0.780D-01 0.384D+00
 Coeff-Com:  0.520D+00
 Coeff:      0.968D-03-0.159D-01 0.904D-02 0.239D-01 0.780D-01 0.384D+00
 Coeff:      0.520D+00
 Gap=     0.137 Goal=   None    Shift=    0.000
 RMSDP=2.91D-07 MaxDP=1.12D-05 DE=-2.65D-08 OVMax= 3.28D-05

 Cycle   8  Pass 1  IDiag  1:
 RMSU=  1.43D-07    CP:  1.00D+00  1.09D+00  5.77D-01  4.96D-01  5.34D-01
                    CP:  7.04D-01  5.21D-01
 E= -1375.06803733449     Delta-E=       -0.000000008440 Rises=F Damp=F
 DIIS: error= 7.81D-07 at cycle   8 NSaved=   8.
 NSaved= 8 IEnMin= 8 EnMin= -1375.06803733449     IErMin= 8 ErrMin= 7.81D-07
 ErrMax= 7.81D-07  0.00D+00 EMaxC= 1.00D-01 BMatC= 2.43D-10 BMatP= 8.80D-09
 IDIUse=1 WtCom= 1.00D+00 WtEn= 0.00D+00
 Coeff-Com:  0.406D-03-0.637D-02-0.221D-02 0.147D-02 0.171D-01 0.120D+00
 Coeff-Com:  0.229D+00 0.641D+00
 Coeff:      0.406D-03-0.637D-02-0.221D-02 0.147D-02 0.171D-01 0.120D+00
 Coeff:      0.229D+00 0.641D+00
 Gap=     0.137 Goal=   None    Shift=    0.000
 RMSDP=6.69D-08 MaxDP=3.45D-06 DE=-8.44D-09 OVMax= 5.88D-06

 Cycle   9  Pass 1  IDiag  1:
 RMSU=  4.13D-08    CP:  1.00D+00  1.09D+00  5.78D-01  4.96D-01  5.38D-01
                    CP:  7.28D-01  6.08D-01  8.50D-01
 E= -1375.06803733477     Delta-E=       -0.000000000281 Rises=F Damp=F
 DIIS: error= 3.54D-07 at cycle   9 NSaved=   9.
 NSaved= 9 IEnMin= 9 EnMin= -1375.06803733477     IErMin= 9 ErrMin= 3.54D-07
 ErrMax= 3.54D-07  0.00D+00 EMaxC= 1.00D-01 BMatC= 2.76D-11 BMatP= 2.43D-10
 IDIUse=1 WtCom= 1.00D+00 WtEn= 0.00D+00
 Coeff-Com:  0.121D-03-0.179D-02-0.204D-02-0.159D-02 0.163D-02 0.273D-01
 Coeff-Com:  0.727D-01 0.315D+00 0.589D+00
 Coeff:      0.121D-03-0.179D-02-0.204D-02-0.159D-02 0.163D-02 0.273D-01
 Coeff:      0.727D-01 0.315D+00 0.589D+00
 Gap=     0.137 Goal=   None    Shift=    0.000
 RMSDP=1.99D-08 MaxDP=1.15D-06 DE=-2.81D-10 OVMax= 1.38D-06

 Cycle  10  Pass 1  IDiag  1:
 RMSU=  1.50D-08    CP:  1.00D+00  1.09D+00  5.78D-01  4.96D-01  5.39D-01
                    CP:  7.30D-01  6.15D-01  9.02D-01  8.23D-01
 E= -1375.06803733479     Delta-E=       -0.000000000028 Rises=F Damp=F
 DIIS: error= 2.01D-07 at cycle  10 NSaved=  10.
 NSaved=10 IEnMin=10 EnMin= -1375.06803733479     IErMin=10 ErrMin= 2.01D-07
 ErrMax= 2.01D-07  0.00D+00 EMaxC= 1.00D-01 BMatC= 1.15D-11 BMatP= 2.76D-11
 IDIUse=1 WtCom= 1.00D+00 WtEn= 0.00D+00
 Coeff-Com: -0.140D-04 0.324D-03-0.996D-03-0.162D-02-0.334D-02-0.104D-01
 Coeff-Com: -0.410D-02 0.744D-01 0.417D+00 0.529D+00
 Coeff:     -0.140D-04 0.324D-03-0.996D-03-0.162D-02-0.334D-02-0.104D-01
 Coeff:     -0.410D-02 0.744D-01 0.417D+00 0.529D+00
 Gap=     0.137 Goal=   None    Shift=    0.000
 RMSDP=9.61D-09 MaxDP=6.47D-07 DE=-2.77D-11 OVMax= 1.04D-06

 Error on total polarization charges =  0.01127
 SCF Done:  E(RB3LYP) =  -1375.06803733     A.U. after   10 cycles
            NFock= 10  Conv=0.96D-08     -V/T= 2.0464
 KE= 1.314135256155D+03 PE=-6.711158543757D+03 EE= 2.267402163819D+03
 Leave Link  502 at Mon Nov 17 10:53:24 2025, MaxMem=  2684354560 cpu:             804.5 elap:              26.9
 (Enter /home/programes/qq/gaussian/g16.A03/g16/l701.exe)
 ... and contract with generalized density number  0.
 Compute integral first derivatives.
 R6Disp: Adding Grimme-D3(BJ) dispersion energy 1st derivatives to the gradient.
   1 Symmetry operations used in ECPInt.
 ECPInt:  NShTT=   11175 NPrTT=  105620 LenC2=   10451 LenP2D=   51065.
 LDataN:  DoStor=T MaxTD1= 8 Len=  415
 D1PCM: PCM CHGder 1st derivatives, ID1Alg=3 FixD1E=F DoIter=F DoCFld=F I1PDM=0.
 GePol: Maximum number of non-zero 1st derivatives   =     254
 Leave Link  701 at Mon Nov 17 10:53:26 2025, MaxMem=  2684354560 cpu:              45.2 elap:               1.5
 (Enter /home/programes/qq/gaussian/g16.A03/g16/l702.exe)
 L702 exits ... SP integral derivatives will be done elsewhere.
 Leave Link  702 at Mon Nov 17 10:53:26 2025, MaxMem=  2684354560 cpu:               0.2 elap:               0.0
 (Enter /home/programes/qq/gaussian/g16.A03/g16/l703.exe)
 Integral derivatives from FoFJK, PRISM(SPDF).
 Compute integral first derivatives, UseDBF=F ICtDFT=           0.
 Calling FoFJK, ICntrl=      2127 FMM=F ISym2X=0 I1Cent= 0 IOpClX= 0 NMat=1 NMatS=1 NMatT=0.
 FoFJK:  IHMeth= 1 ICntrl=    2127 DoSepK=F KAlg= 0 I1Cent=           0 FoldK=F
 IRaf=         0 NMat=       1 IRICut=       1 DoRegI=T DoRafI=F ISym2E= 0 IDoP0=0 IntGTp=1.
 FoFCou: FMM=F IPFlag=           0 FMFlag=      100000 FMFlg1=         800
         NFxFlg=           0 DoJE=F BraDBF=F KetDBF=F FulRan=T
         wScrn=  0.000000 ICntrl=      2127 IOpCl=  0 I1Cent=           0 NGrid=           0
         NMat0=    1 NMatS0=      1 NMatT0=    0 NMatD0=    1 NMtDS0=    0 NMtDT0=    0
 Symmetry not used in FoFCou.
 Defaulting to unpruned grid for atomic number  75.
 Defaulting to unpruned grid for atomic number  75.
 Defaulting to unpruned grid for atomic number  75.
 Defaulting to unpruned grid for atomic number  75.
 Defaulting to unpruned grid for atomic number  75.
 Defaulting to unpruned grid for atomic number  75.
 Defaulting to unpruned grid for atomic number  75.
 Defaulting to unpruned grid for atomic number  75.
 Defaulting to unpruned grid for atomic number  75.
 Defaulting to unpruned grid for atomic number  75.
 Defaulting to unpruned grid for atomic number  75.
 Defaulting to unpruned grid for atomic number  75.
 Defaulting to unpruned grid for atomic number  75.
 Defaulting to unpruned grid for atomic number  75.
 Defaulting to unpruned grid for atomic number  75.
 Defaulting to unpruned grid for atomic number  75.
 Defaulting to unpruned grid for atomic number  75.
 Defaulting to unpruned grid for atomic number  75.
 Defaulting to unpruned grid for atomic number  75.
 Defaulting to unpruned grid for atomic number  75.
 Defaulting to unpruned grid for atomic number  75.
 Defaulting to unpruned grid for atomic number  75.
 Defaulting to unpruned grid for atomic number  75.
 Defaulting to unpruned grid for atomic number  75.
 Defaulting to unpruned grid for atomic number  75.
 Defaulting to unpruned grid for atomic number  75.
 Defaulting to unpruned grid for atomic number  75.
 Defaulting to unpruned grid for atomic number  75.
 Defaulting to unpruned grid for atomic number  75.
 Defaulting to unpruned grid for atomic number  75.
 Defaulting to unpruned grid for atomic number  75.
 Defaulting to unpruned grid for atomic number  75.
 Leave Link  703 at Mon Nov 17 10:53:31 2025, MaxMem=  2684354560 cpu:             148.7 elap:               4.7
 (Enter /home/programes/qq/gaussian/g16.A03/g16/l716.exe)
 Dipole        = 4.54914330D+00-2.74239891D+00 1.71015342D+00
 -------------------------------------------------------------------
 Center     Atomic                   Forces (Hartrees/Bohr)
 Number     Number              X              Y              Z
 -------------------------------------------------------------------
      1        6           0.000498126    0.000533409    0.000175400
      2        6          -0.000217346   -0.000278475    0.000000670
      3        6          -0.000105661    0.000423525   -0.000100133
      4        6           0.000180027   -0.000193501   -0.000091757
      5        6           0.000112256    0.000197397    0.000096997
      6        6          -0.000240609   -0.000697261    0.000186161
      7        6           0.000148388    0.000321062    0.000002803
      8        6          -0.000423570   -0.000109648   -0.000103729
      9        6           0.000253425   -0.000065066   -0.000075009
     10        6          -0.000123165   -0.000190774    0.000078669
     11        1           0.000054010    0.000080821   -0.000023611
     12        1          -0.000012188   -0.000023621    0.000084413
     13        1          -0.000036634    0.000010794    0.000048031
     14        1           0.000129219   -0.000002518   -0.000027047
     15        1          -0.000041053   -0.000086795   -0.000023029
     16        1           0.000014363    0.000023817    0.000088388
     17        1          -0.000027547    0.000022277    0.000054382
     18        1           0.000067892   -0.000122535   -0.000015050
     19        7           0.000756677   -0.001130126   -0.000181124
     20        7           0.001396559   -0.000149371   -0.000157407
     21       75          -0.001757905    0.001234480    0.000491718
     22        6           0.000665413   -0.000629681   -0.000484800
     23        6          -0.000006551    0.000552359    0.000842032
     24        6          -0.000557839   -0.000261086    0.000375311
     25        8          -0.000391917    0.000336409    0.000432738
     26        8          -0.000643836   -0.000433006   -0.000462171
     27        8           0.000119702    0.000755358   -0.000256332
     28       17           0.000189765   -0.000118242   -0.000956512
 -------------------------------------------------------------------
 Cartesian Forces:  Max     0.001757905 RMS     0.000441549
 Leave Link  716 at Mon Nov 17 10:53:31 2025, MaxMem=  2684354560 cpu:               0.3 elap:               0.0
 (Enter /home/programes/qq/gaussian/g16.A03/g16/l103.exe)

 GradGradGradGradGradGradGradGradGradGradGradGradGradGradGradGradGradGrad
 Berny optimization.
 Using GEDIIS/GDIIS optimizer.
 FormGI is forming the generalized inverse of G from B-inverse, IUseBI=4.
 Internal  Forces:  Max     0.001642794 RMS     0.000281585
 Search for a local minimum.
 Step number  11 out of a maximum of  168
 All quantities printed in internal units (Hartrees-Bohrs-Radians)
 RMS Force = .28158D-03 SwitMx=.10000D-02 MixMth= 2
 Mixed Optimization -- En-DIIS/RFO-DIIS
 Swapping is turned off.
 Update second derivatives using D2CorX and points    5    6    7    8    9
                                                     10   11
 DE= -1.63D-05 DEPred=-4.90D-05 R= 3.33D-01
 Trust test= 3.33D-01 RLast= 4.43D-02 DXMaxT set to 1.09D+00
 ITU=  0  1  1  1  0  0  1  1 -1  1  0
     Eigenvalues ---    0.00420   0.00909   0.01053   0.01502   0.01635
     Eigenvalues ---    0.01783   0.01837   0.01871   0.01947   0.01996
     Eigenvalues ---    0.02020   0.02044   0.02154   0.02198   0.02249
     Eigenvalues ---    0.02252   0.02313   0.02437   0.03044   0.04267
     Eigenvalues ---    0.04651   0.04693   0.04703   0.04831   0.06731
     Eigenvalues ---    0.07778   0.09259   0.10716   0.12298   0.12509
     Eigenvalues ---    0.13932   0.14836   0.15742   0.15996   0.16000
     Eigenvalues ---    0.16000   0.16000   0.16000   0.16004   0.16031
     Eigenvalues ---    0.16902   0.20635   0.21884   0.22000   0.22040
     Eigenvalues ---    0.22611   0.23965   0.24102   0.24486   0.24849
     Eigenvalues ---    0.24964   0.25306   0.29828   0.34513   0.34514
     Eigenvalues ---    0.34526   0.34554   0.34584   0.34596   0.34735
     Eigenvalues ---    0.34744   0.35924   0.36054   0.38086   0.38701
     Eigenvalues ---    0.39152   0.40152   0.47065   0.47424   0.49422
     Eigenvalues ---    0.50160   0.50806   0.51500   0.59228   1.05105
     Eigenvalues ---    1.17671   1.19576   1.40567
 En-DIIS/RFO-DIIS/Sim-DIIS IScMMF=       -3 using points:    11   10    9
 RFO step:  Lambda=-3.40563273D-05.
 NNeg= 0 NGDIIS= 3 SimSw=  2.50D-01 Rises=F DC= -1.63D-05 SmlDif=  1.00D-05
 NRisDI= 0 DoIntr=F SqrtH=F CThrHd= 10.0 CDAdj=  3.0
 RMS Error=  0.1693385279D-02 NUsed= 3 OKEnD=T EnDIS=F
 InvSVX:  RCond= 1.51D-04 Info=           0 Equed=N FErr=  3.13D-15 BErr=  4.65D-17
 DidBck=T Rises=F RFO-DIIS coefs:    0.72775    0.46704   -0.19479
 Iteration  1 RMS(Cart)=  0.00193253 RMS(Int)=  0.00000723
 Iteration  2 RMS(Cart)=  0.00000827 RMS(Int)=  0.00000063
 Iteration  3 RMS(Cart)=  0.00000000 RMS(Int)=  0.00000063
 ITry= 1 IFail=0 DXMaxC= 8.94D-03 DCOld= 1.00D+10 DXMaxT= 1.09D+00 DXLimC= 3.00D+00 Rises=F
 Variable       Old X    -DE/DX   Delta X   Delta X   Delta X     New X
                                 (Linear)    (Quad)   (Total)
    R1        2.64466  -0.00007  -0.00019   0.00001  -0.00019   2.64447
    R2        2.79865   0.00068   0.00038   0.00114   0.00152   2.80017
    R3        2.56748   0.00009   0.00006  -0.00034  -0.00028   2.56720
    R4        2.63130   0.00019   0.00012   0.00036   0.00048   2.63178
    R5        2.05538  -0.00004   0.00004  -0.00014  -0.00010   2.05528
    R6        2.63584  -0.00030   0.00009  -0.00065  -0.00057   2.63528
    R7        2.06074  -0.00002   0.00001  -0.00004  -0.00003   2.06071
    R8        2.62897  -0.00006   0.00009  -0.00008   0.00001   2.62898
    R9        2.05887  -0.00001   0.00000  -0.00000  -0.00000   2.05887
   R10        2.05875  -0.00008   0.00001  -0.00018  -0.00018   2.05858
   R11        2.54165   0.00030   0.00002   0.00020   0.00022   2.54188
   R12        2.64443  -0.00007  -0.00020   0.00003  -0.00017   2.64425
   R13        2.56734   0.00010   0.00006  -0.00033  -0.00027   2.56707
   R14        2.63130   0.00019   0.00012   0.00036   0.00048   2.63178
   R15        2.05501  -0.00003   0.00004  -0.00013  -0.00009   2.05492
   R16        2.63586  -0.00030   0.00009  -0.00066  -0.00057   2.63529
   R17        2.06078  -0.00002   0.00001  -0.00005  -0.00004   2.06074
   R18        2.62894  -0.00005   0.00009  -0.00008   0.00001   2.62895
   R19        2.05883  -0.00000   0.00000   0.00001   0.00001   2.05884
   R20        2.05885  -0.00008   0.00001  -0.00020  -0.00019   2.05866
   R21        2.54173   0.00031   0.00002   0.00020   0.00022   2.54195
   R22        4.33830   0.00163   0.00046   0.00068   0.00114   4.33943
   R23        4.33997   0.00164   0.00041   0.00073   0.00114   4.34111
   R24        3.59519  -0.00006  -0.00012  -0.00042  -0.00054   3.59465
   R25        3.60552   0.00059  -0.00005   0.00102   0.00097   3.60648
   R26        3.60590   0.00058  -0.00006   0.00098   0.00092   3.60682
   R27        4.92595   0.00097   0.00119  -0.00110   0.00009   4.92605
   R28        2.19831   0.00045   0.00002   0.00022   0.00025   2.19856
   R29        2.19459   0.00075  -0.00007   0.00050   0.00043   2.19502
   R30        2.19458   0.00072  -0.00007   0.00049   0.00042   2.19500
    A1        2.14132  -0.00004  -0.00020   0.00033   0.00013   2.14146
    A2        2.10728  -0.00003   0.00017  -0.00013   0.00004   2.10731
    A3        2.03455   0.00007   0.00003  -0.00019  -0.00016   2.03439
    A4        2.08883   0.00002  -0.00010  -0.00006  -0.00016   2.08868
    A5        2.10350   0.00008   0.00003   0.00063   0.00065   2.10416
    A6        2.09085  -0.00010   0.00008  -0.00057  -0.00049   2.09035
    A7        2.07779   0.00007  -0.00001   0.00017   0.00016   2.07796
    A8        2.09664  -0.00005  -0.00010  -0.00018  -0.00028   2.09636
    A9        2.10875  -0.00001   0.00010   0.00001   0.00011   2.10886
   A10        2.06775  -0.00000   0.00006  -0.00012  -0.00006   2.06769
   A11        2.12423   0.00004   0.00005   0.00029   0.00034   2.12457
   A12        2.09120  -0.00004  -0.00010  -0.00017  -0.00028   2.09093
   A13        2.11509  -0.00013   0.00003  -0.00054  -0.00051   2.11458
   A14        2.14095   0.00004  -0.00011   0.00008  -0.00002   2.14092
   A15        2.02715   0.00009   0.00008   0.00046   0.00053   2.02768
   A16        2.14115  -0.00004  -0.00020   0.00031   0.00011   2.14126
   A17        2.03485   0.00007   0.00004  -0.00019  -0.00015   2.03469
   A18        2.10716  -0.00002   0.00017  -0.00012   0.00005   2.10721
   A19        2.08910   0.00001  -0.00010  -0.00006  -0.00016   2.08894
   A20        2.10272   0.00009   0.00002   0.00064   0.00066   2.10338
   A21        2.09136  -0.00010   0.00008  -0.00058  -0.00049   2.09087
   A22        2.07761   0.00007  -0.00000   0.00016   0.00016   2.07777
   A23        2.09672  -0.00005  -0.00010  -0.00018  -0.00027   2.09645
   A24        2.10885  -0.00001   0.00010   0.00001   0.00012   2.10896
   A25        2.06774   0.00000   0.00005  -0.00011  -0.00006   2.06769
   A26        2.12401   0.00004   0.00005   0.00028   0.00033   2.12434
   A27        2.09142  -0.00004  -0.00010  -0.00017  -0.00027   2.09115
   A28        2.11519  -0.00014   0.00004  -0.00059  -0.00056   2.11463
   A29        2.14096   0.00005  -0.00011   0.00010  -0.00001   2.14096
   A30        2.02703   0.00009   0.00007   0.00049   0.00056   2.02760
   A31        2.08378  -0.00011  -0.00002   0.00003   0.00001   2.08379
   A32        2.04832   0.00006  -0.00004   0.00047   0.00043   2.04875
   A33        2.14982   0.00005   0.00014  -0.00044  -0.00030   2.14953
   A34        2.08375  -0.00010  -0.00002   0.00006   0.00004   2.08379
   A35        2.04803   0.00005  -0.00003   0.00046   0.00043   2.04845
   A36        2.15039   0.00005   0.00011  -0.00045  -0.00034   2.15005
   A37        1.25528  -0.00024   0.00002  -0.00025  -0.00022   1.25505
   A38        1.62065  -0.00008  -0.00031   0.00021  -0.00009   1.62056
   A39        1.73197   0.00023   0.00044  -0.00007   0.00037   1.73233
   A40        1.44678  -0.00006  -0.00018   0.00030   0.00012   1.44690
   A41        1.61952  -0.00005   0.00005  -0.00022  -0.00017   1.61935
   A42        1.73351   0.00025   0.00044  -0.00014   0.00030   1.73381
   A43        1.44769  -0.00005   0.00020   0.00013   0.00033   1.44801
   A44        1.58575  -0.00008   0.00019  -0.00029  -0.00010   1.58564
   A45        1.58572   0.00005   0.00095  -0.00069   0.00026   1.58598
   A46        1.55852  -0.00022  -0.00097   0.00053  -0.00044   1.55809
   A47        1.62133   0.00016  -0.00050   0.00045  -0.00005   1.62129
   A48        1.62118   0.00009  -0.00037   0.00012  -0.00025   1.62093
   A49        2.98878   0.00000   0.00047  -0.00039   0.00008   2.98886
   A50        2.98724  -0.00002   0.00046  -0.00032   0.00014   2.98739
   A51        3.06744  -0.00014  -0.00049   0.00051   0.00002   3.06746
   A52        3.13368   0.00042   0.00013   0.00358   0.00372   3.13739
   A53        3.11193  -0.00056  -0.00525   0.00060  -0.00465   3.10727
   A54        3.11294  -0.00063  -0.00572   0.00044  -0.00528   3.10766
   A55        3.08187   0.00002  -0.00065   0.00046  -0.00020   3.08167
   A56        3.19989  -0.00011   0.00032  -0.00058  -0.00026   3.19963
   A57        3.19619   0.00005  -0.00042   0.00025  -0.00017   3.19601
   A58        3.15786  -0.00096  -0.00757   0.00125  -0.00633   3.15153
   A59        3.14107   0.00088   0.00104   0.00737   0.00840   3.14947
   A60        3.13840  -0.00044   0.00115  -0.00541  -0.00426   3.13413
    D1       -3.13222   0.00001   0.00022  -0.00070  -0.00048  -3.13271
    D2        0.00963   0.00000   0.00035  -0.00085  -0.00050   0.00912
    D3        0.00017   0.00003   0.00034   0.00037   0.00071   0.00088
    D4       -3.14117   0.00002   0.00047   0.00022   0.00069  -3.14048
    D5       -0.00454  -0.00000   0.00015  -0.00015   0.00000  -0.00453
    D6        3.12881   0.00001   0.00022   0.00103   0.00125   3.13006
    D7       -3.13728  -0.00002   0.00003  -0.00118  -0.00115  -3.13843
    D8       -0.00394  -0.00000   0.00010  -0.00001   0.00010  -0.00384
    D9       -0.00322  -0.00004  -0.00145  -0.00005  -0.00150  -0.00472
   D10        3.09144  -0.00002  -0.00005   0.00149   0.00144   3.09288
   D11        3.12971  -0.00003  -0.00134   0.00097  -0.00037   3.12934
   D12       -0.05881  -0.00000   0.00006   0.00250   0.00256  -0.05625
   D13        0.00302   0.00000   0.00056  -0.00030   0.00026   0.00328
   D14       -3.13855  -0.00005  -0.00020  -0.00117  -0.00137  -3.13992
   D15       -3.13883   0.00001   0.00043  -0.00015   0.00028  -3.13855
   D16        0.00279  -0.00004  -0.00033  -0.00102  -0.00135   0.00144
   D17       -0.00314  -0.00002  -0.00035  -0.00007  -0.00043  -0.00357
   D18        3.14077  -0.00004  -0.00085  -0.00050  -0.00135   3.13942
   D19        3.13843   0.00004   0.00041   0.00080   0.00121   3.13964
   D20       -0.00085   0.00001  -0.00008   0.00037   0.00029  -0.00056
   D21       -3.13988   0.00001  -0.00060   0.00042  -0.00018  -3.14006
   D22        0.00010  -0.00000  -0.00079   0.00041  -0.00037  -0.00028
   D23       -0.00056   0.00003  -0.00011   0.00084   0.00073   0.00017
   D24        3.13942   0.00002  -0.00030   0.00083   0.00053   3.13995
   D25        0.00311   0.00003   0.00169  -0.00035   0.00134   0.00445
   D26       -3.08865   0.00001   0.00022  -0.00201  -0.00179  -3.09044
   D27       -3.14002   0.00002   0.00151  -0.00036   0.00115  -3.13887
   D28        0.05141  -0.00000   0.00003  -0.00202  -0.00198   0.04942
   D29        3.13237  -0.00001  -0.00021   0.00086   0.00064   3.13301
   D30       -0.00958  -0.00001  -0.00035   0.00098   0.00063  -0.00895
   D31       -0.00064  -0.00003  -0.00029  -0.00037  -0.00065  -0.00130
   D32        3.14059  -0.00002  -0.00042  -0.00024  -0.00066   3.13993
   D33       -3.12899   0.00004   0.00131  -0.00112   0.00019  -3.12881
   D34        0.06479   0.00001  -0.00021  -0.00249  -0.00271   0.06208
   D35        0.00452   0.00005   0.00137   0.00003   0.00141   0.00593
   D36       -3.08488   0.00002  -0.00015  -0.00134  -0.00149  -3.08637
   D37       -0.00339  -0.00001  -0.00058   0.00026  -0.00031  -0.00371
   D38        3.13814   0.00005   0.00021   0.00116   0.00137   3.13951
   D39        3.13855  -0.00002  -0.00044   0.00014  -0.00030   3.13825
   D40       -0.00310   0.00004   0.00034   0.00104   0.00138  -0.00172
   D41        0.00353   0.00002   0.00036   0.00015   0.00051   0.00404
   D42       -3.14041   0.00004   0.00088   0.00052   0.00140  -3.13902
   D43       -3.13800  -0.00004  -0.00043  -0.00075  -0.00118  -3.13919
   D44        0.00124  -0.00001   0.00009  -0.00038  -0.00030   0.00094
   D45        3.13978  -0.00001   0.00058  -0.00034   0.00024   3.14002
   D46        0.00036   0.00000   0.00075  -0.00050   0.00026   0.00061
   D47        0.00050  -0.00003   0.00008  -0.00071  -0.00063  -0.00014
   D48       -3.13893  -0.00002   0.00025  -0.00086  -0.00062  -3.13955
   D49       -0.00442  -0.00004  -0.00162   0.00040  -0.00122  -0.00564
   D50        3.08179  -0.00001  -0.00002   0.00189   0.00188   3.08367
   D51        3.13924  -0.00003  -0.00146   0.00026  -0.00121   3.13803
   D52       -0.05773   0.00000   0.00014   0.00175   0.00189  -0.05584
   D53       -0.06938   0.00000   0.00018   0.00276   0.00294  -0.06644
   D54       -1.67519   0.00003   0.00003   0.00307   0.00310  -1.67210
   D55        3.01391   0.00012  -0.00014   0.00334   0.00320   3.01711
   D56        1.41180  -0.00001   0.00045   0.00283   0.00327   1.41508
   D57        3.12654  -0.00002  -0.00140   0.00131  -0.00009   3.12645
   D58        1.52073   0.00001  -0.00155   0.00162   0.00007   1.52080
   D59       -0.07335   0.00009  -0.00172   0.00189   0.00017  -0.07318
   D60       -1.67546  -0.00004  -0.00113   0.00138   0.00024  -1.67521
   D61        0.06720  -0.00000  -0.00012  -0.00276  -0.00289   0.06431
   D62        1.67457  -0.00008  -0.00046  -0.00248  -0.00294   1.67163
   D63       -3.01467  -0.00003   0.00053  -0.00322  -0.00269  -3.01736
   D64       -1.41275   0.00002   0.00013  -0.00306  -0.00293  -1.41568
   D65       -3.12327   0.00002   0.00133  -0.00115   0.00018  -3.12309
   D66       -1.51590  -0.00006   0.00099  -0.00086   0.00013  -1.51577
   D67        0.07804  -0.00001   0.00198  -0.00160   0.00038   0.07842
   D68        1.67996   0.00004   0.00158  -0.00144   0.00014   1.68010
         Item               Value     Threshold  Converged?
 Maximum Force            0.001643     0.000450     NO 
 RMS     Force            0.000282     0.000300     YES
 Maximum Displacement     0.008940     0.001800     NO 
 RMS     Displacement     0.001931     0.001200     NO 
 Predicted change in Energy=-1.680182D-05
 Lowest energy point so far.  Saving SCF results.
 GradGradGradGradGradGradGradGradGradGradGradGradGradGradGradGradGradGrad

 Leave Link  103 at Mon Nov 17 10:53:31 2025, MaxMem=  2684354560 cpu:               5.0 elap:               0.2
 (Enter /home/programes/qq/gaussian/g16.A03/g16/l202.exe)
                          Input orientation:                          
 ---------------------------------------------------------------------
 Center     Atomic      Atomic             Coordinates (Angstroms)
 Number     Number       Type             X           Y           Z
 ---------------------------------------------------------------------
      1          6           0       -2.288027    0.298822    0.030988
      2          6           0       -0.892453    0.339636   -0.063917
      3          6           0       -0.235619    1.567511   -0.042921
      4          6           0       -0.987463    2.735880    0.076886
      5          6           0       -2.371517    2.627573    0.166801
      6          6           0       -3.053868   -0.969703    0.026493
      7          6           0       -2.439866   -2.222698   -0.078321
      8          6           0       -3.219996   -3.376297   -0.065855
      9          6           0       -4.604016   -3.256446    0.056040
     10          6           0       -5.153072   -1.982105    0.155936
     11          1           0       -0.317235   -0.578993   -0.154077
     12          1           0        0.851530    1.607765   -0.117977
     13          1           0       -0.518639    3.719091    0.099866
     14          1           0       -3.001142    3.511616    0.260237
     15          1           0       -1.359207   -2.302114   -0.169678
     16          1           0       -2.748993   -4.356304   -0.149060
     17          1           0       -5.255250   -4.129712    0.072978
     18          1           0       -6.228622   -1.837633    0.251349
     19          7           0       -4.403611   -0.865225    0.138881
     20          7           0       -3.010236    1.444042    0.142435
     21         75           0       -5.298620    1.248852    0.191469
     22          6           0       -5.353311    1.281181    2.092614
     23          6           0       -7.151952    0.799481    0.117443
     24          6           0       -5.768809    3.097199    0.117519
     25          8           0       -5.377478    1.293604    3.255724
     26          8           0       -8.269552    0.487755    0.062597
     27          8           0       -6.016702    4.230690    0.063385
     28         17           0       -5.019275    1.081540   -2.394865
 ---------------------------------------------------------------------
                    Distance matrix (angstroms):
                    1          2          3          4          5
     1  C    0.000000
     2  C    1.399393   0.000000
     3  C    2.414003   1.392677   0.000000
     4  C    2.762757   2.402257   1.394529   0.000000
     5  C    2.334201   2.734139   2.393695   1.391194   0.000000
     6  C    1.481785   2.528687   3.792729   4.243102   3.664107
     7  C    2.528452   2.993368   4.384706   5.169242   4.856943
     8  C    3.792684   4.384703   5.774796   6.508709   6.067990
     9  C    4.243155   5.169322   6.508705   6.999133   6.294283
    10  C    3.664250   4.857129   6.068004   6.294278   5.383893
    11  H    2.165371   1.087605   2.150929   3.389829   3.821663
    12  H    3.404752   2.156976   1.090480   2.166220   3.392512
    13  H    3.851456   3.404009   2.174807   1.089508   2.151522
    14  H    3.298959   3.822709   3.394049   2.165707   1.089353
    15  H    2.769087   2.684751   4.031441   5.057704   5.043789
    16  H    4.681358   5.050331   6.435830   7.311164   7.001200
    17  H    5.330862   6.247224   7.593976   8.083958   7.347491
    18  H    4.487905   5.771880   6.899108   6.958248   5.901057
    19  N    2.417094   3.717667   4.829432   4.964058   4.041018
    20  N    1.358504   2.397352   2.783541   2.400990   1.345103
    21  Re   3.161009   4.506240   5.078431   4.561848   3.235647
    22  C    3.822472   5.043450   5.552770   5.023936   3.796395
    23  C    4.890388   6.278987   6.960693   6.461595   5.118292
    24  C    4.467017   5.604990   5.742985   4.795151   3.429952
    25  O    4.575283   5.660876   6.115128   5.608690   4.511842
    26  O    5.984591   7.379670   8.106854   7.621226   6.275069
    27  O    5.418823   6.435405   6.365905   5.246702   3.983472
    28  Cl   3.735923   4.797332   5.352679   5.010180   3.995369
                    6          7          8          9         10
     6  C    0.000000
     7  C    1.399279   0.000000
     8  C    2.414089   1.392677   0.000000
     9  C    2.762793   2.402130   1.394537   0.000000
    10  C    2.334175   2.733908   2.393689   1.391181   0.000000
    11  H    2.770274   2.685716   4.032210   5.058596   5.044815
    12  H    4.681489   5.050475   6.435908   7.311210   7.001245
    13  H    5.330812   6.247217   7.594032   8.083955   7.347432
    14  H    4.487720   5.771656   6.899100   6.958273   5.901073
    15  H    2.164642   1.087417   2.151089   3.389761   3.821236
    16  H    3.404826   2.157044   1.090496   2.166302   3.392557
    17  H    3.851481   3.403818   2.174665   1.089489   2.151635
    18  H    3.298929   3.822517   3.394104   2.165762   1.089396
    19  N    1.358438   2.397124   2.783584   2.401033   1.345141
    20  N    2.416922   3.717397   4.829395   4.964089   4.041091
    21  Re   3.160398   4.505211   5.077292   4.560540   3.234429
    22  C    3.823973   5.047602   5.558968   5.029825   3.799981
    23  C    4.464592   5.601397   5.738554   4.790229   3.425526
    24  C    4.890693   6.278656   6.959614   6.459824   5.116633
    25  O    4.577079   5.666551   6.123364   5.615974   4.515452
    26  O    5.415612   6.430526   6.359671   5.239775   3.977609
    27  O    5.985301   7.379706   8.105833   7.619248   6.273217
    28  Cl   3.732746   4.789334   5.341723   4.999749   3.988786
                   11         12         13         14         15
    11  H    0.000000
    12  H    2.479763   0.000000
    13  H    4.310287   2.526364   0.000000
    14  H    4.910000   4.314021   2.496315   0.000000
    15  H    2.013727   4.491901   6.085566   6.056421   0.000000
    16  H    4.492388   6.966695   8.381435   7.882593   2.480248
    17  H    6.086308   8.381399   9.167328   7.969062   4.310237
    18  H    6.057479   7.882621   7.968942   6.247493   4.909604
    19  N    4.106851   5.813618   6.009200   4.597650   3.380569
    20  N    3.381249   3.873997   3.374272   2.070947   4.105727
    21  Re   5.317388   6.168380   5.381328   3.225404   5.315897
    22  C    5.819788   6.594953   5.769618   3.723593   5.823300
    23  C    6.977627   8.047637   7.247432   4.960372   6.577098
    24  C    6.580867   6.789901   5.286903   2.802158   6.977080
    25  O    6.382744   7.090916   6.280983   4.420350   6.388197
    26  O    8.026472   9.191363   8.397593   6.077741   7.455883
    27  O    7.460849   7.354266   5.521934   3.106351   8.026463
    28  Cl   5.466963   6.318819   5.782394   4.126463   5.458632
                   16         17         18         19         20
    16  H    0.000000
    17  H    2.526256   0.000000
    18  H    4.314146   2.496577   0.000000
    19  N    3.874055   3.374389   2.070964   0.000000
    20  N    5.813539   6.009297   4.597745   2.697077   0.000000
    21  Re   6.167198   5.380044   3.224109   2.296330   2.297217
    22  C    6.602183   5.776358   3.726047   3.053861   3.052822
    23  C    6.785219   5.281704   2.797291   3.213268   4.191646
    24  C    8.046432   7.245271   4.958014   4.191065   3.216096
    25  O    7.100912   6.289448   4.422143   3.914546   3.913954
    26  O    7.347536   5.514265   3.099750   4.096569   5.346145
    27  O    9.190187   8.395012   6.074931   5.345664   4.100060
    28  Cl   6.306185   5.770881   4.121473   3.254044   3.256614
                   21         22         23         24         25
    21  Re   0.000000
    22  C    1.902206   0.000000
    23  C    1.908469   2.714488   0.000000
    24  C    1.908646   2.715061   2.681901   0.000000
    25  O    3.065596   1.163427   3.638918   3.640662   0.000000
    26  O    3.069579   3.640736   1.161555   3.614682   4.382869
    27  O    3.069757   3.641080   3.614542   1.161544   4.384759
    28  Cl   2.606751   4.504320   3.307501   3.307077   5.665901
                   26         27         28
    26  O    0.000000
    27  O    4.368627   0.000000
    28  Cl   4.117766   4.117645   0.000000
 Symmetry turned off by external request.
 Stoichiometry    C13H8ClN2O3Re
 Framework group  C1[X(C13H8ClN2O3Re)]
 Deg. of freedom    78
 Full point group                 C1      NOp   1
 Rotational constants (GHZ):           0.3383781           0.2666345           0.1988055
 Leave Link  202 at Mon Nov 17 10:53:31 2025, MaxMem=  2684354560 cpu:               0.1 elap:               0.0
 (Enter /home/programes/qq/gaussian/g16.A03/g16/l301.exe)
 Basis read from rwf:  (5D, 7F)
 Pseudo-potential data read from rwf file.
   339 basis functions,   774 primitive gaussians,   363 cartesian basis functions
    78 alpha electrons       78 beta electrons
       nuclear repulsion energy      1754.4122904694 Hartrees.
 IExCor=  402 DFT=T Ex+Corr=B3LYP ExCW=0 ScaHFX=  0.200000
 ScaDFX=  0.800000  0.720000  1.000000  0.810000 ScalE2=  1.000000  1.000000
 IRadAn=      5 IRanWt=     -1 IRanGd=            0 ICorTp=0 IEmpDi=141
 NAtoms=   28 NActive=   28 NUniq=   28 SFac= 1.00D+00 NAtFMM=   60 NAOKFM=F Big=F
 Integral buffers will be    131072 words long.
 Raffenetti 2 integral format.
 Two-electron integral symmetry is turned off.
 R6Disp:  Grimme-D3(BJ) Dispersion energy=       -0.0842410833 Hartrees.
 Nuclear repulsion after empirical dispersion term =     1754.3280493861 Hartrees.
 No density basis found on file   724.
 ------------------------------------------------------------------------------
 Polarizable Continuum Model (PCM)
 =================================
 Model                : PCM.
 Atomic radii         : UFF (Universal Force Field).
 Polarization charges : Total charges.
 Charge compensation  : None.
 Solution method      : On-the-fly selection.
 Cavity type          : Scaled VdW (van der Waals Surface) (Alpha=1.100).
 Cavity algorithm     : GePol (No added spheres)
                        Default sphere list used, NSphG=   28.
                        Lebedev-Laikov grids with approx.  5.0 points / Ang**2.
                        Smoothing algorithm: York/Karplus (Gamma=1.0000).
                        Polarization charges: spherical gaussians, with
                                              point-specific exponents (IZeta= 3).
                        Self-potential: point-specific (ISelfS= 7).
                        Self-field    : sphere-specific E.n sum rule (ISelfD= 2).
 1st derivatives      : Analytical E(r).r(x)/FMM algorithm (CHGder, D1EAlg=3).
                        Cavity 1st derivative terms included.
 Solvent              : n,n-DiMethylFormamide, Eps=  37.219000 Eps(inf)=   2.046330
 ------------------------------------------------------------------------------
 GePol: Number of generator spheres                  =      28
 GePol: Total number of spheres                      =      28
 GePol: Number of exposed spheres                    =      27 ( 96.43%)
 GePol: Number of points                             =    2582
 GePol: Average weight of points                     =       0.13
 GePol: Minimum weight of points                     =   0.13D-10
 GePol: Maximum weight of points                     =    0.21616
 GePol: Number of points with low weight             =     119
 GePol: Fraction of low-weight points (<1% of avg)   =       4.61%
 GePol: Cavity surface area                          =    342.390 Ang**2
 GePol: Cavity volume                                =    378.142 Ang**3
 Leave Link  301 at Mon Nov 17 10:53:32 2025, MaxMem=  2684354560 cpu:               1.2 elap:               0.2
 (Enter /home/programes/qq/gaussian/g16.A03/g16/l302.exe)
 NPDir=0 NMtPBC=     1 NCelOv=     1 NCel=       1 NClECP=     1 NCelD=      1
         NCelK=      1 NCelE2=     1 NClLst=     1 CellRange=     0.0.
 One-electron integrals computed using PRISM.
   1 Symmetry operations used in ECPInt.
 ECPInt:  NShTT=   11175 NPrTT=  105620 LenC2=   10452 LenP2D=   51064.
 LDataN:  DoStor=T MaxTD1= 7 Len=  274
 NBasis=   339 RedAO= T EigKep=  3.67D-04  NBF=   339
 NBsUse=   339 1.00D-06 EigRej= -1.00D+00 NBFU=   339
 Precomputing XC quadrature grid using
 IXCGrd= 4 IRadAn=           5 IRanWt=          -1 IRanGd=           0 AccXCQ= 0.00D+00.
 Defaulting to unpruned grid for atomic number  75.
 Generated NRdTot=       0 NPtTot=           0 NUsed=           0 NTot=          32
 NSgBfM=   363   363   363   363   363 MxSgAt=    28 MxSgA2=    28.
 Leave Link  302 at Mon Nov 17 10:53:32 2025, MaxMem=  2684354560 cpu:              12.2 elap:               0.4
 (Enter /home/programes/qq/gaussian/g16.A03/g16/l303.exe)
 DipDrv:  MaxL=1.
 Leave Link  303 at Mon Nov 17 10:53:32 2025, MaxMem=  2684354560 cpu:               1.2 elap:               0.1
 (Enter /home/programes/qq/gaussian/g16.A03/g16/l401.exe)
 Initial guess from the checkpoint file:  "re-bpy-co3-cl.chk"
 B after Tr=    -0.000620    0.000223   -0.001502
         Rot=    1.000000   -0.000076   -0.000116    0.000004 Ang=  -0.02 deg.
 Guess basis will be translated and rotated to current coordinates.
 JPrj=2 DoOrth=T DoCkMO=T.
 Leave Link  401 at Mon Nov 17 10:53:32 2025, MaxMem=  2684354560 cpu:               5.7 elap:               0.2
 (Enter /home/programes/qq/gaussian/g16.A03/g16/l502.exe)
 Two-electron integral symmetry not used.
 Closed shell SCF:
 Using DIIS extrapolation, IDIIS=  1040.
 NGot=  2684354560 LenX=  2684076439 LenY=  2683944229
 Requested convergence on RMS density matrix=1.00D-08 within 128 cycles.
 Requested convergence on MAX density matrix=1.00D-06.
 Requested convergence on             energy=1.00D-06.
 No special actions if energy rises.
 Fock matrices will be formed incrementally for  20 cycles.

 Cycle   1  Pass 1  IDiag  1:
 FoFJK:  IHMeth= 1 ICntrl=       0 DoSepK=F KAlg= 0 I1Cent=           0 FoldK=F
 IRaf= 870000000 NMat=       1 IRICut=       1 DoRegI=T DoRafI=F ISym2E= 0 IDoP0=0 IntGTp=1.
 FoFCou: FMM=F IPFlag=           0 FMFlag=      100000 FMFlg1=           0
         NFxFlg=           0 DoJE=F BraDBF=F KetDBF=F FulRan=T
         wScrn=  0.000000 ICntrl=         0 IOpCl=  0 I1Cent=           0 NGrid=           0
         NMat0=    1 NMatS0=      1 NMatT0=    0 NMatD0=    1 NMtDS0=    0 NMtDT0=    0
 Symmetry not used in FoFCou.
 Defaulting to unpruned grid for atomic number  75.
 Defaulting to unpruned grid for atomic number  75.
 Defaulting to unpruned grid for atomic number  75.
 Defaulting to unpruned grid for atomic number  75.
 Defaulting to unpruned grid for atomic number  75.
 Defaulting to unpruned grid for atomic number  75.
 Defaulting to unpruned grid for atomic number  75.
 Defaulting to unpruned grid for atomic number  75.
 Defaulting to unpruned grid for atomic number  75.
 Defaulting to unpruned grid for atomic number  75.
 Defaulting to unpruned grid for atomic number  75.
 Defaulting to unpruned grid for atomic number  75.
 Defaulting to unpruned grid for atomic number  75.
 Defaulting to unpruned grid for atomic number  75.
 Defaulting to unpruned grid for atomic number  75.
 Defaulting to unpruned grid for atomic number  75.
 Defaulting to unpruned grid for atomic number  75.
 Defaulting to unpruned grid for atomic number  75.
 Defaulting to unpruned grid for atomic number  75.
 Defaulting to unpruned grid for atomic number  75.
 Defaulting to unpruned grid for atomic number  75.
 Defaulting to unpruned grid for atomic number  75.
 Defaulting to unpruned grid for atomic number  75.
 Defaulting to unpruned grid for atomic number  75.
 Defaulting to unpruned grid for atomic number  75.
 Defaulting to unpruned grid for atomic number  75.
 Defaulting to unpruned grid for atomic number  75.
 Defaulting to unpruned grid for atomic number  75.
 Defaulting to unpruned grid for atomic number  75.
 Defaulting to unpruned grid for atomic number  75.
 Defaulting to unpruned grid for atomic number  75.
 Defaulting to unpruned grid for atomic number  75.
 Inv3:  Mode=1 IEnd=    20000172.
 Iteration    1 A*A^-1 deviation from unit magnitude is 1.07D-14 for    577.
 Iteration    1 A*A^-1 deviation from orthogonality  is 5.59D-15 for   1254     16.
 Iteration    1 A^-1*A deviation from unit magnitude is 1.04D-14 for    577.
 Iteration    1 A^-1*A deviation from orthogonality  is 2.85D-15 for   2232    225.
 E= -1375.06795335898    
 DIIS: error= 4.24D-04 at cycle   1 NSaved=   1.
 NSaved= 1 IEnMin= 1 EnMin= -1375.06795335898     IErMin= 1 ErrMin= 4.24D-04
 ErrMax= 4.24D-04  0.00D+00 EMaxC= 1.00D-01 BMatC= 6.34D-05 BMatP= 6.34D-05
 IDIUse=3 WtCom= 9.96D-01 WtEn= 4.24D-03
 Coeff-Com:  0.100D+01
 Coeff-En:   0.100D+01
 Coeff:      0.100D+01
 Gap=     0.612 Goal=   None    Shift=    0.000
 RMSDP=3.58D-05 MaxDP=2.14D-03              OVMax= 2.34D-03

 Cycle   2  Pass 1  IDiag  1:
 RMSU=  3.58D-05    CP:  1.00D+00
 E= -1375.06805190533     Delta-E=       -0.000098546352 Rises=F Damp=F
 DIIS: error= 3.97D-05 at cycle   2 NSaved=   2.
 NSaved= 2 IEnMin= 2 EnMin= -1375.06805190533     IErMin= 2 ErrMin= 3.97D-05
 ErrMax= 3.97D-05  0.00D+00 EMaxC= 1.00D-01 BMatC= 7.99D-07 BMatP= 6.34D-05
 IDIUse=1 WtCom= 1.00D+00 WtEn= 0.00D+00
 Coeff-Com: -0.757D-01 0.108D+01
 Coeff:     -0.757D-01 0.108D+01
 Gap=     0.137 Goal=   None    Shift=    0.000
 RMSDP=4.96D-06 MaxDP=2.52D-04 DE=-9.85D-05 OVMax= 4.10D-04

 Cycle   3  Pass 1  IDiag  1:
 RMSU=  3.96D-06    CP:  1.00D+00  1.08D+00
 E= -1375.06805294688     Delta-E=       -0.000001041548 Rises=F Damp=F
 DIIS: error= 3.70D-05 at cycle   3 NSaved=   3.
 NSaved= 3 IEnMin= 3 EnMin= -1375.06805294688     IErMin= 3 ErrMin= 3.70D-05
 ErrMax= 3.70D-05  0.00D+00 EMaxC= 1.00D-01 BMatC= 3.89D-07 BMatP= 7.99D-07
 IDIUse=1 WtCom= 1.00D+00 WtEn= 0.00D+00
 Coeff-Com: -0.384D-01 0.502D+00 0.536D+00
 Coeff:     -0.384D-01 0.502D+00 0.536D+00
 Gap=     0.137 Goal=   None    Shift=    0.000
 RMSDP=2.47D-06 MaxDP=1.52D-04 DE=-1.04D-06 OVMax= 2.20D-04

 Cycle   4  Pass 1  IDiag  1:
 RMSU=  2.15D-06    CP:  1.00D+00  1.09D+00  7.02D-01
 E= -1375.06805310834     Delta-E=       -0.000000161462 Rises=F Damp=F
 DIIS: error= 2.47D-05 at cycle   4 NSaved=   4.
 NSaved= 4 IEnMin= 4 EnMin= -1375.06805310834     IErMin= 4 ErrMin= 2.47D-05
 ErrMax= 2.47D-05  0.00D+00 EMaxC= 1.00D-01 BMatC= 2.32D-07 BMatP= 3.89D-07
 IDIUse=1 WtCom= 1.00D+00 WtEn= 0.00D+00
 Coeff-Com: -0.147D-01 0.184D+00 0.411D+00 0.420D+00
 Coeff:     -0.147D-01 0.184D+00 0.411D+00 0.420D+00
 Gap=     0.137 Goal=   None    Shift=    0.000
 RMSDP=1.68D-06 MaxDP=1.32D-04 DE=-1.61D-07 OVMax= 1.62D-04

 Cycle   5  Pass 1  IDiag  1:
 RMSU=  1.14D-06    CP:  1.00D+00  1.09D+00  7.95D-01  4.62D-01
 E= -1375.06805325918     Delta-E=       -0.000000150844 Rises=F Damp=F
 DIIS: error= 1.47D-05 at cycle   5 NSaved=   5.
 NSaved= 5 IEnMin= 5 EnMin= -1375.06805325918     IErMin= 5 ErrMin= 1.47D-05
 ErrMax= 1.47D-05  0.00D+00 EMaxC= 1.00D-01 BMatC= 5.90D-08 BMatP= 2.32D-07
 IDIUse=1 WtCom= 1.00D+00 WtEn= 0.00D+00
 Coeff-Com: -0.597D-02 0.699D-01 0.247D+00 0.340D+00 0.348D+00
 Coeff:     -0.597D-02 0.699D-01 0.247D+00 0.340D+00 0.348D+00
 Gap=     0.137 Goal=   None    Shift=    0.000
 RMSDP=7.97D-07 MaxDP=7.16D-05 DE=-1.51D-07 OVMax= 7.67D-05

 Cycle   6  Pass 1  IDiag  1:
 RMSU=  3.30D-07    CP:  1.00D+00  1.09D+00  8.44D-01  5.96D-01  4.46D-01
 E= -1375.06805331352     Delta-E=       -0.000000054333 Rises=F Damp=F
 DIIS: error= 3.32D-06 at cycle   6 NSaved=   6.
 NSaved= 6 IEnMin= 6 EnMin= -1375.06805331352     IErMin= 6 ErrMin= 3.32D-06
 ErrMax= 3.32D-06  0.00D+00 EMaxC= 1.00D-01 BMatC= 4.24D-09 BMatP= 5.90D-08
 IDIUse=1 WtCom= 1.00D+00 WtEn= 0.00D+00
 Coeff-Com:  0.716D-03-0.144D-01 0.366D-01 0.951D-01 0.231D+00 0.651D+00
 Coeff:      0.716D-03-0.144D-01 0.366D-01 0.951D-01 0.231D+00 0.651D+00
 Gap=     0.137 Goal=   None    Shift=    0.000
 RMSDP=2.06D-07 MaxDP=1.36D-05 DE=-5.43D-08 OVMax= 2.07D-05

 Cycle   7  Pass 1  IDiag  1:
 RMSU=  1.22D-07    CP:  1.00D+00  1.09D+00  8.65D-01  6.01D-01  5.35D-01
                    CP:  7.00D-01
 E= -1375.06805331680     Delta-E=       -0.000000003285 Rises=F Damp=F
 DIIS: error= 1.43D-06 at cycle   7 NSaved=   7.
 NSaved= 7 IEnMin= 7 EnMin= -1375.06805331680     IErMin= 7 ErrMin= 1.43D-06
 ErrMax= 1.43D-06  0.00D+00 EMaxC= 1.00D-01 BMatC= 8.70D-10 BMatP= 4.24D-09
 IDIUse=1 WtCom= 1.00D+00 WtEn= 0.00D+00
 Coeff-Com:  0.108D-02-0.170D-01-0.306D-02 0.244D-01 0.114D+00 0.425D+00
 Coeff-Com:  0.457D+00
 Coeff:      0.108D-02-0.170D-01-0.306D-02 0.244D-01 0.114D+00 0.425D+00
 Coeff:      0.457D+00
 Gap=     0.137 Goal=   None    Shift=    0.000
 RMSDP=8.54D-08 MaxDP=5.05D-06 DE=-3.28D-09 OVMax= 1.01D-05

 Cycle   8  Pass 1  IDiag  1:
 RMSU=  4.80D-08    CP:  1.00D+00  1.09D+00  8.63D-01  6.20D-01  5.54D-01
                    CP:  7.38D-01  5.80D-01
 E= -1375.06805331763     Delta-E=       -0.000000000829 Rises=F Damp=F
 DIIS: error= 2.56D-07 at cycle   8 NSaved=   8.
 NSaved= 8 IEnMin= 8 EnMin= -1375.06805331763     IErMin= 8 ErrMin= 2.56D-07
 ErrMax= 2.56D-07  0.00D+00 EMaxC= 1.00D-01 BMatC= 3.18D-11 BMatP= 8.70D-10
 IDIUse=1 WtCom= 1.00D+00 WtEn= 0.00D+00
 Coeff-Com:  0.432D-03-0.667D-02-0.596D-02 0.732D-03 0.309D-01 0.136D+00
 Coeff-Com:  0.218D+00 0.626D+00
 Coeff:      0.432D-03-0.667D-02-0.596D-02 0.732D-03 0.309D-01 0.136D+00
 Coeff:      0.218D+00 0.626D+00
 Gap=     0.137 Goal=   None    Shift=    0.000
 RMSDP=2.44D-08 MaxDP=1.04D-06 DE=-8.29D-10 OVMax= 2.08D-06

 Cycle   9  Pass 1  IDiag  1:
 RMSU=  1.49D-08    CP:  1.00D+00  1.09D+00  8.66D-01  6.18D-01  5.60D-01
                    CP:  7.67D-01  6.33D-01  8.04D-01
 E= -1375.06805331764     Delta-E=       -0.000000000008 Rises=F Damp=F
 DIIS: error= 6.77D-08 at cycle   9 NSaved=   9.
 NSaved= 9 IEnMin= 9 EnMin= -1375.06805331764     IErMin= 9 ErrMin= 6.77D-08
 ErrMax= 6.77D-08  0.00D+00 EMaxC= 1.00D-01 BMatC= 3.26D-12 BMatP= 3.18D-11
 IDIUse=1 WtCom= 1.00D+00 WtEn= 0.00D+00
 Coeff-Com:  0.623D-04-0.854D-03-0.261D-02-0.326D-02-0.588D-03 0.102D-01
 Coeff-Com:  0.474D-01 0.285D+00 0.665D+00
 Coeff:      0.623D-04-0.854D-03-0.261D-02-0.326D-02-0.588D-03 0.102D-01
 Coeff:      0.474D-01 0.285D+00 0.665D+00
 Gap=     0.137 Goal=   None    Shift=    0.000
 RMSDP=7.91D-09 MaxDP=3.42D-07 DE=-8.19D-12 OVMax= 6.62D-07

 Error on total polarization charges =  0.01128
 SCF Done:  E(RB3LYP) =  -1375.06805332     A.U. after    9 cycles
            NFock=  9  Conv=0.79D-08     -V/T= 2.0464
 KE= 1.314130073424D+03 PE=-6.710704430785D+03 EE= 2.267178254658D+03
 Leave Link  502 at Mon Nov 17 10:53:56 2025, MaxMem=  2684354560 cpu:             716.0 elap:              24.1
 (Enter /home/programes/qq/gaussian/g16.A03/g16/l701.exe)
 ... and contract with generalized density number  0.
 Compute integral first derivatives.
 R6Disp: Adding Grimme-D3(BJ) dispersion energy 1st derivatives to the gradient.
   1 Symmetry operations used in ECPInt.
 ECPInt:  NShTT=   11175 NPrTT=  105620 LenC2=   10452 LenP2D=   51064.
 LDataN:  DoStor=T MaxTD1= 8 Len=  415
 D1PCM: PCM CHGder 1st derivatives, ID1Alg=3 FixD1E=F DoIter=F DoCFld=F I1PDM=0.
 GePol: Maximum number of non-zero 1st derivatives   =     255
 Leave Link  701 at Mon Nov 17 10:54:00 2025, MaxMem=  2684354560 cpu:              45.8 elap:               1.6
 (Enter /home/programes/qq/gaussian/g16.A03/g16/l702.exe)
 L702 exits ... SP integral derivatives will be done elsewhere.
 Leave Link  702 at Mon Nov 17 10:54:00 2025, MaxMem=  2684354560 cpu:               0.2 elap:               0.0
 (Enter /home/programes/qq/gaussian/g16.A03/g16/l703.exe)
 Integral derivatives from FoFJK, PRISM(SPDF).
 Compute integral first derivatives, UseDBF=F ICtDFT=           0.
 Calling FoFJK, ICntrl=      2127 FMM=F ISym2X=0 I1Cent= 0 IOpClX= 0 NMat=1 NMatS=1 NMatT=0.
 FoFJK:  IHMeth= 1 ICntrl=    2127 DoSepK=F KAlg= 0 I1Cent=           0 FoldK=F
 IRaf=         0 NMat=       1 IRICut=       1 DoRegI=T DoRafI=F ISym2E= 0 IDoP0=0 IntGTp=1.
 FoFCou: FMM=F IPFlag=           0 FMFlag=      100000 FMFlg1=         800
         NFxFlg=           0 DoJE=F BraDBF=F KetDBF=F FulRan=T
         wScrn=  0.000000 ICntrl=      2127 IOpCl=  0 I1Cent=           0 NGrid=           0
         NMat0=    1 NMatS0=      1 NMatT0=    0 NMatD0=    1 NMtDS0=    0 NMtDT0=    0
 Symmetry not used in FoFCou.
 Defaulting to unpruned grid for atomic number  75.
 Defaulting to unpruned grid for atomic number  75.
 Defaulting to unpruned grid for atomic number  75.
 Defaulting to unpruned grid for atomic number  75.
 Defaulting to unpruned grid for atomic number  75.
 Defaulting to unpruned grid for atomic number  75.
 Defaulting to unpruned grid for atomic number  75.
 Defaulting to unpruned grid for atomic number  75.
 Defaulting to unpruned grid for atomic number  75.
 Defaulting to unpruned grid for atomic number  75.
 Defaulting to unpruned grid for atomic number  75.
 Defaulting to unpruned grid for atomic number  75.
 Defaulting to unpruned grid for atomic number  75.
 Defaulting to unpruned grid for atomic number  75.
 Defaulting to unpruned grid for atomic number  75.
 Defaulting to unpruned grid for atomic number  75.
 Defaulting to unpruned grid for atomic number  75.
 Defaulting to unpruned grid for atomic number  75.
 Defaulting to unpruned grid for atomic number  75.
 Defaulting to unpruned grid for atomic number  75.
 Defaulting to unpruned grid for atomic number  75.
 Defaulting to unpruned grid for atomic number  75.
 Defaulting to unpruned grid for atomic number  75.
 Defaulting to unpruned grid for atomic number  75.
 Defaulting to unpruned grid for atomic number  75.
 Defaulting to unpruned grid for atomic number  75.
 Defaulting to unpruned grid for atomic number  75.
 Defaulting to unpruned grid for atomic number  75.
 Defaulting to unpruned grid for atomic number  75.
 Defaulting to unpruned grid for atomic number  75.
 Defaulting to unpruned grid for atomic number  75.
 Defaulting to unpruned grid for atomic number  75.
 Leave Link  703 at Mon Nov 17 10:54:05 2025, MaxMem=  2684354560 cpu:             149.5 elap:               4.7
 (Enter /home/programes/qq/gaussian/g16.A03/g16/l716.exe)
 Dipole        = 4.55173793D+00-2.74392404D+00 1.71327314D+00
 -------------------------------------------------------------------
 Center     Atomic                   Forces (Hartrees/Bohr)
 Number     Number              X              Y              Z
 -------------------------------------------------------------------
      1        6           0.000039398    0.000194934    0.000023414
      2        6          -0.000096358   -0.000082317    0.000006482
      3        6          -0.000032410    0.000085842   -0.000007780
      4        6           0.000044609   -0.000051016   -0.000018212
      5        6          -0.000070123   -0.000012639    0.000011417
      6        6          -0.000154657   -0.000130583    0.000020629
      7        6           0.000027357    0.000126029   -0.000000820
      8        6          -0.000089601   -0.000013718   -0.000001362
      9        6           0.000063643   -0.000012485   -0.000015499
     10        6          -0.000021892    0.000065211    0.000014500
     11        1           0.000021859    0.000003070   -0.000008133
     12        1          -0.000000759   -0.000014902    0.000019405
     13        1          -0.000013816    0.000002014    0.000014704
     14        1           0.000016618    0.000000629   -0.000036631
     15        1           0.000006806   -0.000020595   -0.000008046
     16        1           0.000012569    0.000007964    0.000023659
     17        1          -0.000008153    0.000010528    0.000019738
     18        1           0.000009102   -0.000018899   -0.000026619
     19        7           0.000041158    0.000146434    0.000004990
     20        7          -0.000078127   -0.000099204   -0.000026198
     21       75           0.000111431   -0.000026068   -0.000061129
     22        6           0.000081258   -0.000208682   -0.000138174
     23        6           0.000129124   -0.000096792   -0.000080375
     24        6           0.000141016   -0.000022652   -0.000023629
     25        8          -0.000050365    0.000119493    0.000045548
     26        8          -0.000088816    0.000012999    0.000049899
     27        8          -0.000056397    0.000049894    0.000002202
     28       17           0.000015526   -0.000014491    0.000196021
 -------------------------------------------------------------------
 Cartesian Forces:  Max     0.000208682 RMS     0.000069862
 Leave Link  716 at Mon Nov 17 10:54:05 2025, MaxMem=  2684354560 cpu:               0.7 elap:               0.0
 (Enter /home/programes/qq/gaussian/g16.A03/g16/l103.exe)

 GradGradGradGradGradGradGradGradGradGradGradGradGradGradGradGradGradGrad
 Berny optimization.
 Using GEDIIS/GDIIS optimizer.
 FormGI is forming the generalized inverse of G from B-inverse, IUseBI=4.
 Internal  Forces:  Max     0.000251132 RMS     0.000047378
 Search for a local minimum.
 Step number  12 out of a maximum of  168
 All quantities printed in internal units (Hartrees-Bohrs-Radians)
 RMS Force = .47378D-04 SwitMx=.10000D-02 MixMth= 2
 Mixed Optimization -- En-DIIS/RFO-DIIS
 Swapping is turned off.
 Update second derivatives using D2CorX and points    5    6    7    8    9
                                                     10   11   12
 DE= -1.60D-05 DEPred=-1.68D-05 R= 9.51D-01
 TightC=F SS=  1.41D+00  RLast= 1.85D-02 DXNew= 1.8313D+00 5.5642D-02
 Trust test= 9.51D-01 RLast= 1.85D-02 DXMaxT set to 1.09D+00
 ITU=  1  0  1  1  1  0  0  1  1 -1  1  0
     Eigenvalues ---    0.00409   0.00909   0.01057   0.01501   0.01631
     Eigenvalues ---    0.01782   0.01836   0.01871   0.01946   0.01994
     Eigenvalues ---    0.02020   0.02044   0.02154   0.02185   0.02248
     Eigenvalues ---    0.02250   0.02313   0.02420   0.02972   0.04266
     Eigenvalues ---    0.04658   0.04693   0.04704   0.05519   0.06757
     Eigenvalues ---    0.07803   0.09602   0.10885   0.12225   0.12299
     Eigenvalues ---    0.13917   0.14692   0.15739   0.15997   0.16000
     Eigenvalues ---    0.16000   0.16000   0.16000   0.16004   0.16044
     Eigenvalues ---    0.16953   0.21570   0.22000   0.22035   0.22547
     Eigenvalues ---    0.22613   0.23994   0.24247   0.24488   0.24849
     Eigenvalues ---    0.24967   0.25371   0.29689   0.34512   0.34513
     Eigenvalues ---    0.34526   0.34549   0.34584   0.34603   0.34735
     Eigenvalues ---    0.34745   0.35927   0.35951   0.38049   0.38701
     Eigenvalues ---    0.39153   0.40119   0.47099   0.47424   0.49402
     Eigenvalues ---    0.50160   0.50873   0.51500   0.58665   1.11406
     Eigenvalues ---    1.18142   1.19574   1.47112
 En-DIIS/RFO-DIIS/Sim-DIIS IScMMF=       -3 using points:    12   11   10    9
 RFO step:  Lambda=-2.76572793D-06.
 NNeg= 0 NGDIIS= 4 SimSw=  2.50D-01 Rises=F DC= -1.60D-05 SmlDif=  1.00D-05
 NRisDI= 0 DoIntr=F SqrtH=F CThrHd= 10.0 CDAdj=  3.0
 RMS Error=  0.6756655266D-03 NUsed= 4 OKEnD=T EnDIS=F
 InvSVX:  RCond= 2.41D-05 Info=           0 Equed=N FErr=  3.61D-15 BErr=  2.65D-17
 DidBck=F Rises=F RFO-DIIS coefs:    1.06029   -0.08875    0.10452   -0.07605
 Iteration  1 RMS(Cart)=  0.00102935 RMS(Int)=  0.00000137
 Iteration  2 RMS(Cart)=  0.00000145 RMS(Int)=  0.00000025
 Iteration  3 RMS(Cart)=  0.00000000 RMS(Int)=  0.00000025
 ITry= 1 IFail=0 DXMaxC= 6.27D-03 DCOld= 1.00D+10 DXMaxT= 1.09D+00 DXLimC= 3.00D+00 Rises=F
 Variable       Old X    -DE/DX   Delta X   Delta X   Delta X     New X
                                 (Linear)    (Quad)   (Total)
    R1        2.64447  -0.00008  -0.00001  -0.00015  -0.00016   2.64431
    R2        2.80017   0.00004   0.00012   0.00025   0.00037   2.80054
    R3        2.56720  -0.00013   0.00001  -0.00027  -0.00026   2.56694
    R4        2.63178   0.00003   0.00005   0.00009   0.00014   2.63192
    R5        2.05528   0.00001  -0.00000   0.00000   0.00000   2.05528
    R6        2.63528  -0.00005   0.00004  -0.00018  -0.00015   2.63513
    R7        2.06071  -0.00000   0.00001  -0.00001  -0.00000   2.06070
    R8        2.62898  -0.00000   0.00005  -0.00000   0.00005   2.62902
    R9        2.05887  -0.00000   0.00001  -0.00001  -0.00000   2.05887
   R10        2.05858  -0.00001   0.00000  -0.00005  -0.00004   2.05853
   R11        2.54188  -0.00004  -0.00001  -0.00002  -0.00003   2.54184
   R12        2.64425  -0.00008  -0.00001  -0.00015  -0.00016   2.64409
   R13        2.56707  -0.00012   0.00001  -0.00026  -0.00025   2.56682
   R14        2.63178   0.00003   0.00005   0.00009   0.00014   2.63192
   R15        2.05492   0.00001  -0.00000   0.00001   0.00000   2.05492
   R16        2.63529  -0.00005   0.00004  -0.00019  -0.00015   2.63514
   R17        2.06074  -0.00000   0.00001  -0.00001  -0.00001   2.06073
   R18        2.62895  -0.00001   0.00005  -0.00001   0.00004   2.62899
   R19        2.05884  -0.00000   0.00001  -0.00001   0.00000   2.05884
   R20        2.05866  -0.00001   0.00001  -0.00005  -0.00005   2.05861
   R21        2.54195  -0.00004  -0.00001  -0.00002  -0.00002   2.54192
   R22        4.33943  -0.00022   0.00030   0.00022   0.00051   4.33995
   R23        4.34111  -0.00019   0.00031   0.00036   0.00067   4.34178
   R24        3.59465  -0.00009   0.00000  -0.00011  -0.00011   3.59454
   R25        3.60648  -0.00002  -0.00007   0.00008   0.00001   3.60650
   R26        3.60682   0.00001  -0.00006   0.00016   0.00010   3.60692
   R27        4.92605  -0.00020  -0.00032  -0.00194  -0.00226   4.92379
   R28        2.19856   0.00005  -0.00002   0.00008   0.00006   2.19861
   R29        2.19502   0.00008  -0.00002   0.00015   0.00013   2.19515
   R30        2.19500   0.00006  -0.00003   0.00014   0.00011   2.19511
    A1        2.14146  -0.00002  -0.00008  -0.00003  -0.00010   2.14135
    A2        2.10731   0.00004   0.00002   0.00011   0.00014   2.10745
    A3        2.03439  -0.00002   0.00005  -0.00009  -0.00003   2.03435
    A4        2.08868  -0.00003  -0.00004  -0.00012  -0.00016   2.08852
    A5        2.10416   0.00004   0.00004   0.00026   0.00029   2.10445
    A6        2.09035  -0.00001   0.00000  -0.00014  -0.00014   2.09021
    A7        2.07796   0.00000   0.00001   0.00005   0.00006   2.07802
    A8        2.09636  -0.00001  -0.00002  -0.00012  -0.00014   2.09622
    A9        2.10886   0.00001   0.00002   0.00006   0.00008   2.10894
   A10        2.06769  -0.00001   0.00002  -0.00002  -0.00000   2.06769
   A11        2.12457   0.00002   0.00001   0.00011   0.00012   2.12469
   A12        2.09093  -0.00001  -0.00002  -0.00010  -0.00012   2.09081
   A13        2.11458  -0.00000   0.00002  -0.00012  -0.00010   2.11448
   A14        2.14092  -0.00002  -0.00005  -0.00005  -0.00010   2.14083
   A15        2.02768   0.00003   0.00004   0.00017   0.00020   2.02788
   A16        2.14126  -0.00002  -0.00008  -0.00004  -0.00012   2.14114
   A17        2.03469  -0.00001   0.00006  -0.00008  -0.00002   2.03467
   A18        2.10721   0.00004   0.00002   0.00012   0.00015   2.10736
   A19        2.08894  -0.00003  -0.00004  -0.00012  -0.00015   2.08879
   A20        2.10338   0.00004   0.00004   0.00026   0.00029   2.10367
   A21        2.09087  -0.00001   0.00000  -0.00014  -0.00014   2.09073
   A22        2.07777   0.00000   0.00001   0.00005   0.00006   2.07783
   A23        2.09645  -0.00001  -0.00002  -0.00011  -0.00014   2.09631
   A24        2.10896   0.00001   0.00002   0.00007   0.00008   2.10905
   A25        2.06769  -0.00001   0.00002  -0.00002   0.00000   2.06769
   A26        2.12434   0.00002   0.00001   0.00011   0.00012   2.12446
   A27        2.09115  -0.00001  -0.00002  -0.00010  -0.00012   2.09103
   A28        2.11463  -0.00001   0.00002  -0.00015  -0.00013   2.11450
   A29        2.14096  -0.00002  -0.00005  -0.00003  -0.00009   2.14087
   A30        2.02760   0.00003   0.00003   0.00018   0.00022   2.02781
   A31        2.08379   0.00002   0.00004  -0.00000   0.00004   2.08383
   A32        2.04875   0.00000  -0.00003   0.00022   0.00019   2.04894
   A33        2.14953  -0.00002   0.00002  -0.00023  -0.00021   2.14932
   A34        2.08379   0.00002   0.00004   0.00002   0.00006   2.08385
   A35        2.04845  -0.00000  -0.00003   0.00019   0.00016   2.04861
   A36        2.15005  -0.00002   0.00002  -0.00020  -0.00018   2.14986
   A37        1.25505   0.00003   0.00001  -0.00020  -0.00019   1.25486
   A38        1.62056  -0.00001  -0.00011  -0.00021  -0.00032   1.62024
   A39        1.73233  -0.00008   0.00013  -0.00029  -0.00016   1.73217
   A40        1.44690  -0.00004  -0.00018  -0.00026  -0.00044   1.44646
   A41        1.61935   0.00001  -0.00002  -0.00014  -0.00016   1.61919
   A42        1.73381  -0.00007   0.00018  -0.00026  -0.00009   1.73372
   A43        1.44801  -0.00004  -0.00007  -0.00036  -0.00042   1.44759
   A44        1.58564  -0.00001   0.00000  -0.00002  -0.00001   1.58563
   A45        1.58598   0.00001   0.00024  -0.00005   0.00020   1.58618
   A46        1.55809   0.00012  -0.00032   0.00078   0.00046   1.55854
   A47        1.62129   0.00003   0.00005   0.00043   0.00048   1.62176
   A48        1.62093   0.00002   0.00005   0.00043   0.00049   1.62142
   A49        2.98886  -0.00004   0.00018  -0.00046  -0.00028   2.98858
   A50        2.98739  -0.00005   0.00014  -0.00049  -0.00035   2.98703
   A51        3.06746  -0.00005  -0.00029  -0.00048  -0.00076   3.06670
   A52        3.13739  -0.00003  -0.00043   0.00000  -0.00043   3.13696
   A53        3.10727   0.00008  -0.00187   0.00308   0.00120   3.10848
   A54        3.10766   0.00010  -0.00200   0.00340   0.00140   3.10906
   A55        3.08167  -0.00000  -0.00015   0.00027   0.00012   3.08179
   A56        3.19963  -0.00000   0.00001  -0.00015  -0.00015   3.19948
   A57        3.19601   0.00002  -0.00000   0.00036   0.00036   3.19637
   A58        3.15153  -0.00025  -0.00155  -0.00295  -0.00450   3.14703
   A59        3.14947  -0.00012  -0.00040  -0.00154  -0.00194   3.14753
   A60        3.13413   0.00003   0.00107  -0.00054   0.00053   3.13467
    D1       -3.13271  -0.00000   0.00001  -0.00013  -0.00012  -3.13283
    D2        0.00912  -0.00000   0.00002  -0.00019  -0.00017   0.00895
    D3        0.00088   0.00001   0.00002   0.00024   0.00026   0.00114
    D4       -3.14048   0.00000   0.00003   0.00018   0.00021  -3.14027
    D5       -0.00453  -0.00001  -0.00000  -0.00024  -0.00025  -0.00478
    D6        3.13006   0.00000   0.00001   0.00012   0.00013   3.13019
    D7       -3.13843  -0.00001  -0.00002  -0.00060  -0.00061  -3.13905
    D8       -0.00384  -0.00000  -0.00000  -0.00023  -0.00023  -0.00408
    D9       -0.00472   0.00000  -0.00021   0.00012  -0.00009  -0.00481
   D10        3.09288   0.00000   0.00041   0.00027   0.00069   3.09356
   D11        3.12934   0.00001  -0.00020   0.00047   0.00027   3.12961
   D12       -0.05625   0.00001   0.00043   0.00062   0.00105  -0.05520
   D13        0.00328  -0.00001   0.00010  -0.00034  -0.00023   0.00304
   D14       -3.13992  -0.00001   0.00001  -0.00058  -0.00057  -3.14049
   D15       -3.13855  -0.00001   0.00009  -0.00028  -0.00018  -3.13873
   D16        0.00144  -0.00001  -0.00001  -0.00052  -0.00053   0.00092
   D17       -0.00357   0.00000  -0.00004   0.00009   0.00005  -0.00352
   D18        3.13942  -0.00000  -0.00010  -0.00014  -0.00024   3.13917
   D19        3.13964   0.00001   0.00006   0.00033   0.00039   3.14003
   D20       -0.00056   0.00000   0.00000   0.00010   0.00010  -0.00046
   D21       -3.14006   0.00001  -0.00015   0.00041   0.00027  -3.13979
   D22       -0.00028   0.00001  -0.00016   0.00028   0.00013  -0.00015
   D23        0.00017   0.00002  -0.00009   0.00064   0.00055   0.00072
   D24        3.13995   0.00001  -0.00010   0.00051   0.00041   3.14036
   D25        0.00445  -0.00001   0.00028  -0.00039  -0.00010   0.00435
   D26       -3.09044  -0.00001  -0.00038  -0.00056  -0.00094  -3.09138
   D27       -3.13887  -0.00001   0.00027  -0.00051  -0.00024  -3.13911
   D28        0.04942  -0.00002  -0.00039  -0.00069  -0.00107   0.04835
   D29        3.13301   0.00000  -0.00000   0.00013   0.00012   3.13313
   D30       -0.00895   0.00000  -0.00001   0.00014   0.00013  -0.00882
   D31       -0.00130  -0.00001  -0.00002  -0.00025  -0.00027  -0.00157
   D32        3.13993  -0.00001  -0.00003  -0.00024  -0.00026   3.13967
   D33       -3.12881  -0.00001   0.00020  -0.00042  -0.00022  -3.12903
   D34        0.06208  -0.00001  -0.00042  -0.00027  -0.00069   0.06139
   D35        0.00593  -0.00000   0.00021  -0.00007   0.00015   0.00608
   D36       -3.08637   0.00000  -0.00041   0.00009  -0.00032  -3.08669
   D37       -0.00371   0.00001  -0.00011   0.00031   0.00020  -0.00350
   D38        3.13951   0.00001  -0.00000   0.00053   0.00053   3.14004
   D39        3.13825   0.00001  -0.00010   0.00030   0.00020   3.13845
   D40       -0.00172   0.00001   0.00001   0.00051   0.00052  -0.00120
   D41        0.00404  -0.00000   0.00005  -0.00007  -0.00002   0.00402
   D42       -3.13902   0.00000   0.00011   0.00012   0.00023  -3.13879
   D43       -3.13919  -0.00000  -0.00006  -0.00029  -0.00035  -3.13953
   D44        0.00094  -0.00000   0.00000  -0.00010  -0.00010   0.00084
   D45        3.14002  -0.00001   0.00015  -0.00041  -0.00026   3.13976
   D46        0.00061  -0.00001   0.00015  -0.00026  -0.00011   0.00050
   D47       -0.00014  -0.00001   0.00009  -0.00059  -0.00050  -0.00064
   D48       -3.13955  -0.00001   0.00009  -0.00044  -0.00035  -3.13989
   D49       -0.00564   0.00001  -0.00028   0.00033   0.00005  -0.00559
   D50        3.08367   0.00000   0.00037   0.00018   0.00055   3.08422
   D51        3.13803   0.00001  -0.00028   0.00047   0.00019   3.13822
   D52       -0.05584   0.00001   0.00037   0.00032   0.00070  -0.05515
   D53       -0.06644   0.00001   0.00047   0.00043   0.00090  -0.06555
   D54       -1.67210  -0.00001   0.00045   0.00051   0.00097  -1.67113
   D55        3.01711   0.00001   0.00046   0.00058   0.00104   3.01816
   D56        1.41508  -0.00002   0.00045   0.00015   0.00061   1.41569
   D57        3.12645   0.00001  -0.00018   0.00058   0.00041   3.12686
   D58        1.52080  -0.00000  -0.00019   0.00067   0.00048   1.52128
   D59       -0.07318   0.00001  -0.00019   0.00074   0.00055  -0.07262
   D60       -1.67521  -0.00002  -0.00019   0.00031   0.00012  -1.67510
   D61        0.06431  -0.00001  -0.00047  -0.00056  -0.00103   0.06328
   D62        1.67163  -0.00002  -0.00058  -0.00074  -0.00132   1.67031
   D63       -3.01736  -0.00000  -0.00032  -0.00083  -0.00115  -3.01851
   D64       -1.41568   0.00002  -0.00030  -0.00041  -0.00071  -1.41639
   D65       -3.12309  -0.00001   0.00018  -0.00039  -0.00021  -3.12331
   D66       -1.51577  -0.00002   0.00007  -0.00058  -0.00051  -1.51628
   D67        0.07842  -0.00000   0.00033  -0.00067  -0.00034   0.07809
   D68        1.68010   0.00002   0.00035  -0.00025   0.00010   1.68020
         Item               Value     Threshold  Converged?
 Maximum Force            0.000251     0.000450     YES
 RMS     Force            0.000047     0.000300     YES
 Maximum Displacement     0.006266     0.001800     NO 
 RMS     Displacement     0.001029     0.001200     YES
 Predicted change in Energy=-1.365698D-06
 Lowest energy point so far.  Saving SCF results.
 GradGradGradGradGradGradGradGradGradGradGradGradGradGradGradGradGradGrad

 Leave Link  103 at Mon Nov 17 10:54:05 2025, MaxMem=  2684354560 cpu:               4.5 elap:               0.2
 (Enter /home/programes/qq/gaussian/g16.A03/g16/l202.exe)
                          Input orientation:                          
 ---------------------------------------------------------------------
 Center     Atomic      Atomic             Coordinates (Angstroms)
 Number     Number       Type             X           Y           Z
 ---------------------------------------------------------------------
      1          6           0       -2.287859    0.298787    0.031048
      2          6           0       -0.892329    0.339423   -0.063325
      3          6           0       -0.235528    1.567400   -0.042389
      4          6           0       -0.987382    2.735761    0.076527
      5          6           0       -2.371511    2.627502    0.165719
      6          6           0       -3.053815   -0.969898    0.026436
      7          6           0       -2.439695   -2.222750   -0.078256
      8          6           0       -3.219929   -3.376370   -0.066055
      9          6           0       -4.603927   -3.256524    0.055196
     10          6           0       -5.153043   -1.982161    0.154777
     11          1           0       -0.316899   -0.579126   -0.152978
     12          1           0        0.851689    1.607502   -0.116498
     13          1           0       -0.518660    3.719016    0.099653
     14          1           0       -3.001092    3.511648    0.258200
     15          1           0       -1.359024   -2.302370   -0.169309
     16          1           0       -2.748778   -4.356352   -0.148675
     17          1           0       -5.255252   -4.129723    0.072120
     18          1           0       -6.228650   -1.837821    0.249444
     19          7           0       -4.403478   -0.865360    0.138118
     20          7           0       -3.010094    1.443912    0.141601
     21         75           0       -5.298832    1.248853    0.191256
     22          6           0       -5.352639    1.280399    2.092381
     23          6           0       -7.152073    0.798960    0.117946
     24          6           0       -5.768756    3.097345    0.117914
     25          8           0       -5.378057    1.296920    3.255443
     26          8           0       -8.270128    0.488167    0.065720
     27          8           0       -6.018072    4.230632    0.064775
     28         17           0       -5.019187    1.081240   -2.393820
 ---------------------------------------------------------------------
                    Distance matrix (angstroms):
                    1          2          3          4          5
     1  C    0.000000
     2  C    1.399308   0.000000
     3  C    2.413883   1.392750   0.000000
     4  C    2.762634   2.402297   1.394451   0.000000
     5  C    2.334105   2.734181   2.393648   1.391218   0.000000
     6  C    1.481982   2.528715   3.792803   4.243178   3.664181
     7  C    2.528469   2.993209   4.384618   5.169140   4.856863
     8  C    3.792752   4.384615   5.774779   6.508667   6.067950
     9  C    4.243229   5.169220   6.508661   6.999095   6.294256
    10  C    3.664330   4.857057   6.067966   6.294254   5.383868
    11  H    2.165474   1.087607   2.150913   3.389794   3.821710
    12  H    3.404595   2.156954   1.090478   2.166198   3.392502
    13  H    3.851329   3.404091   2.174809   1.089507   2.151470
    14  H    3.298905   3.822731   3.393935   2.165648   1.089329
    15  H    2.769277   2.684792   4.031559   5.057798   5.043909
    16  H    4.681354   5.050148   6.435725   7.311040   7.001100
    17  H    5.330930   6.247136   7.593941   8.083910   7.347436
    18  H    4.488054   5.771875   6.899146   6.958336   5.901156
    19  N    2.417136   3.717560   4.829359   4.964028   4.041007
    20  N    1.358366   2.397253   2.783400   2.400931   1.345085
    21  Re   3.161368   4.506566   5.078691   4.562088   3.235820
    22  C    3.821719   5.042507   5.551976   5.023665   3.796556
    23  C    4.890634   6.279206   6.960948   6.461913   5.118556
    24  C    4.467226   5.605222   5.743086   4.795204   3.429913
    25  O    4.576277   5.661517   6.115101   5.608368   4.511780
    26  O    5.985366   7.380426   8.107479   7.621691   6.275383
    27  O    5.419874   6.436704   6.367268   5.248106   3.984674
    28  Cl   3.735287   4.797130   5.352474   5.009542   3.994040
                    6          7          8          9         10
     6  C    0.000000
     7  C    1.399194   0.000000
     8  C    2.413971   1.392750   0.000000
     9  C    2.762668   2.402165   1.394458   0.000000
    10  C    2.334075   2.733943   2.393640   1.391203   0.000000
    11  H    2.770487   2.685767   4.032333   5.058695   5.044948
    12  H    4.681493   5.050297   6.435806   7.311085   7.001148
    13  H    5.330880   6.247128   7.593999   8.083906   7.347378
    14  H    4.487844   5.771628   6.899117   6.958335   5.901146
    15  H    2.164743   1.087419   2.151071   3.389721   3.821275
    16  H    3.404671   2.157023   1.090493   2.166278   3.392544
    17  H    3.851351   3.403897   2.174665   1.089490   2.151581
    18  H    3.298879   3.822531   3.393976   2.165681   1.089370
    19  N    1.358305   2.397034   2.783459   2.400983   1.345128
    20  N    2.416951   3.717272   4.829314   4.964058   4.041087
    21  Re   3.160716   4.505478   5.077473   4.560683   3.234508
    22  C    3.823161   5.046678   5.558129   5.029350   3.799795
    23  C    4.464634   5.601405   5.738379   4.789983   3.425218
    24  C    4.890985   6.278897   6.959838   6.460063   5.116820
    25  O    4.578979   5.668827   6.126132   5.619137   4.518532
    26  O    5.416403   6.431465   6.360543   5.240596   3.978275
    27  O    5.986134   7.380474   8.106368   7.619541   6.273370
    28  Cl   3.731956   4.788734   5.340984   4.998631   3.987191
                   11         12         13         14         15
    11  H    0.000000
    12  H    2.479571   0.000000
    13  H    4.310285   2.526474   0.000000
    14  H    4.910030   4.313942   2.496118   0.000000
    15  H    2.013916   4.491897   6.085692   6.056563   0.000000
    16  H    4.492381   6.966488   8.381328   7.882552   2.480057
    17  H    6.086438   8.381292   9.167266   7.969091   4.310232
    18  H    6.057644   7.882599   7.968994   6.247722   4.909625
    19  N    4.106920   5.813490   6.009143   4.597750   3.380564
    20  N    3.381236   3.873854   3.374181   2.071040   4.105768
    21  Re   5.317862   6.168651   5.381462   3.225574   5.316322
    22  C    5.818775   6.593924   5.769330   3.724576   5.822408
    23  C    6.977974   8.047914   7.247705   4.960744   6.577247
    24  C    6.581228   6.790057   5.286805   2.802015   6.977475
    25  O    6.383745   7.090570   6.280071   4.420231   6.390339
    26  O    8.027502   9.192043   8.397904   6.077929   7.456922
    27  O    7.462209   7.355767   5.523269   3.107494   8.027555
    28  Cl   5.467147   6.319046   5.781870   4.124657   5.458394
                   16         17         18         19         20
    16  H    0.000000
    17  H    2.526365   0.000000
    18  H    4.314048   2.496350   0.000000
    19  N    3.873927   3.374306   2.071069   0.000000
    20  N    5.813400   6.009241   4.597881   2.697086   0.000000
    21  Re   6.167386   5.380072   3.224207   2.296602   2.297571
    22  C    6.601166   5.775843   3.726541   3.053577   3.052834
    23  C    6.785082   5.281283   2.796895   3.213276   4.191958
    24  C    8.046672   7.245433   4.958293   4.191351   3.216304
    25  O    7.103563   6.292621   4.425623   3.917011   3.914699
    26  O    7.348512   5.514927   3.100259   4.097347   5.346696
    27  O    9.190764   8.395087   6.074913   5.346160   4.101176
    28  Cl   6.305779   5.769811   4.119535   3.252547   3.255203
                   21         22         23         24         25
    21  Re   0.000000
    22  C    1.902147   0.000000
    23  C    1.908476   2.714432   0.000000
    24  C    1.908698   2.715320   2.682562   0.000000
    25  O    3.065587   1.163457   3.638541   3.638442   0.000000
    26  O    3.069691   3.639605   1.161622   3.614886   4.380923
    27  O    3.069904   3.641135   3.614575   1.161603   4.381398
    28  Cl   2.605555   4.502983   3.307242   3.306863   5.664757
                   26         27         28
    26  O    0.000000
    27  O    4.367814   0.000000
    28  Cl   4.119428   4.118389   0.000000
 Symmetry turned off by external request.
 Stoichiometry    C13H8ClN2O3Re
 Framework group  C1[X(C13H8ClN2O3Re)]
 Deg. of freedom    78
 Full point group                 C1      NOp   1
 Rotational constants (GHZ):           0.3384534           0.2666180           0.1987771
 Leave Link  202 at Mon Nov 17 10:54:05 2025, MaxMem=  2684354560 cpu:               0.1 elap:               0.0
 (Enter /home/programes/qq/gaussian/g16.A03/g16/l301.exe)
 Basis read from rwf:  (5D, 7F)
 Pseudo-potential data read from rwf file.
   339 basis functions,   774 primitive gaussians,   363 cartesian basis functions
    78 alpha electrons       78 beta electrons
       nuclear repulsion energy      1754.4442775605 Hartrees.
 IExCor=  402 DFT=T Ex+Corr=B3LYP ExCW=0 ScaHFX=  0.200000
 ScaDFX=  0.800000  0.720000  1.000000  0.810000 ScalE2=  1.000000  1.000000
 IRadAn=      5 IRanWt=     -1 IRanGd=            0 ICorTp=0 IEmpDi=141
 NAtoms=   28 NActive=   28 NUniq=   28 SFac= 1.00D+00 NAtFMM=   60 NAOKFM=F Big=F
 Integral buffers will be    131072 words long.
 Raffenetti 2 integral format.
 Two-electron integral symmetry is turned off.
 R6Disp:  Grimme-D3(BJ) Dispersion energy=       -0.0842414478 Hartrees.
 Nuclear repulsion after empirical dispersion term =     1754.3600361127 Hartrees.
 No density basis found on file   724.
 ------------------------------------------------------------------------------
 Polarizable Continuum Model (PCM)
 =================================
 Model                : PCM.
 Atomic radii         : UFF (Universal Force Field).
 Polarization charges : Total charges.
 Charge compensation  : None.
 Solution method      : On-the-fly selection.
 Cavity type          : Scaled VdW (van der Waals Surface) (Alpha=1.100).
 Cavity algorithm     : GePol (No added spheres)
                        Default sphere list used, NSphG=   28.
                        Lebedev-Laikov grids with approx.  5.0 points / Ang**2.
                        Smoothing algorithm: York/Karplus (Gamma=1.0000).
                        Polarization charges: spherical gaussians, with
                                              point-specific exponents (IZeta= 3).
                        Self-potential: point-specific (ISelfS= 7).
                        Self-field    : sphere-specific E.n sum rule (ISelfD= 2).
 1st derivatives      : Analytical E(r).r(x)/FMM algorithm (CHGder, D1EAlg=3).
                        Cavity 1st derivative terms included.
 Solvent              : n,n-DiMethylFormamide, Eps=  37.219000 Eps(inf)=   2.046330
 ------------------------------------------------------------------------------
 GePol: Number of generator spheres                  =      28
 GePol: Total number of spheres                      =      28
 GePol: Number of exposed spheres                    =      27 ( 96.43%)
 GePol: Number of points                             =    2581
 GePol: Average weight of points                     =       0.13
 GePol: Minimum weight of points                     =   0.18D-08
 GePol: Maximum weight of points                     =    0.21616
 GePol: Number of points with low weight             =     116
 GePol: Fraction of low-weight points (<1% of avg)   =       4.49%
 GePol: Cavity surface area                          =    342.378 Ang**2
 GePol: Cavity volume                                =    378.137 Ang**3
 Leave Link  301 at Mon Nov 17 10:54:05 2025, MaxMem=  2684354560 cpu:               1.2 elap:               0.0
 (Enter /home/programes/qq/gaussian/g16.A03/g16/l302.exe)
 NPDir=0 NMtPBC=     1 NCelOv=     1 NCel=       1 NClECP=     1 NCelD=      1
         NCelK=      1 NCelE2=     1 NClLst=     1 CellRange=     0.0.
 One-electron integrals computed using PRISM.
   1 Symmetry operations used in ECPInt.
 ECPInt:  NShTT=   11175 NPrTT=  105620 LenC2=   10452 LenP2D=   51062.
 LDataN:  DoStor=T MaxTD1= 7 Len=  274
 NBasis=   339 RedAO= T EigKep=  3.67D-04  NBF=   339
 NBsUse=   339 1.00D-06 EigRej= -1.00D+00 NBFU=   339
 Precomputing XC quadrature grid using
 IXCGrd= 4 IRadAn=           5 IRanWt=          -1 IRanGd=           0 AccXCQ= 0.00D+00.
 Defaulting to unpruned grid for atomic number  75.
 Generated NRdTot=       0 NPtTot=           0 NUsed=           0 NTot=          32
 NSgBfM=   363   363   363   363   363 MxSgAt=    28 MxSgA2=    28.
 Leave Link  302 at Mon Nov 17 10:54:06 2025, MaxMem=  2684354560 cpu:              12.2 elap:               0.4
 (Enter /home/programes/qq/gaussian/g16.A03/g16/l303.exe)
 DipDrv:  MaxL=1.
 Leave Link  303 at Mon Nov 17 10:54:06 2025, MaxMem=  2684354560 cpu:               1.2 elap:               0.1
 (Enter /home/programes/qq/gaussian/g16.A03/g16/l401.exe)
 Initial guess from the checkpoint file:  "re-bpy-co3-cl.chk"
 B after Tr=    -0.000198    0.000178   -0.000685
         Rot=    1.000000    0.000018   -0.000050   -0.000006 Ang=   0.01 deg.
 Guess basis will be translated and rotated to current coordinates.
 JPrj=2 DoOrth=T DoCkMO=T.
 Leave Link  401 at Mon Nov 17 10:54:06 2025, MaxMem=  2684354560 cpu:               5.5 elap:               0.2
 (Enter /home/programes/qq/gaussian/g16.A03/g16/l502.exe)
 Two-electron integral symmetry not used.
 Closed shell SCF:
 Using DIIS extrapolation, IDIIS=  1040.
 NGot=  2684354560 LenX=  2684076439 LenY=  2683944229
 Requested convergence on RMS density matrix=1.00D-08 within 128 cycles.
 Requested convergence on MAX density matrix=1.00D-06.
 Requested convergence on             energy=1.00D-06.
 No special actions if energy rises.
 Fock matrices will be formed incrementally for  20 cycles.

 Cycle   1  Pass 1  IDiag  1:
 FoFJK:  IHMeth= 1 ICntrl=       0 DoSepK=F KAlg= 0 I1Cent=           0 FoldK=F
 IRaf= 870000000 NMat=       1 IRICut=       1 DoRegI=T DoRafI=F ISym2E= 0 IDoP0=0 IntGTp=1.
 FoFCou: FMM=F IPFlag=           0 FMFlag=      100000 FMFlg1=           0
         NFxFlg=           0 DoJE=F BraDBF=F KetDBF=F FulRan=T
         wScrn=  0.000000 ICntrl=         0 IOpCl=  0 I1Cent=           0 NGrid=           0
         NMat0=    1 NMatS0=      1 NMatT0=    0 NMatD0=    1 NMtDS0=    0 NMtDT0=    0
 Symmetry not used in FoFCou.
 Defaulting to unpruned grid for atomic number  75.
 Defaulting to unpruned grid for atomic number  75.
 Defaulting to unpruned grid for atomic number  75.
 Defaulting to unpruned grid for atomic number  75.
 Defaulting to unpruned grid for atomic number  75.
 Defaulting to unpruned grid for atomic number  75.
 Defaulting to unpruned grid for atomic number  75.
 Defaulting to unpruned grid for atomic number  75.
 Defaulting to unpruned grid for atomic number  75.
 Defaulting to unpruned grid for atomic number  75.
 Defaulting to unpruned grid for atomic number  75.
 Defaulting to unpruned grid for atomic number  75.
 Defaulting to unpruned grid for atomic number  75.
 Defaulting to unpruned grid for atomic number  75.
 Defaulting to unpruned grid for atomic number  75.
 Defaulting to unpruned grid for atomic number  75.
 Defaulting to unpruned grid for atomic number  75.
 Defaulting to unpruned grid for atomic number  75.
 Defaulting to unpruned grid for atomic number  75.
 Defaulting to unpruned grid for atomic number  75.
 Defaulting to unpruned grid for atomic number  75.
 Defaulting to unpruned grid for atomic number  75.
 Defaulting to unpruned grid for atomic number  75.
 Defaulting to unpruned grid for atomic number  75.
 Defaulting to unpruned grid for atomic number  75.
 Defaulting to unpruned grid for atomic number  75.
 Defaulting to unpruned grid for atomic number  75.
 Defaulting to unpruned grid for atomic number  75.
 Defaulting to unpruned grid for atomic number  75.
 Defaulting to unpruned grid for atomic number  75.
 Defaulting to unpruned grid for atomic number  75.
 Defaulting to unpruned grid for atomic number  75.
 Inv3:  Mode=1 IEnd=    19984683.
 Iteration    1 A*A^-1 deviation from unit magnitude is 5.88D-15 for   2553.
 Iteration    1 A*A^-1 deviation from orthogonality  is 2.94D-15 for   2578   2487.
 Iteration    1 A^-1*A deviation from unit magnitude is 5.66D-15 for   2553.
 Iteration    1 A^-1*A deviation from orthogonality  is 2.99D-15 for   2578   2487.
 E= -1375.06803706727    
 DIIS: error= 1.50D-04 at cycle   1 NSaved=   1.
 NSaved= 1 IEnMin= 1 EnMin= -1375.06803706727     IErMin= 1 ErrMin= 1.50D-04
 ErrMax= 1.50D-04  0.00D+00 EMaxC= 1.00D-01 BMatC= 1.04D-05 BMatP= 1.04D-05
 IDIUse=3 WtCom= 9.99D-01 WtEn= 1.50D-03
 Coeff-Com:  0.100D+01
 Coeff-En:   0.100D+01
 Coeff:      0.100D+01
 Gap=     0.613 Goal=   None    Shift=    0.000
 RMSDP=1.47D-05 MaxDP=1.10D-03              OVMax= 9.91D-04

 Cycle   2  Pass 1  IDiag  1:
 RMSU=  1.47D-05    CP:  1.00D+00
 E= -1375.06805330221     Delta-E=       -0.000016234940 Rises=F Damp=F
 DIIS: error= 1.67D-05 at cycle   2 NSaved=   2.
 NSaved= 2 IEnMin= 2 EnMin= -1375.06805330221     IErMin= 2 ErrMin= 1.67D-05
 ErrMax= 1.67D-05  0.00D+00 EMaxC= 1.00D-01 BMatC= 1.43D-07 BMatP= 1.04D-05
 IDIUse=1 WtCom= 1.00D+00 WtEn= 0.00D+00
 Coeff-Com: -0.721D-01 0.107D+01
 Coeff:     -0.721D-01 0.107D+01
 Gap=     0.137 Goal=   None    Shift=    0.000
 RMSDP=2.38D-06 MaxDP=1.05D-04 DE=-1.62D-05 OVMax= 1.81D-04

 Cycle   3  Pass 1  IDiag  1:
 RMSU=  2.09D-06    CP:  1.00D+00  1.08D+00
 E= -1375.06805342428     Delta-E=       -0.000000122077 Rises=F Damp=F
 DIIS: error= 1.58D-05 at cycle   3 NSaved=   3.
 NSaved= 3 IEnMin= 3 EnMin= -1375.06805342428     IErMin= 3 ErrMin= 1.58D-05
 ErrMax= 1.58D-05  0.00D+00 EMaxC= 1.00D-01 BMatC= 1.19D-07 BMatP= 1.43D-07
 IDIUse=1 WtCom= 1.00D+00 WtEn= 0.00D+00
 Coeff-Com: -0.432D-01 0.574D+00 0.469D+00
 Coeff:     -0.432D-01 0.574D+00 0.469D+00
 Gap=     0.137 Goal=   None    Shift=    0.000
 RMSDP=1.59D-06 MaxDP=1.27D-04 DE=-1.22D-07 OVMax= 1.51D-04

 Cycle   4  Pass 1  IDiag  1:
 RMSU=  1.09D-06    CP:  1.00D+00  1.09D+00  4.57D-01
 E= -1375.06805345743     Delta-E=       -0.000000033144 Rises=F Damp=F
 DIIS: error= 1.65D-05 at cycle   4 NSaved=   4.
 NSaved= 4 IEnMin= 4 EnMin= -1375.06805345743     IErMin= 3 ErrMin= 1.58D-05
 ErrMax= 1.65D-05  0.00D+00 EMaxC= 1.00D-01 BMatC= 7.91D-08 BMatP= 1.19D-07
 IDIUse=1 WtCom= 1.00D+00 WtEn= 0.00D+00
 Coeff-Com: -0.203D-01 0.256D+00 0.400D+00 0.364D+00
 Coeff:     -0.203D-01 0.256D+00 0.400D+00 0.364D+00
 Gap=     0.137 Goal=   None    Shift=    0.000
 RMSDP=8.76D-07 MaxDP=8.02D-05 DE=-3.31D-08 OVMax= 9.22D-05

 Cycle   5  Pass 1  IDiag  1:
 RMSU=  5.16D-07    CP:  1.00D+00  1.09D+00  6.02D-01  4.21D-01
 E= -1375.06805352222     Delta-E=       -0.000000064796 Rises=F Damp=F
 DIIS: error= 5.54D-06 at cycle   5 NSaved=   5.
 NSaved= 5 IEnMin= 5 EnMin= -1375.06805352222     IErMin= 5 ErrMin= 5.54D-06
 ErrMax= 5.54D-06  0.00D+00 EMaxC= 1.00D-01 BMatC= 8.66D-09 BMatP= 7.91D-08
 IDIUse=1 WtCom= 1.00D+00 WtEn= 0.00D+00
 Coeff-Com: -0.686D-02 0.822D-01 0.212D+00 0.274D+00 0.438D+00
 Coeff:     -0.686D-02 0.822D-01 0.212D+00 0.274D+00 0.438D+00
 Gap=     0.137 Goal=   None    Shift=    0.000
 RMSDP=3.24D-07 MaxDP=2.29D-05 DE=-6.48D-08 OVMax= 3.14D-05

 Cycle   6  Pass 1  IDiag  1:
 RMSU=  1.62D-07    CP:  1.00D+00  1.09D+00  6.29D-01  5.50D-01  5.45D-01
 E= -1375.06805352981     Delta-E=       -0.000000007581 Rises=F Damp=F
 DIIS: error= 1.19D-06 at cycle   6 NSaved=   6.
 NSaved= 6 IEnMin= 6 EnMin= -1375.06805352981     IErMin= 6 ErrMin= 1.19D-06
 ErrMax= 1.19D-06  0.00D+00 EMaxC= 1.00D-01 BMatC= 8.23D-10 BMatP= 8.66D-09
 IDIUse=1 WtCom= 1.00D+00 WtEn= 0.00D+00
 Coeff-Com:  0.120D-03-0.638D-02 0.427D-01 0.893D-01 0.279D+00 0.595D+00
 Coeff:      0.120D-03-0.638D-02 0.427D-01 0.893D-01 0.279D+00 0.595D+00
 Gap=     0.137 Goal=   None    Shift=    0.000
 RMSDP=9.77D-08 MaxDP=5.52D-06 DE=-7.58D-09 OVMax= 6.76D-06

 Cycle   7  Pass 1  IDiag  1:
 RMSU=  5.21D-08    CP:  1.00D+00  1.09D+00  6.44D-01  5.51D-01  6.31D-01
                    CP:  6.19D-01
 E= -1375.06805353050     Delta-E=       -0.000000000692 Rises=F Damp=F
 DIIS: error= 4.23D-07 at cycle   7 NSaved=   7.
 NSaved= 7 IEnMin= 7 EnMin= -1375.06805353050     IErMin= 7 ErrMin= 4.23D-07
 ErrMax= 4.23D-07  0.00D+00 EMaxC= 1.00D-01 BMatC= 1.17D-10 BMatP= 8.23D-10
 IDIUse=1 WtCom= 1.00D+00 WtEn= 0.00D+00
 Coeff-Com:  0.831D-03-0.136D-01 0.870D-03 0.225D-01 0.119D+00 0.370D+00
 Coeff-Com:  0.500D+00
 Coeff:      0.831D-03-0.136D-01 0.870D-03 0.225D-01 0.119D+00 0.370D+00
 Coeff:      0.500D+00
 Gap=     0.137 Goal=   None    Shift=    0.000
 RMSDP=3.47D-08 MaxDP=1.57D-06 DE=-6.92D-10 OVMax= 3.47D-06

 Cycle   8  Pass 1  IDiag  1:
 RMSU=  2.01D-08    CP:  1.00D+00  1.09D+00  6.42D-01  5.60D-01  6.48D-01
                    CP:  6.68D-01  5.57D-01
 E= -1375.06805353067     Delta-E=       -0.000000000177 Rises=F Damp=F
 DIIS: error= 1.02D-07 at cycle   8 NSaved=   8.
 NSaved= 8 IEnMin= 8 EnMin= -1375.06805353067     IErMin= 8 ErrMin= 1.02D-07
 ErrMax= 1.02D-07  0.00D+00 EMaxC= 1.00D-01 BMatC= 7.63D-12 BMatP= 1.17D-10
 IDIUse=1 WtCom= 1.00D+00 WtEn= 0.00D+00
 Coeff-Com:  0.414D-03-0.653D-02-0.433D-02 0.141D-02 0.291D-01 0.127D+00
 Coeff-Com:  0.265D+00 0.588D+00
 Coeff:      0.414D-03-0.653D-02-0.433D-02 0.141D-02 0.291D-01 0.127D+00
 Coeff:      0.265D+00 0.588D+00
 Gap=     0.137 Goal=   None    Shift=    0.000
 RMSDP=1.08D-08 MaxDP=4.51D-07 DE=-1.77D-10 OVMax= 1.32D-06

 Cycle   9  Pass 1  IDiag  1:
 RMSU=  6.58D-09    CP:  1.00D+00  1.09D+00  6.43D-01  5.60D-01  6.50D-01
                    CP:  6.96D-01  6.52D-01  7.52D-01
 E= -1375.06805353061     Delta-E=        0.000000000060 Rises=F Damp=F
 DIIS: error= 2.05D-08 at cycle   9 NSaved=   9.
 NSaved= 9 IEnMin= 8 EnMin= -1375.06805353067     IErMin= 9 ErrMin= 2.05D-08
 ErrMax= 2.05D-08  0.00D+00 EMaxC= 1.00D-01 BMatC= 4.23D-13 BMatP= 7.63D-12
 IDIUse=1 WtCom= 1.00D+00 WtEn= 0.00D+00
 Coeff-Com:  0.931D-04-0.138D-02-0.204D-02-0.172D-02 0.101D-02 0.189D-01
 Coeff-Com:  0.645D-01 0.244D+00 0.677D+00
 Coeff:      0.931D-04-0.138D-02-0.204D-02-0.172D-02 0.101D-02 0.189D-01
 Coeff:      0.645D-01 0.244D+00 0.677D+00
 Gap=     0.137 Goal=   None    Shift=    0.000
 RMSDP=3.12D-09 MaxDP=1.72D-07 DE= 6.00D-11 OVMax= 3.03D-07

 Error on total polarization charges =  0.01128
 SCF Done:  E(RB3LYP) =  -1375.06805353     A.U. after    9 cycles
            NFock=  9  Conv=0.31D-08     -V/T= 2.0464
 KE= 1.314130593434D+03 PE=-6.710768633512D+03 EE= 2.267209950434D+03
 Leave Link  502 at Mon Nov 17 10:54:31 2025, MaxMem=  2684354560 cpu:             732.8 elap:              24.7
 (Enter /home/programes/qq/gaussian/g16.A03/g16/l701.exe)
 ... and contract with generalized density number  0.
 Compute integral first derivatives.
 R6Disp: Adding Grimme-D3(BJ) dispersion energy 1st derivatives to the gradient.
   1 Symmetry operations used in ECPInt.
 ECPInt:  NShTT=   11175 NPrTT=  105620 LenC2=   10452 LenP2D=   51062.
 LDataN:  DoStor=T MaxTD1= 8 Len=  415
 D1PCM: PCM CHGder 1st derivatives, ID1Alg=3 FixD1E=F DoIter=F DoCFld=F I1PDM=0.
 GePol: Maximum number of non-zero 1st derivatives   =     255
 Leave Link  701 at Mon Nov 17 10:54:32 2025, MaxMem=  2684354560 cpu:              44.8 elap:               1.4
 (Enter /home/programes/qq/gaussian/g16.A03/g16/l702.exe)
 L702 exits ... SP integral derivatives will be done elsewhere.
 Leave Link  702 at Mon Nov 17 10:54:32 2025, MaxMem=  2684354560 cpu:               0.2 elap:               0.0
 (Enter /home/programes/qq/gaussian/g16.A03/g16/l703.exe)
 Integral derivatives from FoFJK, PRISM(SPDF).
 Compute integral first derivatives, UseDBF=F ICtDFT=           0.
 Calling FoFJK, ICntrl=      2127 FMM=F ISym2X=0 I1Cent= 0 IOpClX= 0 NMat=1 NMatS=1 NMatT=0.
 FoFJK:  IHMeth= 1 ICntrl=    2127 DoSepK=F KAlg= 0 I1Cent=           0 FoldK=F
 IRaf=         0 NMat=       1 IRICut=       1 DoRegI=T DoRafI=F ISym2E= 0 IDoP0=0 IntGTp=1.
 FoFCou: FMM=F IPFlag=           0 FMFlag=      100000 FMFlg1=         800
         NFxFlg=           0 DoJE=F BraDBF=F KetDBF=F FulRan=T
         wScrn=  0.000000 ICntrl=      2127 IOpCl=  0 I1Cent=           0 NGrid=           0
         NMat0=    1 NMatS0=      1 NMatT0=    0 NMatD0=    1 NMtDS0=    0 NMtDT0=    0
 Symmetry not used in FoFCou.
 Defaulting to unpruned grid for atomic number  75.
 Defaulting to unpruned grid for atomic number  75.
 Defaulting to unpruned grid for atomic number  75.
 Defaulting to unpruned grid for atomic number  75.
 Defaulting to unpruned grid for atomic number  75.
 Defaulting to unpruned grid for atomic number  75.
 Defaulting to unpruned grid for atomic number  75.
 Defaulting to unpruned grid for atomic number  75.
 Defaulting to unpruned grid for atomic number  75.
 Defaulting to unpruned grid for atomic number  75.
 Defaulting to unpruned grid for atomic number  75.
 Defaulting to unpruned grid for atomic number  75.
 Defaulting to unpruned grid for atomic number  75.
 Defaulting to unpruned grid for atomic number  75.
 Defaulting to unpruned grid for atomic number  75.
 Defaulting to unpruned grid for atomic number  75.
 Defaulting to unpruned grid for atomic number  75.
 Defaulting to unpruned grid for atomic number  75.
 Defaulting to unpruned grid for atomic number  75.
 Defaulting to unpruned grid for atomic number  75.
 Defaulting to unpruned grid for atomic number  75.
 Defaulting to unpruned grid for atomic number  75.
 Defaulting to unpruned grid for atomic number  75.
 Defaulting to unpruned grid for atomic number  75.
 Defaulting to unpruned grid for atomic number  75.
 Defaulting to unpruned grid for atomic number  75.
 Defaulting to unpruned grid for atomic number  75.
 Defaulting to unpruned grid for atomic number  75.
 Defaulting to unpruned grid for atomic number  75.
 Defaulting to unpruned grid for atomic number  75.
 Defaulting to unpruned grid for atomic number  75.
 Defaulting to unpruned grid for atomic number  75.
 Leave Link  703 at Mon Nov 17 10:54:37 2025, MaxMem=  2684354560 cpu:             149.6 elap:               4.7
 (Enter /home/programes/qq/gaussian/g16.A03/g16/l716.exe)
 Dipole        = 4.55393908D+00-2.74637725D+00 1.70819035D+00
 -------------------------------------------------------------------
 Center     Atomic                   Forces (Hartrees/Bohr)
 Number     Number              X              Y              Z
 -------------------------------------------------------------------
      1        6          -0.000024115   -0.000001945   -0.000019060
      2        6          -0.000011083    0.000008987    0.000006667
      3        6          -0.000001314   -0.000007508    0.000012178
      4        6          -0.000002035   -0.000001003    0.000000367
      5        6          -0.000006222   -0.000022335   -0.000010480
      6        6          -0.000009804    0.000016452   -0.000016502
      7        6          -0.000014080    0.000006431    0.000001713
      8        6           0.000007679    0.000003703    0.000017366
      9        6          -0.000001024    0.000003444    0.000005442
     10        6           0.000017262    0.000013670   -0.000008042
     11        1           0.000002016   -0.000004312    0.000000704
     12        1           0.000000558   -0.000003396    0.000000853
     13        1          -0.000002156   -0.000001270    0.000000319
     14        1          -0.000003450    0.000000966   -0.000020133
     15        1           0.000004161    0.000000583    0.000001411
     16        1           0.000003476    0.000000845    0.000005281
     17        1           0.000000528    0.000002501    0.000006856
     18        1          -0.000002460    0.000001198   -0.000012055
     19        7          -0.000055365    0.000048184    0.000042306
     20        7          -0.000052089    0.000032773    0.000044754
     21       75           0.000288320   -0.000310149   -0.000261140
     22        6          -0.000157936    0.000308578   -0.000024451
     23        6          -0.000036771    0.000095794    0.000141488
     24        6          -0.000109220   -0.000015356    0.000105984
     25        8           0.000053301   -0.000128887    0.000019413
     26        8           0.000049518   -0.000040955   -0.000058136
     27        8           0.000063346   -0.000029037   -0.000036538
     28       17          -0.000001043    0.000022045    0.000053433
 -------------------------------------------------------------------
 Cartesian Forces:  Max     0.000310149 RMS     0.000075332
 Leave Link  716 at Mon Nov 17 10:54:37 2025, MaxMem=  2684354560 cpu:               0.3 elap:               0.0
 (Enter /home/programes/qq/gaussian/g16.A03/g16/l103.exe)

 GradGradGradGradGradGradGradGradGradGradGradGradGradGradGradGradGradGrad
 Berny optimization.
 Using GEDIIS/GDIIS optimizer.
 FormGI is forming the generalized inverse of G from B-inverse, IUseBI=4.
 Internal  Forces:  Max     0.000298802 RMS     0.000037299
 Search for a local minimum.
 Step number  13 out of a maximum of  168
 All quantities printed in internal units (Hartrees-Bohrs-Radians)
 RMS Force = .37299D-04 SwitMx=.10000D-02 MixMth= 2
 Mixed Optimization -- En-DIIS/RFO-DIIS
 Swapping is turned off.
 Update second derivatives using D2CorX and points    5    6    7    8    9
                                                     10   11   12   13
 DE= -2.13D-07 DEPred=-1.37D-06 R= 1.56D-01
 Trust test= 1.56D-01 RLast= 7.41D-03 DXMaxT set to 1.09D+00
 ITU=  0  1  0  1  1  1  0  0  1  1 -1  1  0
     Eigenvalues ---    0.00405   0.00908   0.01067   0.01498   0.01633
     Eigenvalues ---    0.01776   0.01835   0.01866   0.01942   0.01998
     Eigenvalues ---    0.02020   0.02051   0.02148   0.02162   0.02242
     Eigenvalues ---    0.02250   0.02312   0.02353   0.02848   0.04264
     Eigenvalues ---    0.04665   0.04683   0.04693   0.06593   0.07777
     Eigenvalues ---    0.08599   0.09826   0.11941   0.12226   0.12935
     Eigenvalues ---    0.13951   0.15339   0.15731   0.15995   0.16000
     Eigenvalues ---    0.16000   0.16000   0.16000   0.16002   0.16053
     Eigenvalues ---    0.18214   0.21525   0.22000   0.22049   0.22611
     Eigenvalues ---    0.22727   0.23927   0.24412   0.24488   0.24858
     Eigenvalues ---    0.24969   0.25591   0.29619   0.34506   0.34513
     Eigenvalues ---    0.34526   0.34545   0.34584   0.34614   0.34735
     Eigenvalues ---    0.34745   0.35905   0.35928   0.37941   0.38701
     Eigenvalues ---    0.39153   0.40153   0.47121   0.47424   0.49398
     Eigenvalues ---    0.50160   0.50906   0.51500   0.58262   1.10367
     Eigenvalues ---    1.18397   1.19570   1.46249
 En-DIIS/RFO-DIIS/Sim-DIIS IScMMF=       -3 using points:    13   12   11   10    9
 RFO step:  Lambda=-1.32446595D-06.
 NNeg= 0 NGDIIS= 5 SimSw=  2.50D-01 Rises=F DC= -2.13D-07 SmlDif=  1.00D-05
 NRisDI= 0 DoIntr=F SqrtH=F CThrHd= 10.0 CDAdj=  3.0
 RMS Error=  0.2767238033D-03 NUsed= 5 OKEnD=F EnDIS=F
 InvSVX:  RCond= 2.89D-06 Info=           0 Equed=N FErr=  4.32D-15 BErr=  7.14D-17
 DidBck=T Rises=F RFO-DIIS coefs:    0.66115    0.44079   -0.05801   -0.04206   -0.00187
 Iteration  1 RMS(Cart)=  0.00041159 RMS(Int)=  0.00000031
 Iteration  2 RMS(Cart)=  0.00000033 RMS(Int)=  0.00000011
 ITry= 1 IFail=0 DXMaxC= 2.49D-03 DCOld= 1.00D+10 DXMaxT= 1.09D+00 DXLimC= 3.00D+00 Rises=F
 Variable       Old X    -DE/DX   Delta X   Delta X   Delta X     New X
                                 (Linear)    (Quad)   (Total)
    R1        2.64431  -0.00001   0.00008  -0.00010  -0.00002   2.64429
    R2        2.80054  -0.00002  -0.00004  -0.00009  -0.00013   2.80041
    R3        2.56694  -0.00002   0.00006  -0.00006   0.00000   2.56694
    R4        2.63192  -0.00001  -0.00001  -0.00004  -0.00005   2.63187
    R5        2.05528   0.00000  -0.00002   0.00004   0.00002   2.05530
    R6        2.63513   0.00000   0.00002   0.00003   0.00004   2.63518
    R7        2.06070   0.00000   0.00000  -0.00000   0.00000   2.06071
    R8        2.62902  -0.00000  -0.00001  -0.00001  -0.00002   2.62900
    R9        2.05887  -0.00000   0.00001  -0.00001  -0.00001   2.05886
   R10        2.05853   0.00000   0.00000  -0.00000   0.00000   2.05854
   R11        2.54184  -0.00003   0.00002  -0.00005  -0.00003   2.54181
   R12        2.64409  -0.00002   0.00008  -0.00010  -0.00002   2.64407
   R13        2.56682  -0.00002   0.00006  -0.00005   0.00001   2.56683
   R14        2.63192  -0.00001  -0.00001  -0.00004  -0.00005   2.63187
   R15        2.05492   0.00000  -0.00002   0.00004   0.00002   2.05494
   R16        2.63514   0.00000   0.00002   0.00003   0.00004   2.63519
   R17        2.06073   0.00000   0.00000  -0.00000   0.00000   2.06073
   R18        2.62899  -0.00000  -0.00000  -0.00002  -0.00002   2.62897
   R19        2.05884  -0.00000   0.00001  -0.00001  -0.00001   2.05883
   R20        2.05861   0.00000   0.00001  -0.00000   0.00000   2.05861
   R21        2.54192  -0.00002   0.00001  -0.00004  -0.00002   2.54190
   R22        4.33995  -0.00010  -0.00002  -0.00012  -0.00014   4.33980
   R23        4.34178  -0.00009  -0.00006   0.00001  -0.00005   4.34173
   R24        3.59454   0.00001   0.00003  -0.00002   0.00001   3.59455
   R25        3.60650  -0.00003   0.00003  -0.00009  -0.00006   3.60643
   R26        3.60692  -0.00003   0.00000  -0.00005  -0.00005   3.60687
   R27        4.92379  -0.00006   0.00031  -0.00038  -0.00006   4.92372
   R28        2.19861   0.00002  -0.00002   0.00004   0.00002   2.19864
   R29        2.19515  -0.00003  -0.00001   0.00001  -0.00000   2.19515
   R30        2.19511  -0.00004  -0.00001   0.00000  -0.00001   2.19510
    A1        2.14135  -0.00001   0.00004  -0.00010  -0.00006   2.14129
    A2        2.10745   0.00000  -0.00007   0.00007   0.00000   2.10746
    A3        2.03435   0.00001   0.00003   0.00003   0.00005   2.03441
    A4        2.08852   0.00000   0.00004  -0.00004   0.00000   2.08852
    A5        2.10445  -0.00000  -0.00004   0.00003  -0.00001   2.10444
    A6        2.09021   0.00000  -0.00000   0.00001   0.00001   2.09022
    A7        2.07802  -0.00000  -0.00000   0.00000  -0.00000   2.07802
    A8        2.09622  -0.00000   0.00004  -0.00005  -0.00001   2.09620
    A9        2.10894   0.00001  -0.00003   0.00005   0.00002   2.10896
   A10        2.06769  -0.00000  -0.00001   0.00001  -0.00000   2.06769
   A11        2.12469   0.00000  -0.00003   0.00003   0.00000   2.12469
   A12        2.09081  -0.00000   0.00003  -0.00003  -0.00000   2.09080
   A13        2.11448   0.00000   0.00001   0.00001   0.00001   2.11449
   A14        2.14083  -0.00000   0.00002  -0.00003  -0.00001   2.14082
   A15        2.02788  -0.00000  -0.00003   0.00002  -0.00001   2.02787
   A16        2.14114  -0.00001   0.00005  -0.00011  -0.00006   2.14108
   A17        2.03467   0.00001   0.00002   0.00003   0.00005   2.03473
   A18        2.10736   0.00000  -0.00007   0.00008   0.00001   2.10736
   A19        2.08879   0.00000   0.00004  -0.00004   0.00001   2.08879
   A20        2.10367  -0.00000  -0.00004   0.00002  -0.00002   2.10366
   A21        2.09073   0.00000  -0.00000   0.00001   0.00001   2.09074
   A22        2.07783  -0.00001  -0.00000  -0.00000  -0.00001   2.07782
   A23        2.09631  -0.00000   0.00004  -0.00005  -0.00001   2.09630
   A24        2.10905   0.00001  -0.00003   0.00005   0.00002   2.10907
   A25        2.06769  -0.00000  -0.00001   0.00001  -0.00000   2.06769
   A26        2.12446   0.00000  -0.00003   0.00003   0.00001   2.12447
   A27        2.09103  -0.00000   0.00003  -0.00004  -0.00001   2.09103
   A28        2.11450   0.00000   0.00001  -0.00001   0.00000   2.11450
   A29        2.14087  -0.00000   0.00002  -0.00002   0.00000   2.14087
   A30        2.02781   0.00000  -0.00003   0.00003  -0.00000   2.02781
   A31        2.08383   0.00001   0.00002  -0.00002  -0.00000   2.08382
   A32        2.04894  -0.00002  -0.00004  -0.00004  -0.00009   2.04886
   A33        2.14932   0.00002   0.00003   0.00004   0.00007   2.14938
   A34        2.08385   0.00001   0.00001  -0.00001   0.00001   2.08385
   A35        2.04861  -0.00003  -0.00004  -0.00007  -0.00011   2.04850
   A36        2.14986   0.00002   0.00003   0.00006   0.00009   2.14996
   A37        1.25486   0.00003   0.00005   0.00002   0.00007   1.25493
   A38        1.62024   0.00007   0.00011   0.00011   0.00021   1.62045
   A39        1.73217   0.00000   0.00006  -0.00013  -0.00007   1.73210
   A40        1.44646   0.00002   0.00009   0.00002   0.00011   1.44657
   A41        1.61919   0.00003   0.00002  -0.00003  -0.00001   1.61917
   A42        1.73372   0.00000   0.00006  -0.00006  -0.00000   1.73372
   A43        1.44759   0.00000   0.00008  -0.00008   0.00000   1.44759
   A44        1.58563  -0.00006  -0.00004  -0.00026  -0.00030   1.58533
   A45        1.58618  -0.00010  -0.00012  -0.00037  -0.00049   1.58569
   A46        1.55854  -0.00003  -0.00016   0.00020   0.00004   1.55859
   A47        1.62176   0.00004  -0.00002   0.00039   0.00036   1.62212
   A48        1.62142   0.00002  -0.00007   0.00022   0.00015   1.62157
   A49        2.98858   0.00004   0.00011  -0.00004   0.00007   2.98865
   A50        2.98703   0.00003   0.00011  -0.00011   0.00000   2.98703
   A51        3.06670   0.00008   0.00020   0.00013   0.00033   3.06702
   A52        3.13696   0.00002   0.00010   0.00005   0.00016   3.13712
   A53        3.10848  -0.00012  -0.00066  -0.00043  -0.00109   3.10739
   A54        3.10906  -0.00012  -0.00074  -0.00035  -0.00109   3.10797
   A55        3.08179   0.00004   0.00000   0.00026   0.00027   3.08206
   A56        3.19948  -0.00004  -0.00003  -0.00032  -0.00035   3.19913
   A57        3.19637  -0.00001  -0.00004   0.00016   0.00012   3.19650
   A58        3.14703   0.00030   0.00187   0.00024   0.00211   3.14914
   A59        3.14753   0.00011   0.00074  -0.00009   0.00065   3.14818
   A60        3.13467  -0.00006  -0.00008  -0.00042  -0.00050   3.13417
    D1       -3.13283   0.00000  -0.00004   0.00010   0.00006  -3.13276
    D2        0.00895   0.00000  -0.00004   0.00008   0.00004   0.00899
    D3        0.00114   0.00000  -0.00010   0.00012   0.00002   0.00116
    D4       -3.14027  -0.00000  -0.00011   0.00010  -0.00001  -3.14028
    D5       -0.00478  -0.00000   0.00005  -0.00023  -0.00018  -0.00496
    D6        3.13019  -0.00001  -0.00001  -0.00021  -0.00022   3.12997
    D7       -3.13905  -0.00000   0.00011  -0.00025  -0.00014  -3.13918
    D8       -0.00408  -0.00000   0.00006  -0.00023  -0.00017  -0.00425
    D9       -0.00481   0.00001   0.00013   0.00021   0.00034  -0.00447
   D10        3.09356   0.00000   0.00012  -0.00009   0.00003   3.09360
   D11        3.12961   0.00001   0.00006   0.00023   0.00029   3.12990
   D12       -0.05520  -0.00000   0.00006  -0.00007  -0.00001  -0.05521
   D13        0.00304  -0.00001   0.00003  -0.00030  -0.00026   0.00278
   D14       -3.14049  -0.00000   0.00015  -0.00024  -0.00009  -3.14058
   D15       -3.13873  -0.00001   0.00004  -0.00028  -0.00024  -3.13897
   D16        0.00092   0.00000   0.00016  -0.00022  -0.00006   0.00085
   D17       -0.00352   0.00000   0.00001   0.00015   0.00016  -0.00336
   D18        3.13917   0.00000   0.00012   0.00006   0.00019   3.13936
   D19        3.14003  -0.00000  -0.00011   0.00009  -0.00002   3.14001
   D20       -0.00046  -0.00000   0.00000   0.00001   0.00001  -0.00045
   D21       -3.13979   0.00001  -0.00006   0.00033   0.00027  -3.13952
   D22       -0.00015   0.00001   0.00001   0.00019   0.00020   0.00005
   D23        0.00072   0.00001  -0.00017   0.00041   0.00024   0.00096
   D24        3.14036   0.00000  -0.00010   0.00027   0.00018   3.14054
   D25        0.00435  -0.00001  -0.00009  -0.00037  -0.00045   0.00390
   D26       -3.09138  -0.00000  -0.00007  -0.00005  -0.00013  -3.09151
   D27       -3.13911  -0.00001  -0.00002  -0.00050  -0.00052  -3.13962
   D28        0.04835  -0.00000  -0.00001  -0.00019  -0.00019   0.04816
   D29        3.13313  -0.00001   0.00005  -0.00013  -0.00009   3.13305
   D30       -0.00882  -0.00000   0.00007  -0.00016  -0.00009  -0.00891
   D31       -0.00157  -0.00000   0.00010  -0.00015  -0.00005  -0.00162
   D32        3.13967  -0.00000   0.00012  -0.00017  -0.00005   3.13961
   D33       -3.12903  -0.00000  -0.00008  -0.00014  -0.00023  -3.12926
   D34        0.06139   0.00001  -0.00015   0.00042   0.00027   0.06166
   D35        0.00608  -0.00000  -0.00014  -0.00013  -0.00026   0.00581
   D36       -3.08669   0.00000  -0.00020   0.00043   0.00023  -3.08646
   D37       -0.00350   0.00000  -0.00003   0.00027   0.00024  -0.00326
   D38        3.14004  -0.00000  -0.00014   0.00019   0.00005   3.14009
   D39        3.13845   0.00000  -0.00005   0.00029   0.00025   3.13869
   D40       -0.00120  -0.00000  -0.00016   0.00021   0.00005  -0.00115
   D41        0.00402  -0.00000  -0.00001  -0.00012  -0.00013   0.00389
   D42       -3.13879  -0.00000  -0.00011  -0.00008  -0.00020  -3.13899
   D43       -3.13953   0.00000   0.00010  -0.00004   0.00006  -3.13947
   D44        0.00084   0.00000  -0.00000   0.00000  -0.00000   0.00084
   D45        3.13976  -0.00001   0.00006  -0.00035  -0.00029   3.13947
   D46        0.00050  -0.00000  -0.00002  -0.00017  -0.00019   0.00031
   D47       -0.00064  -0.00000   0.00016  -0.00039  -0.00022  -0.00086
   D48       -3.13989  -0.00000   0.00008  -0.00020  -0.00012  -3.14002
   D49       -0.00559   0.00001   0.00010   0.00029   0.00039  -0.00521
   D50        3.08422  -0.00000   0.00016  -0.00031  -0.00014   3.08408
   D51        3.13822   0.00001   0.00001   0.00047   0.00048   3.13871
   D52       -0.05515   0.00000   0.00008  -0.00013  -0.00005  -0.05520
   D53       -0.06555  -0.00001   0.00013  -0.00033  -0.00020  -0.06575
   D54       -1.67113  -0.00002   0.00014  -0.00026  -0.00012  -1.67125
   D55        3.01816   0.00003   0.00016  -0.00001   0.00015   3.01831
   D56        1.41569  -0.00001   0.00018  -0.00042  -0.00024   1.41544
   D57        3.12686   0.00000   0.00006   0.00026   0.00032   3.12718
   D58        1.52128  -0.00001   0.00007   0.00033   0.00040   1.52168
   D59       -0.07262   0.00004   0.00010   0.00057   0.00067  -0.07195
   D60       -1.67510  -0.00000   0.00011   0.00016   0.00028  -1.67482
   D61        0.06328   0.00000  -0.00010   0.00020   0.00011   0.06339
   D62        1.67031   0.00006   0.00001   0.00033   0.00034   1.67065
   D63       -3.01851  -0.00003  -0.00010  -0.00006  -0.00016  -3.01867
   D64       -1.41639  -0.00001  -0.00016   0.00015  -0.00001  -1.41640
   D65       -3.12331  -0.00000  -0.00011  -0.00011  -0.00021  -3.12352
   D66       -1.51628   0.00006   0.00000   0.00002   0.00002  -1.51626
   D67        0.07809  -0.00004  -0.00011  -0.00037  -0.00048   0.07761
   D68        1.68020  -0.00002  -0.00017  -0.00015  -0.00032   1.67988
         Item               Value     Threshold  Converged?
 Maximum Force            0.000299     0.000450     YES
 RMS     Force            0.000037     0.000300     YES
 Maximum Displacement     0.002487     0.001800     NO 
 RMS     Displacement     0.000412     0.001200     YES
 Predicted change in Energy=-6.611872D-07
 Lowest energy point so far.  Saving SCF results.
 GradGradGradGradGradGradGradGradGradGradGradGradGradGradGradGradGradGrad

 Leave Link  103 at Mon Nov 17 10:54:38 2025, MaxMem=  2684354560 cpu:               4.4 elap:               0.2
 (Enter /home/programes/qq/gaussian/g16.A03/g16/l202.exe)
                          Input orientation:                          
 ---------------------------------------------------------------------
 Center     Atomic      Atomic             Coordinates (Angstroms)
 Number     Number       Type             X           Y           Z
 ---------------------------------------------------------------------
      1          6           0       -2.288027    0.298865    0.031148
      2          6           0       -0.892497    0.339396   -0.063122
      3          6           0       -0.235612    1.567297   -0.042109
      4          6           0       -0.987422    2.735750    0.076463
      5          6           0       -2.371563    2.627599    0.165433
      6          6           0       -3.053964   -0.969751    0.026523
      7          6           0       -2.439795   -2.222557   -0.078289
      8          6           0       -3.219941   -3.376203   -0.065998
      9          6           0       -4.603975   -3.256419    0.055169
     10          6           0       -5.153150   -1.982094    0.154735
     11          1           0       -0.317135   -0.579214   -0.152731
     12          1           0        0.851621    1.607294   -0.116056
     13          1           0       -0.518646    3.718978    0.099462
     14          1           0       -3.001132    3.511810    0.257390
     15          1           0       -1.359122   -2.302097   -0.169509
     16          1           0       -2.748726   -4.356150   -0.148665
     17          1           0       -5.255269   -4.129638    0.071977
     18          1           0       -6.228794   -1.837792    0.249069
     19          7           0       -4.403624   -0.865278    0.138354
     20          7           0       -3.010188    1.444043    0.141654
     21         75           0       -5.298895    1.248895    0.191189
     22          6           0       -5.352834    1.281100    2.092305
     23          6           0       -7.152101    0.798899    0.118480
     24          6           0       -5.768871    3.097358    0.118109
     25          8           0       -5.377445    1.295901    3.255419
     26          8           0       -8.269787    0.486850    0.065867
     27          8           0       -6.016993    4.230883    0.064541
     28         17           0       -5.019113    1.081285   -2.393839
 ---------------------------------------------------------------------
                    Distance matrix (angstroms):
                    1          2          3          4          5
     1  C    0.000000
     2  C    1.399297   0.000000
     3  C    2.413854   1.392723   0.000000
     4  C    2.762614   2.402292   1.394475   0.000000
     5  C    2.334097   2.734181   2.393658   1.391208   0.000000
     6  C    1.481914   2.528606   3.792682   4.243092   3.664136
     7  C    2.528355   2.992986   4.384373   5.168960   4.856755
     8  C    3.792628   4.384368   5.774511   6.508487   6.067861
     9  C    4.243140   5.169038   6.508478   6.999000   6.294242
    10  C    3.664285   4.856948   6.067875   6.294241   5.383921
    11  H    2.165467   1.087619   2.150905   3.389809   3.821721
    12  H    3.404562   2.156922   1.090478   2.166231   3.392517
    13  H    3.851304   3.404081   2.174829   1.089503   2.151456
    14  H    3.298896   3.822731   3.393955   2.165648   1.089331
    15  H    2.769139   2.684501   4.031218   5.057526   5.043721
    16  H    4.681212   5.049858   6.435396   7.310809   7.000976
    17  H    5.330839   6.246944   7.593750   8.083817   7.347431
    18  H    4.488033   5.771800   6.899104   6.958380   5.901266
    19  N    2.417121   3.717505   4.829318   4.964037   4.041063
    20  N    1.358367   2.397247   2.783385   2.400904   1.345069
    21  Re   3.161250   4.506463   5.078646   4.562094   3.235856
    22  C    3.821805   5.042546   5.551899   5.023589   3.796560
    23  C    4.890488   6.279073   6.960893   6.461921   5.118583
    24  C    4.467147   5.605196   5.743145   4.795284   3.429959
    25  O    4.575425   5.660598   6.114392   5.608139   4.511846
    26  O    5.984814   7.379891   8.107219   7.621713   6.275489
    27  O    5.419139   6.435870   6.366351   5.247108   3.983699
    28  Cl   3.735180   4.797041   5.352450   5.009409   3.993805
                    6          7          8          9         10
     6  C    0.000000
     7  C    1.399182   0.000000
     8  C    2.413942   1.392723   0.000000
     9  C    2.762644   2.402156   1.394482   0.000000
    10  C    2.334064   2.733938   2.393649   1.391190   0.000000
    11  H    2.770358   2.685480   4.031991   5.058423   5.044764
    12  H    4.681355   5.050010   6.435477   7.310851   7.001022
    13  H    5.330792   6.246939   7.593811   8.083813   7.347374
    14  H    4.487815   5.771545   6.899070   6.958370   5.901246
    15  H    2.164732   1.087430   2.151062   3.389732   3.821281
    16  H    3.404638   2.156992   1.090493   2.166312   3.392558
    17  H    3.851324   3.403885   2.174687   1.089486   2.151563
    18  H    3.298873   3.822527   3.393990   2.165672   1.089372
    19  N    1.358308   2.397032   2.783453   2.400962   1.345116
    20  N    2.416935   3.717214   4.829274   4.964069   4.041148
    21  Re   3.160573   4.505336   5.077374   4.560622   3.234480
    22  C    3.823425   5.047066   5.558594   5.029889   3.800327
    23  C    4.464448   5.601226   5.738239   4.789839   3.425061
    24  C    4.890857   6.278758   6.959736   6.459986   5.116765
    25  O    4.577938   5.667710   6.124964   5.618138   4.517721
    26  O    5.415537   6.430433   6.359364   5.239309   3.977061
    27  O    5.985614   7.379947   8.106065   7.619475   6.273392
    28  Cl   3.731851   4.788530   5.340886   4.998566   3.987166
                   11         12         13         14         15
    11  H    0.000000
    12  H    2.479547   0.000000
    13  H    4.310298   2.526517   0.000000
    14  H    4.910042   4.313971   2.496116   0.000000
    15  H    2.013540   4.491501   6.085400   6.056398   0.000000
    16  H    4.491981   6.966077   8.381081   7.882473   2.480034
    17  H    6.086146   8.381041   9.167177   7.969143   4.310242
    18  H    6.057488   7.882525   7.969056   6.247888   4.909633
    19  N    4.106817   5.813427   6.009157   4.597831   3.380565
    20  N    3.381237   3.873839   3.374150   2.071023   4.105656
    21  Re   5.317725   6.168606   5.381496   3.225660   5.316151
    22  C    5.818866   6.593824   5.769232   3.724712   5.822786
    23  C    6.977786   8.047861   7.247754   4.960819   6.577060
    24  C    6.581182   6.790143   5.286929   2.802062   6.977301
    25  O    6.382654   7.089786   6.280071   4.421006   6.389260
    26  O    8.026765   9.191767   8.398093   6.078305   7.455933
    27  O    7.461408   7.354841   5.522235   3.106392   8.026853
    28  Cl   5.467030   6.319058   5.781710   4.124162   5.458064
                   16         17         18         19         20
    16  H    0.000000
    17  H    2.526410   0.000000
    18  H    4.314069   2.496331   0.000000
    19  N    3.873920   3.374278   2.071059   0.000000
    20  N    5.813338   6.009257   4.597978   2.697154   0.000000
    21  Re   6.167285   5.380031   3.224236   2.296526   2.297546
    22  C    6.601660   5.776446   3.727239   3.053827   3.052798
    23  C    6.784954   5.281156   2.796728   3.213099   4.191919
    24  C    8.046566   7.245370   4.958264   4.191276   3.216261
    25  O    7.102368   6.291717   4.425265   3.916008   3.914254
    26  O    7.347299   5.513558   3.098900   4.096428   5.346526
    27  O    9.190439   8.395153   6.075173   5.345957   4.100402
    28  Cl   6.305646   5.769726   4.119381   3.252681   3.255164
                   21         22         23         24         25
    21  Re   0.000000
    22  C    1.902153   0.000000
    23  C    1.908443   2.714012   0.000000
    24  C    1.908673   2.714651   2.682580   0.000000
    25  O    3.065597   1.163469   3.638242   3.638843   0.000000
    26  O    3.069628   3.639492   1.161622   3.615530   4.381033
    27  O    3.069846   3.640625   3.615231   1.161599   4.382333
    28  Cl   2.605521   4.502974   3.307737   3.307048   5.664678
                   26         27         28
    26  O    0.000000
    27  O    4.369538   0.000000
    28  Cl   4.119513   4.118174   0.000000
 Symmetry turned off by external request.
 Stoichiometry    C13H8ClN2O3Re
 Framework group  C1[X(C13H8ClN2O3Re)]
 Deg. of freedom    78
 Full point group                 C1      NOp   1
 Rotational constants (GHZ):           0.3384337           0.2666528           0.1987896
 Leave Link  202 at Mon Nov 17 10:54:38 2025, MaxMem=  2684354560 cpu:               0.1 elap:               0.0
 (Enter /home/programes/qq/gaussian/g16.A03/g16/l301.exe)
 Basis read from rwf:  (5D, 7F)
 Pseudo-potential data read from rwf file.
   339 basis functions,   774 primitive gaussians,   363 cartesian basis functions
    78 alpha electrons       78 beta electrons
       nuclear repulsion energy      1754.4776831637 Hartrees.
 IExCor=  402 DFT=T Ex+Corr=B3LYP ExCW=0 ScaHFX=  0.200000
 ScaDFX=  0.800000  0.720000  1.000000  0.810000 ScalE2=  1.000000  1.000000
 IRadAn=      5 IRanWt=     -1 IRanGd=            0 ICorTp=0 IEmpDi=141
 NAtoms=   28 NActive=   28 NUniq=   28 SFac= 1.00D+00 NAtFMM=   60 NAOKFM=F Big=F
 Integral buffers will be    131072 words long.
 Raffenetti 2 integral format.
 Two-electron integral symmetry is turned off.
 R6Disp:  Grimme-D3(BJ) Dispersion energy=       -0.0842387468 Hartrees.
 Nuclear repulsion after empirical dispersion term =     1754.3934444169 Hartrees.
 No density basis found on file   724.
 ------------------------------------------------------------------------------
 Polarizable Continuum Model (PCM)
 =================================
 Model                : PCM.
 Atomic radii         : UFF (Universal Force Field).
 Polarization charges : Total charges.
 Charge compensation  : None.
 Solution method      : On-the-fly selection.
 Cavity type          : Scaled VdW (van der Waals Surface) (Alpha=1.100).
 Cavity algorithm     : GePol (No added spheres)
                        Default sphere list used, NSphG=   28.
                        Lebedev-Laikov grids with approx.  5.0 points / Ang**2.
                        Smoothing algorithm: York/Karplus (Gamma=1.0000).
                        Polarization charges: spherical gaussians, with
                                              point-specific exponents (IZeta= 3).
                        Self-potential: point-specific (ISelfS= 7).
                        Self-field    : sphere-specific E.n sum rule (ISelfD= 2).
 1st derivatives      : Analytical E(r).r(x)/FMM algorithm (CHGder, D1EAlg=3).
                        Cavity 1st derivative terms included.
 Solvent              : n,n-DiMethylFormamide, Eps=  37.219000 Eps(inf)=   2.046330
 ------------------------------------------------------------------------------
 GePol: Number of generator spheres                  =      28
 GePol: Total number of spheres                      =      28
 GePol: Number of exposed spheres                    =      27 ( 96.43%)
 GePol: Number of points                             =    2582
 GePol: Average weight of points                     =       0.13
 GePol: Minimum weight of points                     =   0.19D-10
 GePol: Maximum weight of points                     =    0.21616
 GePol: Number of points with low weight             =     118
 GePol: Fraction of low-weight points (<1% of avg)   =       4.57%
 GePol: Cavity surface area                          =    342.370 Ang**2
 GePol: Cavity volume                                =    378.133 Ang**3
 Leave Link  301 at Mon Nov 17 10:54:38 2025, MaxMem=  2684354560 cpu:               1.2 elap:               0.0
 (Enter /home/programes/qq/gaussian/g16.A03/g16/l302.exe)
 NPDir=0 NMtPBC=     1 NCelOv=     1 NCel=       1 NClECP=     1 NCelD=      1
         NCelK=      1 NCelE2=     1 NClLst=     1 CellRange=     0.0.
 One-electron integrals computed using PRISM.
   1 Symmetry operations used in ECPInt.
 ECPInt:  NShTT=   11175 NPrTT=  105620 LenC2=   10452 LenP2D=   51063.
 LDataN:  DoStor=T MaxTD1= 7 Len=  274
 NBasis=   339 RedAO= T EigKep=  3.67D-04  NBF=   339
 NBsUse=   339 1.00D-06 EigRej= -1.00D+00 NBFU=   339
 Precomputing XC quadrature grid using
 IXCGrd= 4 IRadAn=           5 IRanWt=          -1 IRanGd=           0 AccXCQ= 0.00D+00.
 Defaulting to unpruned grid for atomic number  75.
 Generated NRdTot=       0 NPtTot=           0 NUsed=           0 NTot=          32
 NSgBfM=   363   363   363   363   363 MxSgAt=    28 MxSgA2=    28.
 Leave Link  302 at Mon Nov 17 10:54:38 2025, MaxMem=  2684354560 cpu:              12.3 elap:               0.4
 (Enter /home/programes/qq/gaussian/g16.A03/g16/l303.exe)
 DipDrv:  MaxL=1.
 Leave Link  303 at Mon Nov 17 10:54:38 2025, MaxMem=  2684354560 cpu:               1.2 elap:               0.1
 (Enter /home/programes/qq/gaussian/g16.A03/g16/l401.exe)
 Initial guess from the checkpoint file:  "re-bpy-co3-cl.chk"
 B after Tr=     0.000032    0.000023   -0.000052
         Rot=    1.000000   -0.000003   -0.000003   -0.000003 Ang=  -0.00 deg.
 Guess basis will be translated and rotated to current coordinates.
 JPrj=2 DoOrth=T DoCkMO=T.
 Leave Link  401 at Mon Nov 17 10:54:39 2025, MaxMem=  2684354560 cpu:               5.5 elap:               0.2
 (Enter /home/programes/qq/gaussian/g16.A03/g16/l502.exe)
 Two-electron integral symmetry not used.
 Closed shell SCF:
 Using DIIS extrapolation, IDIIS=  1040.
 NGot=  2684354560 LenX=  2684076439 LenY=  2683944229
 Requested convergence on RMS density matrix=1.00D-08 within 128 cycles.
 Requested convergence on MAX density matrix=1.00D-06.
 Requested convergence on             energy=1.00D-06.
 No special actions if energy rises.
 Fock matrices will be formed incrementally for  20 cycles.

 Cycle   1  Pass 1  IDiag  1:
 FoFJK:  IHMeth= 1 ICntrl=       0 DoSepK=F KAlg= 0 I1Cent=           0 FoldK=F
 IRaf= 870000000 NMat=       1 IRICut=       1 DoRegI=T DoRafI=F ISym2E= 0 IDoP0=0 IntGTp=1.
 FoFCou: FMM=F IPFlag=           0 FMFlag=      100000 FMFlg1=           0
         NFxFlg=           0 DoJE=F BraDBF=F KetDBF=F FulRan=T
         wScrn=  0.000000 ICntrl=         0 IOpCl=  0 I1Cent=           0 NGrid=           0
         NMat0=    1 NMatS0=      1 NMatT0=    0 NMatD0=    1 NMtDS0=    0 NMtDT0=    0
 Symmetry not used in FoFCou.
 Defaulting to unpruned grid for atomic number  75.
 Defaulting to unpruned grid for atomic number  75.
 Defaulting to unpruned grid for atomic number  75.
 Defaulting to unpruned grid for atomic number  75.
 Defaulting to unpruned grid for atomic number  75.
 Defaulting to unpruned grid for atomic number  75.
 Defaulting to unpruned grid for atomic number  75.
 Defaulting to unpruned grid for atomic number  75.
 Defaulting to unpruned grid for atomic number  75.
 Defaulting to unpruned grid for atomic number  75.
 Defaulting to unpruned grid for atomic number  75.
 Defaulting to unpruned grid for atomic number  75.
 Defaulting to unpruned grid for atomic number  75.
 Defaulting to unpruned grid for atomic number  75.
 Defaulting to unpruned grid for atomic number  75.
 Defaulting to unpruned grid for atomic number  75.
 Defaulting to unpruned grid for atomic number  75.
 Defaulting to unpruned grid for atomic number  75.
 Defaulting to unpruned grid for atomic number  75.
 Defaulting to unpruned grid for atomic number  75.
 Defaulting to unpruned grid for atomic number  75.
 Defaulting to unpruned grid for atomic number  75.
 Defaulting to unpruned grid for atomic number  75.
 Defaulting to unpruned grid for atomic number  75.
 Defaulting to unpruned grid for atomic number  75.
 Defaulting to unpruned grid for atomic number  75.
 Defaulting to unpruned grid for atomic number  75.
 Defaulting to unpruned grid for atomic number  75.
 Defaulting to unpruned grid for atomic number  75.
 Defaulting to unpruned grid for atomic number  75.
 Defaulting to unpruned grid for atomic number  75.
 Defaulting to unpruned grid for atomic number  75.
 Inv3:  Mode=1 IEnd=    20000172.
 Iteration    1 A*A^-1 deviation from unit magnitude is 6.88D-15 for   1061.
 Iteration    1 A*A^-1 deviation from orthogonality  is 3.33D-15 for   2179   1246.
 Iteration    1 A^-1*A deviation from unit magnitude is 7.66D-15 for    465.
 Iteration    1 A^-1*A deviation from orthogonality  is 2.84D-15 for   2088    342.
 E= -1375.06805037172    
 DIIS: error= 7.67D-05 at cycle   1 NSaved=   1.
 NSaved= 1 IEnMin= 1 EnMin= -1375.06805037172     IErMin= 1 ErrMin= 7.67D-05
 ErrMax= 7.67D-05  0.00D+00 EMaxC= 1.00D-01 BMatC= 2.45D-06 BMatP= 2.45D-06
 IDIUse=1 WtCom= 1.00D+00 WtEn= 0.00D+00
 Coeff-Com:  0.100D+01
 Coeff:      0.100D+01
 Gap=     0.613 Goal=   None    Shift=    0.000
 RMSDP=7.02D-06 MaxDP=4.65D-04              OVMax= 4.05D-04

 Cycle   2  Pass 1  IDiag  1:
 RMSU=  7.02D-06    CP:  1.00D+00
 E= -1375.06805413281     Delta-E=       -0.000003761093 Rises=F Damp=F
 DIIS: error= 9.82D-06 at cycle   2 NSaved=   2.
 NSaved= 2 IEnMin= 2 EnMin= -1375.06805413281     IErMin= 2 ErrMin= 9.82D-06
 ErrMax= 9.82D-06  0.00D+00 EMaxC= 1.00D-01 BMatC= 3.64D-08 BMatP= 2.45D-06
 IDIUse=1 WtCom= 1.00D+00 WtEn= 0.00D+00
 Coeff-Com: -0.706D-01 0.107D+01
 Coeff:     -0.706D-01 0.107D+01
 Gap=     0.137 Goal=   None    Shift=    0.000
 RMSDP=1.33D-06 MaxDP=8.02D-05 DE=-3.76D-06 OVMax= 1.15D-04

 Cycle   3  Pass 1  IDiag  1:
 RMSU=  1.21D-06    CP:  1.00D+00  1.08D+00
 E= -1375.06805411764     Delta-E=        0.000000015178 Rises=F Damp=F
 DIIS: error= 1.76D-05 at cycle   3 NSaved=   3.
 NSaved= 3 IEnMin= 2 EnMin= -1375.06805413281     IErMin= 2 ErrMin= 9.82D-06
 ErrMax= 1.76D-05  0.00D+00 EMaxC= 1.00D-01 BMatC= 7.25D-08 BMatP= 3.64D-08
 IDIUse=1 WtCom= 1.00D+00 WtEn= 0.00D+00
 Coeff-Com: -0.512D-01 0.701D+00 0.351D+00
 Coeff:     -0.512D-01 0.701D+00 0.351D+00
 Gap=     0.137 Goal=   None    Shift=    0.000
 RMSDP=1.08D-06 MaxDP=9.02D-05 DE= 1.52D-08 OVMax= 1.19D-04

 Cycle   4  Pass 1  IDiag  1:
 RMSU=  5.87D-07    CP:  1.00D+00  1.08D+00  2.63D-01
 E= -1375.06805416705     Delta-E=       -0.000000049416 Rises=F Damp=F
 DIIS: error= 9.15D-06 at cycle   4 NSaved=   4.
 NSaved= 4 IEnMin= 4 EnMin= -1375.06805416705     IErMin= 4 ErrMin= 9.15D-06
 ErrMax= 9.15D-06  0.00D+00 EMaxC= 1.00D-01 BMatC= 2.18D-08 BMatP= 3.64D-08
 IDIUse=1 WtCom= 1.00D+00 WtEn= 0.00D+00
 Coeff-Com: -0.227D-01 0.291D+00 0.310D+00 0.422D+00
 Coeff:     -0.227D-01 0.291D+00 0.310D+00 0.422D+00
 Gap=     0.137 Goal=   None    Shift=    0.000
 RMSDP=4.58D-07 MaxDP=4.02D-05 DE=-4.94D-08 OVMax= 4.48D-05

 Cycle   5  Pass 1  IDiag  1:
 RMSU=  2.65D-07    CP:  1.00D+00  1.09D+00  4.32D-01  4.74D-01
 E= -1375.06805418557     Delta-E=       -0.000000018520 Rises=F Damp=F
 DIIS: error= 1.56D-06 at cycle   5 NSaved=   5.
 NSaved= 5 IEnMin= 5 EnMin= -1375.06805418557     IErMin= 5 ErrMin= 1.56D-06
 ErrMax= 1.56D-06  0.00D+00 EMaxC= 1.00D-01 BMatC= 1.83D-09 BMatP= 2.18D-08
 IDIUse=1 WtCom= 1.00D+00 WtEn= 0.00D+00
 Coeff-Com: -0.657D-02 0.793D-01 0.154D+00 0.286D+00 0.488D+00
 Coeff:     -0.657D-02 0.793D-01 0.154D+00 0.286D+00 0.488D+00
 Gap=     0.137 Goal=   None    Shift=    0.000
 RMSDP=1.45D-07 MaxDP=8.45D-06 DE=-1.85D-08 OVMax= 1.67D-05

 Cycle   6  Pass 1  IDiag  1:
 RMSU=  6.05D-08    CP:  1.00D+00  1.09D+00  4.61D-01  5.93D-01  6.00D-01
 E= -1375.06805418745     Delta-E=       -0.000000001879 Rises=F Damp=F
 DIIS: error= 3.07D-07 at cycle   6 NSaved=   6.
 NSaved= 6 IEnMin= 6 EnMin= -1375.06805418745     IErMin= 6 ErrMin= 3.07D-07
 ErrMax= 3.07D-07  0.00D+00 EMaxC= 1.00D-01 BMatC= 6.15D-11 BMatP= 1.83D-09
 IDIUse=1 WtCom= 1.00D+00 WtEn= 0.00D+00
 Coeff-Com:  0.368D-03-0.908D-02 0.184D-01 0.519D-01 0.194D+00 0.745D+00
 Coeff:      0.368D-03-0.908D-02 0.184D-01 0.519D-01 0.194D+00 0.745D+00
 Gap=     0.137 Goal=   None    Shift=    0.000
 RMSDP=2.94D-08 MaxDP=1.29D-06 DE=-1.88D-09 OVMax= 2.09D-06

 Cycle   7  Pass 1  IDiag  1:
 RMSU=  2.09D-08    CP:  1.00D+00  1.09D+00  4.66D-01  6.03D-01  6.59D-01
                    CP:  8.36D-01
 E= -1375.06805418744     Delta-E=        0.000000000010 Rises=F Damp=F
 DIIS: error= 2.29D-07 at cycle   7 NSaved=   7.
 NSaved= 7 IEnMin= 6 EnMin= -1375.06805418745     IErMin= 7 ErrMin= 2.29D-07
 ErrMax= 2.29D-07  0.00D+00 EMaxC= 1.00D-01 BMatC= 2.80D-11 BMatP= 6.15D-11
 IDIUse=1 WtCom= 1.00D+00 WtEn= 0.00D+00
 Coeff-Com:  0.863D-03-0.140D-01-0.228D-02 0.753D-02 0.826D-01 0.501D+00
 Coeff-Com:  0.424D+00
 Coeff:      0.863D-03-0.140D-01-0.228D-02 0.753D-02 0.826D-01 0.501D+00
 Coeff:      0.424D+00
 Gap=     0.137 Goal=   None    Shift=    0.000
 RMSDP=1.29D-08 MaxDP=8.33D-07 DE= 1.05D-11 OVMax= 1.09D-06

 Cycle   8  Pass 1  IDiag  1:
 RMSU=  7.59D-09    CP:  1.00D+00  1.09D+00  4.65D-01  6.05D-01  6.76D-01
                    CP:  8.71D-01  5.68D-01
 E= -1375.06805418748     Delta-E=       -0.000000000038 Rises=F Damp=F
 DIIS: error= 5.50D-08 at cycle   8 NSaved=   8.
 NSaved= 8 IEnMin= 8 EnMin= -1375.06805418748     IErMin= 8 ErrMin= 5.50D-08
 ErrMax= 5.50D-08  0.00D+00 EMaxC= 1.00D-01 BMatC= 1.03D-12 BMatP= 2.80D-11
 IDIUse=1 WtCom= 1.00D+00 WtEn= 0.00D+00
 Coeff-Com:  0.392D-03-0.612D-02-0.330D-02-0.242D-02 0.180D-01 0.170D+00
 Coeff-Com:  0.213D+00 0.611D+00
 Coeff:      0.392D-03-0.612D-02-0.330D-02-0.242D-02 0.180D-01 0.170D+00
 Coeff:      0.213D+00 0.611D+00
 Gap=     0.137 Goal=   None    Shift=    0.000
 RMSDP=3.55D-09 MaxDP=1.50D-07 DE=-3.82D-11 OVMax= 3.92D-07

 Error on total polarization charges =  0.01128
 SCF Done:  E(RB3LYP) =  -1375.06805419     A.U. after    8 cycles
            NFock=  8  Conv=0.36D-08     -V/T= 2.0464
 KE= 1.314131035127D+03 PE=-6.710835899189D+03 EE= 2.267243365458D+03
 Leave Link  502 at Mon Nov 17 10:55:00 2025, MaxMem=  2684354560 cpu:             638.8 elap:              21.7
 (Enter /home/programes/qq/gaussian/g16.A03/g16/l701.exe)
 ... and contract with generalized density number  0.
 Compute integral first derivatives.
 R6Disp: Adding Grimme-D3(BJ) dispersion energy 1st derivatives to the gradient.
   1 Symmetry operations used in ECPInt.
 ECPInt:  NShTT=   11175 NPrTT=  105620 LenC2=   10452 LenP2D=   51063.
 LDataN:  DoStor=T MaxTD1= 8 Len=  415
 D1PCM: PCM CHGder 1st derivatives, ID1Alg=3 FixD1E=F DoIter=F DoCFld=F I1PDM=0.
 GePol: Maximum number of non-zero 1st derivatives   =     254
 Leave Link  701 at Mon Nov 17 10:55:03 2025, MaxMem=  2684354560 cpu:              44.9 elap:               1.5
 (Enter /home/programes/qq/gaussian/g16.A03/g16/l702.exe)
 L702 exits ... SP integral derivatives will be done elsewhere.
 Leave Link  702 at Mon Nov 17 10:55:03 2025, MaxMem=  2684354560 cpu:               0.2 elap:               0.0
 (Enter /home/programes/qq/gaussian/g16.A03/g16/l703.exe)
 Integral derivatives from FoFJK, PRISM(SPDF).
 Compute integral first derivatives, UseDBF=F ICtDFT=           0.
 Calling FoFJK, ICntrl=      2127 FMM=F ISym2X=0 I1Cent= 0 IOpClX= 0 NMat=1 NMatS=1 NMatT=0.
 FoFJK:  IHMeth= 1 ICntrl=    2127 DoSepK=F KAlg= 0 I1Cent=           0 FoldK=F
 IRaf=         0 NMat=       1 IRICut=       1 DoRegI=T DoRafI=F ISym2E= 0 IDoP0=0 IntGTp=1.
 FoFCou: FMM=F IPFlag=           0 FMFlag=      100000 FMFlg1=         800
         NFxFlg=           0 DoJE=F BraDBF=F KetDBF=F FulRan=T
         wScrn=  0.000000 ICntrl=      2127 IOpCl=  0 I1Cent=           0 NGrid=           0
         NMat0=    1 NMatS0=      1 NMatT0=    0 NMatD0=    1 NMtDS0=    0 NMtDT0=    0
 Symmetry not used in FoFCou.
 Defaulting to unpruned grid for atomic number  75.
 Defaulting to unpruned grid for atomic number  75.
 Defaulting to unpruned grid for atomic number  75.
 Defaulting to unpruned grid for atomic number  75.
 Defaulting to unpruned grid for atomic number  75.
 Defaulting to unpruned grid for atomic number  75.
 Defaulting to unpruned grid for atomic number  75.
 Defaulting to unpruned grid for atomic number  75.
 Defaulting to unpruned grid for atomic number  75.
 Defaulting to unpruned grid for atomic number  75.
 Defaulting to unpruned grid for atomic number  75.
 Defaulting to unpruned grid for atomic number  75.
 Defaulting to unpruned grid for atomic number  75.
 Defaulting to unpruned grid for atomic number  75.
 Defaulting to unpruned grid for atomic number  75.
 Defaulting to unpruned grid for atomic number  75.
 Defaulting to unpruned grid for atomic number  75.
 Defaulting to unpruned grid for atomic number  75.
 Defaulting to unpruned grid for atomic number  75.
 Defaulting to unpruned grid for atomic number  75.
 Defaulting to unpruned grid for atomic number  75.
 Defaulting to unpruned grid for atomic number  75.
 Defaulting to unpruned grid for atomic number  75.
 Defaulting to unpruned grid for atomic number  75.
 Defaulting to unpruned grid for atomic number  75.
 Defaulting to unpruned grid for atomic number  75.
 Defaulting to unpruned grid for atomic number  75.
 Defaulting to unpruned grid for atomic number  75.
 Defaulting to unpruned grid for atomic number  75.
 Defaulting to unpruned grid for atomic number  75.
 Defaulting to unpruned grid for atomic number  75.
 Defaulting to unpruned grid for atomic number  75.
 Leave Link  703 at Mon Nov 17 10:55:08 2025, MaxMem=  2684354560 cpu:             150.2 elap:               4.7
 (Enter /home/programes/qq/gaussian/g16.A03/g16/l716.exe)
 Dipole        = 4.55256361D+00-2.74482895D+00 1.70883947D+00
 -------------------------------------------------------------------
 Center     Atomic                   Forces (Hartrees/Bohr)
 Number     Number              X              Y              Z
 -------------------------------------------------------------------
      1        6           0.000015272    0.000018369   -0.000003280
      2        6          -0.000001896   -0.000008276    0.000010194
      3        6          -0.000000785    0.000022374    0.000002117
      4        6           0.000014935   -0.000013744   -0.000000340
      5        6           0.000004176   -0.000005298   -0.000001149
      6        6          -0.000007169   -0.000026516    0.000001138
      7        6           0.000005266    0.000005834    0.000006376
      8        6          -0.000018825   -0.000010613    0.000006137
      9        6           0.000018773   -0.000006140    0.000004434
     10        6           0.000005426   -0.000004038   -0.000000807
     11        1          -0.000000224    0.000006610    0.000003895
     12        1           0.000000274    0.000000042    0.000002507
     13        1          -0.000000039    0.000000641   -0.000001391
     14        1          -0.000001475    0.000001931   -0.000007692
     15        1          -0.000005815   -0.000002541    0.000004841
     16        1           0.000000533   -0.000000656    0.000007589
     17        1          -0.000000025   -0.000000393    0.000006455
     18        1          -0.000001548   -0.000000552    0.000000067
     19        7           0.000023709   -0.000063406   -0.000007410
     20        7           0.000085291    0.000012615   -0.000010364
     21       75          -0.000147639    0.000068895    0.000049470
     22        6          -0.000024378    0.000033288    0.000001981
     23        6           0.000000082   -0.000042915    0.000013819
     24        6           0.000031054    0.000024018   -0.000039955
     25        8           0.000000492   -0.000005999    0.000005355
     26        8           0.000001320    0.000014873   -0.000007925
     27        8          -0.000009402   -0.000014827    0.000010647
     28       17           0.000012620   -0.000003576   -0.000056712
 -------------------------------------------------------------------
 Cartesian Forces:  Max     0.000147639 RMS     0.000025831
 Leave Link  716 at Mon Nov 17 10:55:08 2025, MaxMem=  2684354560 cpu:               0.6 elap:               0.0
 (Enter /home/programes/qq/gaussian/g16.A03/g16/l103.exe)

 GradGradGradGradGradGradGradGradGradGradGradGradGradGradGradGradGradGrad
 Berny optimization.
 Using GEDIIS/GDIIS optimizer.
 FormGI is forming the generalized inverse of G from B-inverse, IUseBI=4.
 Internal  Forces:  Max     0.000096449 RMS     0.000014009
 Search for a local minimum.
 Step number  14 out of a maximum of  168
 All quantities printed in internal units (Hartrees-Bohrs-Radians)
 RMS Force = .14009D-04 SwitMx=.10000D-02 MixMth= 2
 Mixed Optimization -- En-DIIS/RFO-DIIS
 Swapping is turned off.
 Update second derivatives using D2CorX and points    5    6    7    8    9
                                                     10   11   12   13   14
 DE= -6.57D-07 DEPred=-6.61D-07 R= 9.93D-01
 Trust test= 9.93D-01 RLast= 3.50D-03 DXMaxT set to 1.09D+00
 ITU=  0  0  1  0  1  1  1  0  0  1  1 -1  1  0
     Eigenvalues ---    0.00397   0.00905   0.01074   0.01489   0.01633
     Eigenvalues ---    0.01744   0.01837   0.01849   0.01930   0.01992
     Eigenvalues ---    0.02020   0.02051   0.02130   0.02160   0.02234
     Eigenvalues ---    0.02250   0.02300   0.02321   0.02776   0.04254
     Eigenvalues ---    0.04666   0.04692   0.05014   0.06539   0.07687
     Eigenvalues ---    0.08932   0.10538   0.11934   0.12318   0.13058
     Eigenvalues ---    0.13935   0.15335   0.15631   0.15998   0.15999
     Eigenvalues ---    0.16000   0.16000   0.16000   0.16006   0.16059
     Eigenvalues ---    0.17083   0.21552   0.22000   0.22040   0.22612
     Eigenvalues ---    0.22913   0.23913   0.24487   0.24842   0.24940
     Eigenvalues ---    0.24968   0.25734   0.29669   0.34506   0.34513
     Eigenvalues ---    0.34526   0.34561   0.34584   0.34631   0.34735
     Eigenvalues ---    0.34745   0.35927   0.35957   0.37814   0.38701
     Eigenvalues ---    0.39153   0.40423   0.47128   0.47424   0.49413
     Eigenvalues ---    0.50159   0.50930   0.51500   0.58168   1.13708
     Eigenvalues ---    1.19266   1.19586   1.53006
 En-DIIS/RFO-DIIS/Sim-DIIS IScMMF=       -3 using points:    14   13   12   11   10    9
 RFO step:  Lambda=-1.14428377D-07.
 NNeg= 0 NGDIIS= 6 SimSw=  2.50D-01 Rises=F DC= -6.57D-07 SmlDif=  1.00D-05
 NRisDI= 0 DoIntr=F SqrtH=F CThrHd= 10.0 CDAdj=  3.0
 RMS Error=  0.1315866817D-03 NUsed= 6 OKEnD=F EnDIS=F
 InvSVX:  RCond= 4.19D-07 Info=           0 Equed=N FErr=  7.70D-15 BErr=  1.05D-16
 DidBck=F Rises=F RFO-DIIS coefs:    0.93839    0.03566    0.07473   -0.02080   -0.02870
                  RFO-DIIS coefs:    0.00071
 Iteration  1 RMS(Cart)=  0.00021990 RMS(Int)=  0.00000008
 Iteration  2 RMS(Cart)=  0.00000005 RMS(Int)=  0.00000006
 ITry= 1 IFail=0 DXMaxC= 1.12D-03 DCOld= 1.00D+10 DXMaxT= 1.09D+00 DXLimC= 3.00D+00 Rises=F
 Variable       Old X    -DE/DX   Delta X   Delta X   Delta X     New X
                                 (Linear)    (Quad)   (Total)
    R1        2.64429   0.00001   0.00002  -0.00002   0.00000   2.64429
    R2        2.80041   0.00004   0.00003   0.00005   0.00008   2.80049
    R3        2.56694   0.00001  -0.00001  -0.00003  -0.00003   2.56691
    R4        2.63187   0.00001   0.00001   0.00001   0.00002   2.63189
    R5        2.05530  -0.00001  -0.00001  -0.00000  -0.00001   2.05529
    R6        2.63518  -0.00002  -0.00001  -0.00003  -0.00004   2.63513
    R7        2.06071   0.00000   0.00000  -0.00000   0.00000   2.06071
    R8        2.62900   0.00001   0.00000   0.00001   0.00001   2.62901
    R9        2.05886   0.00000   0.00000  -0.00000   0.00000   2.05886
   R10        2.05854   0.00000  -0.00000   0.00001   0.00000   2.05854
   R11        2.54181   0.00000   0.00000  -0.00002  -0.00002   2.54179
   R12        2.64407   0.00001   0.00002  -0.00003  -0.00000   2.64407
   R13        2.56683   0.00001  -0.00001  -0.00002  -0.00003   2.56680
   R14        2.63187   0.00001   0.00001   0.00001   0.00002   2.63189
   R15        2.05494  -0.00001  -0.00001  -0.00000  -0.00001   2.05493
   R16        2.63519  -0.00002  -0.00001  -0.00003  -0.00004   2.63515
   R17        2.06073   0.00000   0.00000  -0.00000   0.00000   2.06073
   R18        2.62897   0.00000   0.00000   0.00001   0.00001   2.62898
   R19        2.05883   0.00000   0.00000  -0.00000   0.00000   2.05883
   R20        2.05861   0.00000  -0.00000   0.00000   0.00000   2.05862
   R21        2.54190   0.00001   0.00000  -0.00001  -0.00001   2.54189
   R22        4.33980   0.00008   0.00007   0.00002   0.00009   4.33990
   R23        4.34173   0.00010   0.00007   0.00012   0.00019   4.34192
   R24        3.59455   0.00002   0.00001   0.00000   0.00001   3.59456
   R25        3.60643   0.00000   0.00001  -0.00005  -0.00004   3.60639
   R26        3.60687   0.00000   0.00001  -0.00004  -0.00003   3.60684
   R27        4.92372   0.00005  -0.00021   0.00002  -0.00019   4.92353
   R28        2.19864   0.00001  -0.00001   0.00001   0.00001   2.19864
   R29        2.19515  -0.00001   0.00001  -0.00001  -0.00000   2.19514
   R30        2.19510  -0.00001   0.00001  -0.00002  -0.00001   2.19509
    A1        2.14129   0.00000   0.00001  -0.00001  -0.00000   2.14129
    A2        2.10746  -0.00001  -0.00002   0.00000  -0.00002   2.10744
    A3        2.03441   0.00000   0.00001   0.00001   0.00001   2.03442
    A4        2.08852   0.00001   0.00000   0.00000   0.00000   2.08853
    A5        2.10444   0.00000   0.00002   0.00001   0.00003   2.10447
    A6        2.09022  -0.00001  -0.00002  -0.00001  -0.00004   2.09019
    A7        2.07802  -0.00000   0.00001  -0.00001  -0.00000   2.07802
    A8        2.09620   0.00000   0.00000  -0.00001  -0.00001   2.09619
    A9        2.10896   0.00000  -0.00001   0.00002   0.00001   2.10897
   A10        2.06769   0.00000  -0.00000  -0.00000  -0.00000   2.06768
   A11        2.12469  -0.00000   0.00000   0.00001   0.00001   2.12471
   A12        2.09080  -0.00000   0.00000  -0.00001  -0.00001   2.09080
   A13        2.11449  -0.00000  -0.00001   0.00000  -0.00001   2.11448
   A14        2.14082   0.00001  -0.00000   0.00000   0.00000   2.14082
   A15        2.02787  -0.00000   0.00001  -0.00000   0.00001   2.02788
   A16        2.14108   0.00000   0.00001  -0.00002  -0.00001   2.14107
   A17        2.03473   0.00000   0.00001   0.00001   0.00002   2.03474
   A18        2.10736  -0.00001  -0.00002   0.00001  -0.00001   2.10735
   A19        2.08879   0.00001   0.00000   0.00001   0.00001   2.08880
   A20        2.10366  -0.00000   0.00002   0.00001   0.00003   2.10368
   A21        2.09074  -0.00001  -0.00002  -0.00001  -0.00004   2.09070
   A22        2.07782  -0.00000   0.00001  -0.00001  -0.00001   2.07781
   A23        2.09630   0.00000   0.00000  -0.00001  -0.00001   2.09629
   A24        2.10907   0.00000  -0.00001   0.00002   0.00001   2.10908
   A25        2.06769   0.00000  -0.00000   0.00000  -0.00000   2.06769
   A26        2.12447  -0.00000   0.00000   0.00001   0.00001   2.12448
   A27        2.09103  -0.00000   0.00000  -0.00001  -0.00001   2.09102
   A28        2.11450  -0.00000  -0.00001  -0.00001  -0.00002   2.11448
   A29        2.14087   0.00001  -0.00000   0.00001   0.00001   2.14088
   A30        2.02781  -0.00000   0.00001  -0.00000   0.00001   2.02782
   A31        2.08382  -0.00001   0.00002  -0.00001   0.00000   2.08382
   A32        2.04886   0.00000   0.00001   0.00000   0.00001   2.04887
   A33        2.14938   0.00000  -0.00002   0.00001  -0.00001   2.14937
   A34        2.08385  -0.00001   0.00002   0.00000   0.00002   2.08387
   A35        2.04850  -0.00000   0.00001  -0.00002  -0.00001   2.04849
   A36        2.14996   0.00001  -0.00002   0.00003   0.00001   2.14996
   A37        1.25493  -0.00001  -0.00001  -0.00000  -0.00001   1.25492
   A38        1.62045   0.00002  -0.00000   0.00012   0.00012   1.62057
   A39        1.73210  -0.00001   0.00000  -0.00009  -0.00009   1.73202
   A40        1.44657  -0.00000  -0.00003  -0.00000  -0.00003   1.44654
   A41        1.61917   0.00001  -0.00001   0.00000  -0.00001   1.61916
   A42        1.73372  -0.00001   0.00001  -0.00004  -0.00003   1.73369
   A43        1.44759  -0.00001  -0.00003   0.00002  -0.00001   1.44758
   A44        1.58533  -0.00002  -0.00001  -0.00015  -0.00016   1.58517
   A45        1.58569  -0.00001  -0.00001  -0.00009  -0.00010   1.58559
   A46        1.55859   0.00003  -0.00000   0.00014   0.00014   1.55873
   A47        1.62212   0.00001   0.00005   0.00014   0.00019   1.62231
   A48        1.62157  -0.00000   0.00004  -0.00004   0.00000   1.62157
   A49        2.98865  -0.00002   0.00000  -0.00005  -0.00004   2.98860
   A50        2.98703  -0.00002  -0.00000  -0.00009  -0.00010   2.98694
   A51        3.06702   0.00001  -0.00003   0.00012   0.00009   3.06711
   A52        3.13712   0.00000  -0.00006   0.00018   0.00012   3.13724
   A53        3.10739   0.00003  -0.00001   0.00023   0.00022   3.10761
   A54        3.10797   0.00003  -0.00002   0.00015   0.00014   3.10811
   A55        3.08206  -0.00000   0.00001  -0.00004  -0.00003   3.08203
   A56        3.19913  -0.00001  -0.00002  -0.00017  -0.00020   3.19893
   A57        3.19650  -0.00000   0.00004   0.00002   0.00005   3.19655
   A58        3.14914   0.00002   0.00032  -0.00007   0.00026   3.14940
   A59        3.14818   0.00001  -0.00004   0.00025   0.00021   3.14839
   A60        3.13417   0.00004   0.00011   0.00061   0.00072   3.13488
    D1       -3.13276  -0.00000  -0.00004   0.00010   0.00005  -3.13271
    D2        0.00899   0.00000  -0.00005   0.00012   0.00007   0.00906
    D3        0.00116  -0.00000  -0.00003   0.00003   0.00000   0.00116
    D4       -3.14028   0.00000  -0.00004   0.00006   0.00002  -3.14026
    D5       -0.00496  -0.00000  -0.00000  -0.00017  -0.00017  -0.00513
    D6        3.12997  -0.00000   0.00002  -0.00020  -0.00018   3.12979
    D7       -3.13918  -0.00000  -0.00002  -0.00011  -0.00013  -3.13931
    D8       -0.00425  -0.00000   0.00000  -0.00014  -0.00014  -0.00438
    D9       -0.00447   0.00000   0.00007  -0.00000   0.00006  -0.00440
   D10        3.09360   0.00000   0.00017   0.00012   0.00029   3.09389
   D11        3.12990   0.00000   0.00008  -0.00007   0.00002   3.12992
   D12       -0.05521   0.00000   0.00018   0.00006   0.00024  -0.05497
   D13        0.00278  -0.00000  -0.00001  -0.00003  -0.00004   0.00274
   D14       -3.14058   0.00000   0.00001  -0.00005  -0.00004  -3.14062
   D15       -3.13897  -0.00000  -0.00000  -0.00005  -0.00005  -3.13903
   D16        0.00085  -0.00000   0.00002  -0.00008  -0.00006   0.00080
   D17       -0.00336  -0.00000   0.00001  -0.00000   0.00001  -0.00336
   D18        3.13936   0.00000   0.00004  -0.00004   0.00000   3.13936
   D19        3.14001  -0.00000  -0.00001   0.00002   0.00001   3.14002
   D20       -0.00045  -0.00000   0.00002  -0.00001   0.00000  -0.00045
   D21       -3.13952   0.00000   0.00000   0.00007   0.00007  -3.13945
   D22        0.00005   0.00000   0.00003   0.00003   0.00006   0.00012
   D23        0.00096   0.00000  -0.00002   0.00010   0.00008   0.00104
   D24        3.14054   0.00000   0.00000   0.00007   0.00007   3.14061
   D25        0.00390  -0.00000  -0.00007  -0.00003  -0.00010   0.00380
   D26       -3.09151  -0.00000  -0.00018  -0.00016  -0.00034  -3.09185
   D27       -3.13962  -0.00000  -0.00004  -0.00006  -0.00011  -3.13973
   D28        0.04816  -0.00000  -0.00015  -0.00019  -0.00035   0.04781
   D29        3.13305  -0.00000   0.00005  -0.00011  -0.00006   3.13299
   D30       -0.00891  -0.00000   0.00006  -0.00015  -0.00009  -0.00900
   D31       -0.00162  -0.00000   0.00003  -0.00007  -0.00005  -0.00167
   D32        3.13961  -0.00000   0.00004  -0.00012  -0.00008   3.13954
   D33       -3.12926   0.00000  -0.00009   0.00011   0.00002  -3.12924
   D34        0.06166   0.00000  -0.00019   0.00015  -0.00004   0.06162
   D35        0.00581   0.00000  -0.00007   0.00007   0.00001   0.00582
   D36       -3.08646   0.00000  -0.00017   0.00012  -0.00005  -3.08651
   D37       -0.00326  -0.00000   0.00001   0.00001   0.00002  -0.00323
   D38        3.14009  -0.00000  -0.00001   0.00004   0.00003   3.14012
   D39        3.13869   0.00000  -0.00000   0.00005   0.00005   3.13875
   D40       -0.00115   0.00000  -0.00002   0.00008   0.00006  -0.00109
   D41        0.00389   0.00000  -0.00001   0.00005   0.00004   0.00393
   D42       -3.13899   0.00000  -0.00004   0.00006   0.00002  -3.13897
   D43       -3.13947   0.00000   0.00001   0.00002   0.00003  -3.13944
   D44        0.00084   0.00000  -0.00002   0.00003   0.00002   0.00085
   D45        3.13947  -0.00000   0.00000  -0.00008  -0.00008   3.13940
   D46        0.00031  -0.00000  -0.00003  -0.00005  -0.00008   0.00024
   D47       -0.00086  -0.00000   0.00003  -0.00009  -0.00006  -0.00092
   D48       -3.14002  -0.00000  -0.00000  -0.00006  -0.00006  -3.14008
   D49       -0.00521   0.00000   0.00007  -0.00001   0.00006  -0.00515
   D50        3.08408   0.00000   0.00018  -0.00006   0.00012   3.08419
   D51        3.13871  -0.00000   0.00004   0.00002   0.00005   3.13876
   D52       -0.05520   0.00000   0.00015  -0.00003   0.00012  -0.05508
   D53       -0.06575   0.00000   0.00021  -0.00009   0.00012  -0.06563
   D54       -1.67125  -0.00001   0.00022  -0.00005   0.00017  -1.67108
   D55        3.01831   0.00001   0.00023   0.00008   0.00031   3.01862
   D56        1.41544  -0.00000   0.00019  -0.00007   0.00012   1.41556
   D57        3.12718   0.00000   0.00010  -0.00004   0.00006   3.12723
   D58        1.52168  -0.00001   0.00011  -0.00000   0.00011   1.52179
   D59       -0.07195   0.00001   0.00012   0.00013   0.00025  -0.07170
   D60       -1.67482  -0.00000   0.00008  -0.00002   0.00006  -1.67476
   D61        0.06339  -0.00000  -0.00021   0.00001  -0.00019   0.06319
   D62        1.67065   0.00001  -0.00020   0.00014  -0.00006   1.67059
   D63       -3.01867   0.00000  -0.00022   0.00005  -0.00017  -3.01884
   D64       -1.41640  -0.00000  -0.00019   0.00002  -0.00017  -1.41657
   D65       -3.12352  -0.00000  -0.00010   0.00014   0.00004  -3.12347
   D66       -1.51626   0.00001  -0.00010   0.00027   0.00017  -1.51608
   D67        0.07761   0.00000  -0.00011   0.00018   0.00007   0.07768
   D68        1.67988  -0.00000  -0.00008   0.00015   0.00007   1.67995
         Item               Value     Threshold  Converged?
 Maximum Force            0.000096     0.000450     YES
 RMS     Force            0.000014     0.000300     YES
 Maximum Displacement     0.001120     0.001800     YES
 RMS     Displacement     0.000220     0.001200     YES
 Predicted change in Energy=-5.620145D-08
 Optimization completed.
    -- Stationary point found.
                           ----------------------------
                           !   Optimized Parameters   !
                           ! (Angstroms and Degrees)  !
 --------------------------                            --------------------------
 ! Name  Definition              Value          Derivative Info.                !
 --------------------------------------------------------------------------------
 ! R1    R(1,2)                  1.3993         -DE/DX =    0.0                 !
 ! R2    R(1,6)                  1.4819         -DE/DX =    0.0                 !
 ! R3    R(1,20)                 1.3584         -DE/DX =    0.0                 !
 ! R4    R(2,3)                  1.3927         -DE/DX =    0.0                 !
 ! R5    R(2,11)                 1.0876         -DE/DX =    0.0                 !
 ! R6    R(3,4)                  1.3945         -DE/DX =    0.0                 !
 ! R7    R(3,12)                 1.0905         -DE/DX =    0.0                 !
 ! R8    R(4,5)                  1.3912         -DE/DX =    0.0                 !
 ! R9    R(4,13)                 1.0895         -DE/DX =    0.0                 !
 ! R10   R(5,14)                 1.0893         -DE/DX =    0.0                 !
 ! R11   R(5,20)                 1.3451         -DE/DX =    0.0                 !
 ! R12   R(6,7)                  1.3992         -DE/DX =    0.0                 !
 ! R13   R(6,19)                 1.3583         -DE/DX =    0.0                 !
 ! R14   R(7,8)                  1.3927         -DE/DX =    0.0                 !
 ! R15   R(7,15)                 1.0874         -DE/DX =    0.0                 !
 ! R16   R(8,9)                  1.3945         -DE/DX =    0.0                 !
 ! R17   R(8,16)                 1.0905         -DE/DX =    0.0                 !
 ! R18   R(9,10)                 1.3912         -DE/DX =    0.0                 !
 ! R19   R(9,17)                 1.0895         -DE/DX =    0.0                 !
 ! R20   R(10,18)                1.0894         -DE/DX =    0.0                 !
 ! R21   R(10,19)                1.3451         -DE/DX =    0.0                 !
 ! R22   R(19,21)                2.2965         -DE/DX =    0.0001              !
 ! R23   R(20,21)                2.2975         -DE/DX =    0.0001              !
 ! R24   R(21,22)                1.9022         -DE/DX =    0.0                 !
 ! R25   R(21,23)                1.9084         -DE/DX =    0.0                 !
 ! R26   R(21,24)                1.9087         -DE/DX =    0.0                 !
 ! R27   R(21,28)                2.6055         -DE/DX =    0.0001              !
 ! R28   R(22,25)                1.1635         -DE/DX =    0.0                 !
 ! R29   R(23,26)                1.1616         -DE/DX =    0.0                 !
 ! R30   R(24,27)                1.1616         -DE/DX =    0.0                 !
 ! A1    A(2,1,6)              122.6871         -DE/DX =    0.0                 !
 ! A2    A(2,1,20)             120.7484         -DE/DX =    0.0                 !
 ! A3    A(6,1,20)             116.5631         -DE/DX =    0.0                 !
 ! A4    A(1,2,3)              119.6635         -DE/DX =    0.0                 !
 ! A5    A(1,2,11)             120.5754         -DE/DX =    0.0                 !
 ! A6    A(3,2,11)             119.7611         -DE/DX =    0.0                 !
 ! A7    A(2,3,4)              119.0616         -DE/DX =    0.0                 !
 ! A8    A(2,3,12)             120.1036         -DE/DX =    0.0                 !
 ! A9    A(4,3,12)             120.8347         -DE/DX =    0.0                 !
 ! A10   A(3,4,5)              118.4698         -DE/DX =    0.0                 !
 ! A11   A(3,4,13)             121.736          -DE/DX =    0.0                 !
 ! A12   A(5,4,13)             119.7942         -DE/DX =    0.0                 !
 ! A13   A(4,5,14)             121.1515         -DE/DX =    0.0                 !
 ! A14   A(4,5,20)             122.6599         -DE/DX =    0.0                 !
 ! A15   A(14,5,20)            116.1885         -DE/DX =    0.0                 !
 ! A16   A(1,6,7)              122.6747         -DE/DX =    0.0                 !
 ! A17   A(1,6,19)             116.5812         -DE/DX =    0.0                 !
 ! A18   A(7,6,19)             120.7431         -DE/DX =    0.0                 !
 ! A19   A(6,7,8)              119.6789         -DE/DX =    0.0                 !
 ! A20   A(6,7,15)             120.5306         -DE/DX =    0.0                 !
 ! A21   A(8,7,15)             119.7905         -DE/DX =    0.0                 !
 ! A22   A(7,8,9)              119.0502         -DE/DX =    0.0                 !
 ! A23   A(7,8,16)             120.1091         -DE/DX =    0.0                 !
 ! A24   A(9,8,16)             120.8406         -DE/DX =    0.0                 !
 ! A25   A(8,9,10)             118.4698         -DE/DX =    0.0                 !
 ! A26   A(8,9,17)             121.7231         -DE/DX =    0.0                 !
 ! A27   A(10,9,17)            119.8071         -DE/DX =    0.0                 !
 ! A28   A(9,10,18)            121.1521         -DE/DX =    0.0                 !
 ! A29   A(9,10,19)            122.6628         -DE/DX =    0.0                 !
 ! A30   A(18,10,19)           116.185          -DE/DX =    0.0                 !
 ! A31   A(6,19,10)            119.3942         -DE/DX =    0.0                 !
 ! A32   A(6,19,21)            117.3907         -DE/DX =    0.0                 !
 ! A33   A(10,19,21)           123.1507         -DE/DX =    0.0                 !
 ! A34   A(1,20,5)             119.396          -DE/DX =    0.0                 !
 ! A35   A(1,20,21)            117.3704         -DE/DX =    0.0                 !
 ! A36   A(5,20,21)            123.1834         -DE/DX =    0.0                 !
 ! A37   A(19,21,20)            71.9022         -DE/DX =    0.0                 !
 ! A38   A(19,21,22)            92.845          -DE/DX =    0.0                 !
 ! A39   A(19,21,23)            99.2422         -DE/DX =    0.0                 !
 ! A40   A(19,21,28)            82.8823         -DE/DX =    0.0                 !
 ! A41   A(20,21,22)            92.7718         -DE/DX =    0.0                 !
 ! A42   A(20,21,24)            99.3347         -DE/DX =    0.0                 !
 ! A43   A(20,21,28)            82.9408         -DE/DX =    0.0                 !
 ! A44   A(22,21,23)            90.8328         -DE/DX =    0.0                 !
 ! A45   A(22,21,24)            90.8531         -DE/DX =    0.0                 !
 ! A46   A(23,21,24)            89.3004         -DE/DX =    0.0                 !
 ! A47   A(23,21,28)            92.9409         -DE/DX =    0.0                 !
 ! A48   A(24,21,28)            92.9091         -DE/DX =    0.0                 !
 ! A49   L(19,21,24,20,-1)     171.2368         -DE/DX =    0.0                 !
 ! A50   L(20,21,23,19,-1)     171.1443         -DE/DX =    0.0                 !
 ! A51   L(22,21,28,19,-1)     175.7274         -DE/DX =    0.0                 !
 ! A52   L(21,22,25,13,-1)     179.7437         -DE/DX =    0.0                 !
 ! A53   L(21,23,26,9,-1)      178.0405         -DE/DX =    0.0                 !
 ! A54   L(21,24,27,4,-1)      178.0737         -DE/DX =    0.0                 !
 ! A55   L(19,21,24,20,-2)     176.5891         -DE/DX =    0.0                 !
 ! A56   L(20,21,23,19,-2)     183.2965         -DE/DX =    0.0                 !
 ! A57   L(22,21,28,19,-2)     183.1457         -DE/DX =    0.0                 !
 ! A58   L(21,22,25,13,-2)     180.4327         -DE/DX =    0.0                 !
 ! A59   L(21,23,26,9,-2)      180.3772         -DE/DX =    0.0                 !
 ! A60   L(21,24,27,4,-2)      179.5745         -DE/DX =    0.0                 !
 ! D1    D(6,1,2,3)           -179.4942         -DE/DX =    0.0                 !
 ! D2    D(6,1,2,11)             0.515          -DE/DX =    0.0                 !
 ! D3    D(20,1,2,3)             0.0662         -DE/DX =    0.0                 !
 ! D4    D(20,1,2,11)         -179.9246         -DE/DX =    0.0                 !
 ! D5    D(2,1,6,7)             -0.2842         -DE/DX =    0.0                 !
 ! D6    D(2,1,6,19)           179.3342         -DE/DX =    0.0                 !
 ! D7    D(20,1,6,7)          -179.8619         -DE/DX =    0.0                 !
 ! D8    D(20,1,6,19)           -0.2434         -DE/DX =    0.0                 !
 ! D9    D(2,1,20,5)            -0.256          -DE/DX =    0.0                 !
 ! D10   D(2,1,20,21)          177.2501         -DE/DX =    0.0                 !
 ! D11   D(6,1,20,5)           179.3303         -DE/DX =    0.0                 !
 ! D12   D(6,1,20,21)           -3.1635         -DE/DX =    0.0                 !
 ! D13   D(1,2,3,4)              0.1593         -DE/DX =    0.0                 !
 ! D14   D(1,2,3,12)          -179.942          -DE/DX =    0.0                 !
 ! D15   D(11,2,3,4)          -179.8498         -DE/DX =    0.0                 !
 ! D16   D(11,2,3,12)            0.0489         -DE/DX =    0.0                 !
 ! D17   D(2,3,4,5)             -0.1927         -DE/DX =    0.0                 !
 ! D18   D(2,3,4,13)           179.8721         -DE/DX =    0.0                 !
 ! D19   D(12,3,4,5)           179.9093         -DE/DX =    0.0                 !
 ! D20   D(12,3,4,13)           -0.0258         -DE/DX =    0.0                 !
 ! D21   D(3,4,5,14)          -179.8812         -DE/DX =    0.0                 !
 ! D22   D(3,4,5,20)             0.0031         -DE/DX =    0.0                 !
 ! D23   D(13,4,5,14)            0.0552         -DE/DX =    0.0                 !
 ! D24   D(13,4,5,20)          179.9396         -DE/DX =    0.0                 !
 ! D25   D(4,5,20,1)             0.2232         -DE/DX =    0.0                 !
 ! D26   D(4,5,20,21)         -177.1305         -DE/DX =    0.0                 !
 ! D27   D(14,5,20,1)         -179.8871         -DE/DX =    0.0                 !
 ! D28   D(14,5,20,21)           2.7592         -DE/DX =    0.0                 !
 ! D29   D(1,6,7,8)            179.5103         -DE/DX =    0.0                 !
 ! D30   D(1,6,7,15)            -0.5104         -DE/DX =    0.0                 !
 ! D31   D(19,6,7,8)            -0.0927         -DE/DX =    0.0                 !
 ! D32   D(19,6,7,15)          179.8866         -DE/DX =    0.0                 !
 ! D33   D(1,6,19,10)         -179.2934         -DE/DX =    0.0                 !
 ! D34   D(1,6,19,21)            3.5327         -DE/DX =    0.0                 !
 ! D35   D(7,6,19,10)            0.333          -DE/DX =    0.0                 !
 ! D36   D(7,6,19,21)         -176.841          -DE/DX =    0.0                 !
 ! D37   D(6,7,8,9)             -0.1866         -DE/DX =    0.0                 !
 ! D38   D(6,7,8,16)           179.9138         -DE/DX =    0.0                 !
 ! D39   D(15,7,8,9)           179.8339         -DE/DX =    0.0                 !
 ! D40   D(15,7,8,16)           -0.0657         -DE/DX =    0.0                 !
 ! D41   D(7,8,9,10)             0.2228         -DE/DX =    0.0                 !
 ! D42   D(7,8,9,17)          -179.8508         -DE/DX =    0.0                 !
 ! D43   D(16,8,9,10)         -179.8783         -DE/DX =    0.0                 !
 ! D44   D(16,8,9,17)            0.0481         -DE/DX =    0.0                 !
 ! D45   D(8,9,10,18)          179.8786         -DE/DX =    0.0                 !
 ! D46   D(8,9,10,19)            0.018          -DE/DX =    0.0                 !
 ! D47   D(17,9,10,18)          -0.0492         -DE/DX =    0.0                 !
 ! D48   D(17,9,10,19)        -179.9098         -DE/DX =    0.0                 !
 ! D49   D(9,10,19,6)           -0.2983         -DE/DX =    0.0                 !
 ! D50   D(9,10,19,21)         176.7045         -DE/DX =    0.0                 !
 ! D51   D(18,10,19,6)         179.8347         -DE/DX =    0.0                 !
 ! D52   D(18,10,19,21)         -3.1625         -DE/DX =    0.0                 !
 ! D53   D(6,19,21,20)          -3.767          -DE/DX =    0.0                 !
 ! D54   D(6,19,21,22)         -95.7554         -DE/DX =    0.0                 !
 ! D55   D(6,19,21,23)         172.9364         -DE/DX =    0.0                 !
 ! D56   D(6,19,21,28)          81.0989         -DE/DX =    0.0                 !
 ! D57   D(10,19,21,20)        179.174          -DE/DX =    0.0                 !
 ! D58   D(10,19,21,22)         87.1856         -DE/DX =    0.0                 !
 ! D59   D(10,19,21,23)         -4.1226         -DE/DX =    0.0                 !
 ! D60   D(10,19,21,28)        -95.9601         -DE/DX =    0.0                 !
 ! D61   D(1,20,21,19)           3.6319         -DE/DX =    0.0                 !
 ! D62   D(1,20,21,22)          95.7212         -DE/DX =    0.0                 !
 ! D63   D(1,20,21,24)        -172.9572         -DE/DX =    0.0                 !
 ! D64   D(1,20,21,28)         -81.1537         -DE/DX =    0.0                 !
 ! D65   D(5,20,21,19)        -178.9643         -DE/DX =    0.0                 !
 ! D66   D(5,20,21,22)         -86.875          -DE/DX =    0.0                 !
 ! D67   D(5,20,21,24)           4.4466         -DE/DX =    0.0                 !
 ! D68   D(5,20,21,28)          96.2501         -DE/DX =    0.0                 !
 --------------------------------------------------------------------------------
 Lowest energy point so far.  Saving SCF results.
 Largest change from initial coordinates is atom   28       0.339 Angstoms.
 GradGradGradGradGradGradGradGradGradGradGradGradGradGradGradGradGradGrad

 Leave Link  103 at Mon Nov 17 10:55:08 2025, MaxMem=  2684354560 cpu:               4.4 elap:               0.2
 (Enter /home/programes/qq/gaussian/g16.A03/g16/l202.exe)
                          Input orientation:                          
 ---------------------------------------------------------------------
 Center     Atomic      Atomic             Coordinates (Angstroms)
 Number     Number       Type             X           Y           Z
 ---------------------------------------------------------------------
      1          6           0       -2.288027    0.298865    0.031148
      2          6           0       -0.892497    0.339396   -0.063122
      3          6           0       -0.235612    1.567297   -0.042109
      4          6           0       -0.987422    2.735750    0.076463
      5          6           0       -2.371563    2.627599    0.165433
      6          6           0       -3.053964   -0.969751    0.026523
      7          6           0       -2.439795   -2.222557   -0.078289
      8          6           0       -3.219941   -3.376203   -0.065998
      9          6           0       -4.603975   -3.256419    0.055169
     10          6           0       -5.153150   -1.982094    0.154735
     11          1           0       -0.317135   -0.579214   -0.152731
     12          1           0        0.851621    1.607294   -0.116056
     13          1           0       -0.518646    3.718978    0.099462
     14          1           0       -3.001132    3.511810    0.257390
     15          1           0       -1.359122   -2.302097   -0.169509
     16          1           0       -2.748726   -4.356150   -0.148665
     17          1           0       -5.255269   -4.129638    0.071977
     18          1           0       -6.228794   -1.837792    0.249069
     19          7           0       -4.403624   -0.865278    0.138354
     20          7           0       -3.010188    1.444043    0.141654
     21         75           0       -5.298895    1.248895    0.191189
     22          6           0       -5.352834    1.281100    2.092305
     23          6           0       -7.152101    0.798899    0.118480
     24          6           0       -5.768871    3.097358    0.118109
     25          8           0       -5.377445    1.295901    3.255419
     26          8           0       -8.269787    0.486850    0.065867
     27          8           0       -6.016993    4.230883    0.064541
     28         17           0       -5.019113    1.081285   -2.393839
 ---------------------------------------------------------------------
                    Distance matrix (angstroms):
                    1          2          3          4          5
     1  C    0.000000
     2  C    1.399297   0.000000
     3  C    2.413854   1.392723   0.000000
     4  C    2.762614   2.402292   1.394475   0.000000
     5  C    2.334097   2.734181   2.393658   1.391208   0.000000
     6  C    1.481914   2.528606   3.792682   4.243092   3.664136
     7  C    2.528355   2.992986   4.384373   5.168960   4.856755
     8  C    3.792628   4.384368   5.774511   6.508487   6.067861
     9  C    4.243140   5.169038   6.508478   6.999000   6.294242
    10  C    3.664285   4.856948   6.067875   6.294241   5.383921
    11  H    2.165467   1.087619   2.150905   3.389809   3.821721
    12  H    3.404562   2.156922   1.090478   2.166231   3.392517
    13  H    3.851304   3.404081   2.174829   1.089503   2.151456
    14  H    3.298896   3.822731   3.393955   2.165648   1.089331
    15  H    2.769139   2.684501   4.031218   5.057526   5.043721
    16  H    4.681212   5.049858   6.435396   7.310809   7.000976
    17  H    5.330839   6.246944   7.593750   8.083817   7.347431
    18  H    4.488033   5.771800   6.899104   6.958380   5.901266
    19  N    2.417121   3.717505   4.829318   4.964037   4.041063
    20  N    1.358367   2.397247   2.783385   2.400904   1.345069
    21  Re   3.161250   4.506463   5.078646   4.562094   3.235856
    22  C    3.821805   5.042546   5.551899   5.023589   3.796560
    23  C    4.890488   6.279073   6.960893   6.461921   5.118583
    24  C    4.467147   5.605196   5.743145   4.795284   3.429959
    25  O    4.575425   5.660598   6.114392   5.608139   4.511846
    26  O    5.984814   7.379891   8.107219   7.621713   6.275489
    27  O    5.419139   6.435870   6.366351   5.247108   3.983699
    28  Cl   3.735180   4.797041   5.352450   5.009409   3.993805
                    6          7          8          9         10
     6  C    0.000000
     7  C    1.399182   0.000000
     8  C    2.413942   1.392723   0.000000
     9  C    2.762644   2.402156   1.394482   0.000000
    10  C    2.334064   2.733938   2.393649   1.391190   0.000000
    11  H    2.770358   2.685480   4.031991   5.058423   5.044764
    12  H    4.681355   5.050010   6.435477   7.310851   7.001022
    13  H    5.330792   6.246939   7.593811   8.083813   7.347374
    14  H    4.487815   5.771545   6.899070   6.958370   5.901246
    15  H    2.164732   1.087430   2.151062   3.389732   3.821281
    16  H    3.404638   2.156992   1.090493   2.166312   3.392558
    17  H    3.851324   3.403885   2.174687   1.089486   2.151563
    18  H    3.298873   3.822527   3.393990   2.165672   1.089372
    19  N    1.358308   2.397032   2.783453   2.400962   1.345116
    20  N    2.416935   3.717214   4.829274   4.964069   4.041148
    21  Re   3.160573   4.505336   5.077374   4.560622   3.234480
    22  C    3.823425   5.047066   5.558594   5.029889   3.800327
    23  C    4.464448   5.601226   5.738239   4.789839   3.425061
    24  C    4.890857   6.278758   6.959736   6.459986   5.116765
    25  O    4.577938   5.667710   6.124964   5.618138   4.517721
    26  O    5.415537   6.430433   6.359364   5.239309   3.977061
    27  O    5.985614   7.379947   8.106065   7.619475   6.273392
    28  Cl   3.731851   4.788530   5.340886   4.998566   3.987166
                   11         12         13         14         15
    11  H    0.000000
    12  H    2.479547   0.000000
    13  H    4.310298   2.526517   0.000000
    14  H    4.910042   4.313971   2.496116   0.000000
    15  H    2.013540   4.491501   6.085400   6.056398   0.000000
    16  H    4.491981   6.966077   8.381081   7.882473   2.480034
    17  H    6.086146   8.381041   9.167177   7.969143   4.310242
    18  H    6.057488   7.882525   7.969056   6.247888   4.909633
    19  N    4.106817   5.813427   6.009157   4.597831   3.380565
    20  N    3.381237   3.873839   3.374150   2.071023   4.105656
    21  Re   5.317725   6.168606   5.381496   3.225660   5.316151
    22  C    5.818866   6.593824   5.769232   3.724712   5.822786
    23  C    6.977786   8.047861   7.247754   4.960819   6.577060
    24  C    6.581182   6.790143   5.286929   2.802062   6.977301
    25  O    6.382654   7.089786   6.280071   4.421006   6.389260
    26  O    8.026765   9.191767   8.398093   6.078305   7.455933
    27  O    7.461408   7.354841   5.522235   3.106392   8.026853
    28  Cl   5.467030   6.319058   5.781710   4.124162   5.458064
                   16         17         18         19         20
    16  H    0.000000
    17  H    2.526410   0.000000
    18  H    4.314069   2.496331   0.000000
    19  N    3.873920   3.374278   2.071059   0.000000
    20  N    5.813338   6.009257   4.597978   2.697154   0.000000
    21  Re   6.167285   5.380031   3.224236   2.296526   2.297546
    22  C    6.601660   5.776446   3.727239   3.053827   3.052798
    23  C    6.784954   5.281156   2.796728   3.213099   4.191919
    24  C    8.046566   7.245370   4.958264   4.191276   3.216261
    25  O    7.102368   6.291717   4.425265   3.916008   3.914254
    26  O    7.347299   5.513558   3.098900   4.096428   5.346526
    27  O    9.190439   8.395153   6.075173   5.345957   4.100402
    28  Cl   6.305646   5.769726   4.119381   3.252681   3.255164
                   21         22         23         24         25
    21  Re   0.000000
    22  C    1.902153   0.000000
    23  C    1.908443   2.714012   0.000000
    24  C    1.908673   2.714651   2.682580   0.000000
    25  O    3.065597   1.163469   3.638242   3.638843   0.000000
    26  O    3.069628   3.639492   1.161622   3.615530   4.381033
    27  O    3.069846   3.640625   3.615231   1.161599   4.382333
    28  Cl   2.605521   4.502974   3.307737   3.307048   5.664678
                   26         27         28
    26  O    0.000000
    27  O    4.369538   0.000000
    28  Cl   4.119513   4.118174   0.000000
 Symmetry turned off by external request.
 Stoichiometry    C13H8ClN2O3Re
 Framework group  C1[X(C13H8ClN2O3Re)]
 Deg. of freedom    78
 Full point group                 C1      NOp   1
 Rotational constants (GHZ):           0.3384337           0.2666528           0.1987896
 Leave Link  202 at Mon Nov 17 10:55:08 2025, MaxMem=  2684354560 cpu:               0.1 elap:               0.0
 (Enter /home/programes/qq/gaussian/g16.A03/g16/l601.exe)
 Copying SCF densities to generalized density rwf, IOpCl= 0 IROHF=0.

 **********************************************************************

            Population analysis using the SCF density.

 **********************************************************************

 Alpha  occ. eigenvalues -- -101.46995 -19.20651 -19.20649 -19.20184 -14.39582
 Alpha  occ. eigenvalues --  -14.39580 -10.29355 -10.29353 -10.29089 -10.27129
 Alpha  occ. eigenvalues --  -10.27106 -10.25763 -10.25762 -10.23234 -10.23234
 Alpha  occ. eigenvalues --  -10.22794 -10.22788 -10.22379 -10.22379  -9.38570
 Alpha  occ. eigenvalues --   -7.14462  -7.14085  -7.14069  -3.23427  -1.83362
 Alpha  occ. eigenvalues --   -1.82788  -1.82726  -1.11823  -1.11774  -1.11312
 Alpha  occ. eigenvalues --   -1.00258  -0.97820  -0.83977  -0.83176  -0.83046
 Alpha  occ. eigenvalues --   -0.77555  -0.73491  -0.68893  -0.67973  -0.64762
 Alpha  occ. eigenvalues --   -0.63557  -0.58931  -0.56677  -0.56073  -0.55852
 Alpha  occ. eigenvalues --   -0.53284  -0.53003  -0.50686  -0.49763  -0.47984
 Alpha  occ. eigenvalues --   -0.47437  -0.46409  -0.46303  -0.46194  -0.45988
 Alpha  occ. eigenvalues --   -0.45287  -0.45097  -0.44679  -0.43917  -0.43624
 Alpha  occ. eigenvalues --   -0.43169  -0.42821  -0.42568  -0.42334  -0.39998
 Alpha  occ. eigenvalues --   -0.39412  -0.35082  -0.33683  -0.33360  -0.32305
 Alpha  occ. eigenvalues --   -0.32277  -0.29704  -0.27637  -0.27547  -0.26882
 Alpha  occ. eigenvalues --   -0.24930  -0.23380  -0.23108
 Alpha virt. eigenvalues --   -0.09414  -0.05978  -0.05172  -0.03889  -0.03079
 Alpha virt. eigenvalues --   -0.00436   0.00426   0.01218   0.02364   0.02521
 Alpha virt. eigenvalues --    0.03674   0.03948   0.04552   0.05371   0.07042
 Alpha virt. eigenvalues --    0.07173   0.07943   0.08602   0.09509   0.10837
 Alpha virt. eigenvalues --    0.11915   0.12286   0.14295   0.15241   0.15592
 Alpha virt. eigenvalues --    0.18983   0.19742   0.20806   0.23305   0.24010
 Alpha virt. eigenvalues --    0.25698   0.25817   0.26676   0.28036   0.31227
 Alpha virt. eigenvalues --    0.32670   0.33188   0.33905   0.34240   0.35175
 Alpha virt. eigenvalues --    0.37012   0.39518   0.40538   0.41256   0.42292
 Alpha virt. eigenvalues --    0.42308   0.42766   0.44528   0.45616   0.46343
 Alpha virt. eigenvalues --    0.46676   0.47140   0.47158   0.47749   0.48293
 Alpha virt. eigenvalues --    0.49382   0.50193   0.50503   0.50729   0.51224
 Alpha virt. eigenvalues --    0.52760   0.53094   0.54091   0.54725   0.55249
 Alpha virt. eigenvalues --    0.56737   0.57692   0.58255   0.58310   0.59755
 Alpha virt. eigenvalues --    0.61649   0.62441   0.62728   0.63262   0.63571
 Alpha virt. eigenvalues --    0.64520   0.64946   0.65286   0.65678   0.65986
 Alpha virt. eigenvalues --    0.67683   0.68123   0.68389   0.69049   0.70101
 Alpha virt. eigenvalues --    0.71211   0.72383   0.73527   0.73922   0.75535
 Alpha virt. eigenvalues --    0.75755   0.79415   0.80083   0.81298   0.81580
 Alpha virt. eigenvalues --    0.82748   0.82859   0.84086   0.85907   0.86015
 Alpha virt. eigenvalues --    0.87027   0.87824   0.88921   0.89545   0.89817
 Alpha virt. eigenvalues --    0.89959   0.90192   0.91270   0.93402   0.94139
 Alpha virt. eigenvalues --    0.94336   0.95890   0.96009   0.96189   0.97147
 Alpha virt. eigenvalues --    0.99410   1.00073   1.00516   1.01229   1.02853
 Alpha virt. eigenvalues --    1.03334   1.03839   1.04034   1.05376   1.05842
 Alpha virt. eigenvalues --    1.06487   1.07078   1.08056   1.08409   1.08672
 Alpha virt. eigenvalues --    1.09497   1.10000   1.10935   1.12662   1.13306
 Alpha virt. eigenvalues --    1.13782   1.14337   1.14618   1.16992   1.20257
 Alpha virt. eigenvalues --    1.22532   1.22802   1.26493   1.28746   1.30326
 Alpha virt. eigenvalues --    1.33552   1.34671   1.36538   1.37292   1.38912
 Alpha virt. eigenvalues --    1.40700   1.41578   1.43225   1.44274   1.44828
 Alpha virt. eigenvalues --    1.45320   1.46474   1.46862   1.47615   1.48552
 Alpha virt. eigenvalues --    1.52170   1.53096   1.54526   1.54668   1.55572
 Alpha virt. eigenvalues --    1.57830   1.58997   1.59011   1.60426   1.60462
 Alpha virt. eigenvalues --    1.61665   1.62724   1.64679   1.65095   1.67269
 Alpha virt. eigenvalues --    1.68394   1.69028   1.69403   1.70276   1.71230
 Alpha virt. eigenvalues --    1.71304   1.74959   1.75354   1.75953   1.77687
 Alpha virt. eigenvalues --    1.79341   1.80318   1.80810   1.80972   1.82448
 Alpha virt. eigenvalues --    1.83704   1.84387   1.85835   1.87166   1.88470
 Alpha virt. eigenvalues --    1.88814   1.89382   1.91459   1.92431   1.93778
 Alpha virt. eigenvalues --    1.95525   1.96796   1.98228   1.98360   1.99286
 Alpha virt. eigenvalues --    2.00129   2.00328   2.01051   2.04561   2.04755
 Alpha virt. eigenvalues --    2.06088   2.07496   2.10267   2.11180   2.15316
 Alpha virt. eigenvalues --    2.22590   2.23711   2.25780   2.29166   2.32020
 Alpha virt. eigenvalues --    2.33268   2.34959   2.35600   2.35843   2.37098
 Alpha virt. eigenvalues --    2.37531   2.38831   2.43015   2.46895   2.47397
 Alpha virt. eigenvalues --    2.48997   2.50329   2.59990   2.60077   2.60340
 Alpha virt. eigenvalues --    2.60557   2.61137   2.61447   2.62296   2.62342
 Alpha virt. eigenvalues --    2.69884   2.71074   2.75317   2.76728   2.81479
 Alpha virt. eigenvalues --    2.84543   2.86292   2.90088   3.08092   3.08388
 Alpha virt. eigenvalues --    3.08697   3.09052   3.09453   3.09932   3.10118
 Alpha virt. eigenvalues --    3.43219   3.49005   3.49617   3.49675   3.56464
 Alpha virt. eigenvalues --   21.40000
          Condensed to atoms (all electrons):
               1          2          3          4          5          6
     1  C    4.964435   0.495590  -0.001050  -0.054109  -0.056309   0.251956
     2  C    0.495590   4.798591   0.477215   0.010601  -0.061464  -0.080889
     3  C   -0.001050   0.477215   4.643642   0.480942  -0.015185   0.009828
     4  C   -0.054109   0.010601   0.480942   4.711666   0.531373   0.000973
     5  C   -0.056309  -0.061464  -0.015185   0.531373   4.619018   0.006533
     6  C    0.251956  -0.080889   0.009828   0.000973   0.006533   4.964065
     7  C   -0.080856  -0.006906   0.000397  -0.000080  -0.000035   0.495771
     8  C    0.009833   0.000399  -0.000047   0.000002   0.000002  -0.001014
     9  C    0.000967  -0.000080   0.000002  -0.000000  -0.000001  -0.054127
    10  C    0.006536  -0.000035   0.000002  -0.000001   0.000049  -0.056288
    11  H   -0.042396   0.410153  -0.042637   0.009257   0.000354  -0.022564
    12  H    0.009606  -0.038547   0.397959  -0.050485   0.009409  -0.000313
    13  H    0.000515   0.009258  -0.039280   0.403373  -0.043870   0.000030
    14  H    0.002491   0.001978   0.005550  -0.034048   0.384015  -0.000818
    15  H   -0.022628   0.003104   0.001352  -0.000047  -0.000010  -0.042219
    16  H   -0.000313   0.000026  -0.000001   0.000000  -0.000000   0.009607
    17  H    0.000030  -0.000001   0.000000  -0.000000   0.000000   0.000518
    18  H   -0.000818   0.000014   0.000000  -0.000000   0.000003   0.002482
    19  N   -0.017774   0.003949  -0.000135   0.000003  -0.000669   0.386759
    20  N    0.386703  -0.030837  -0.035172  -0.014927   0.481220  -0.017755
    21  Re  -0.062255  -0.000052   0.000685  -0.001141  -0.028343  -0.062270
    22  C   -0.001005   0.000040   0.000024  -0.000038  -0.002426  -0.000983
    23  C    0.000710  -0.000000  -0.000001   0.000001   0.000147  -0.000867
    24  C   -0.000866   0.000011   0.000002   0.000183  -0.002785   0.000710
    25  O    0.000034   0.000000  -0.000000   0.000001   0.000111   0.000033
    26  O   -0.000001  -0.000000   0.000000  -0.000000  -0.000000  -0.000004
    27  O   -0.000004   0.000000  -0.000000  -0.000002  -0.000797  -0.000001
    28  Cl   0.000288  -0.000425   0.000048  -0.000271   0.000113   0.000270
               7          8          9         10         11         12
     1  C   -0.080856   0.009833   0.000967   0.006536  -0.042396   0.009606
     2  C   -0.006906   0.000399  -0.000080  -0.000035   0.410153  -0.038547
     3  C    0.000397  -0.000047   0.000002   0.000002  -0.042637   0.397959
     4  C   -0.000080   0.000002  -0.000000  -0.000001   0.009257  -0.050485
     5  C   -0.000035   0.000002  -0.000001   0.000049   0.000354   0.009409
     6  C    0.495771  -0.001014  -0.054127  -0.056288  -0.022564  -0.000313
     7  C    4.798398   0.477050   0.010671  -0.061508   0.003087   0.000026
     8  C    0.477050   4.643685   0.481024  -0.015190   0.001350  -0.000001
     9  C    0.010671   0.481024   4.711574   0.531241  -0.000047   0.000000
    10  C   -0.061508  -0.015190   0.531241   4.619516  -0.000010  -0.000000
    11  H    0.003087   0.001350  -0.000047  -0.000010   0.687778  -0.014590
    12  H    0.000026  -0.000001   0.000000  -0.000000  -0.014590   0.681970
    13  H   -0.000001   0.000000  -0.000000   0.000000  -0.000207  -0.012772
    14  H    0.000014   0.000000  -0.000000   0.000003   0.000107  -0.000302
    15  H    0.410128  -0.042760   0.009255   0.000355  -0.007176   0.000079
    16  H   -0.038625   0.397964  -0.050415   0.009409   0.000078  -0.000000
    17  H    0.009254  -0.039185   0.403346  -0.043929  -0.000000  -0.000000
    18  H    0.001980   0.005549  -0.034085   0.383986  -0.000001   0.000000
    19  N   -0.030815  -0.035187  -0.014876   0.481066   0.000175   0.000001
    20  N    0.003954  -0.000135   0.000004  -0.000670   0.004130  -0.000226
    21  Re  -0.000049   0.000683  -0.001132  -0.028343  -0.000596   0.000362
    22  C    0.000042   0.000023  -0.000036  -0.002410  -0.000003   0.000000
    23  C    0.000011   0.000002   0.000184  -0.002847   0.000001  -0.000000
    24  C   -0.000000  -0.000001   0.000001   0.000148  -0.000001   0.000000
    25  O    0.000000  -0.000000   0.000001   0.000109   0.000000  -0.000000
    26  O    0.000000  -0.000000  -0.000002  -0.000819  -0.000000   0.000000
    27  O   -0.000000   0.000000  -0.000000  -0.000000   0.000000  -0.000000
    28  Cl  -0.000439   0.000050  -0.000282   0.000132  -0.000000  -0.000000
              13         14         15         16         17         18
     1  C    0.000515   0.002491  -0.022628  -0.000313   0.000030  -0.000818
     2  C    0.009258   0.001978   0.003104   0.000026  -0.000001   0.000014
     3  C   -0.039280   0.005550   0.001352  -0.000001   0.000000   0.000000
     4  C    0.403373  -0.034048  -0.000047   0.000000  -0.000000  -0.000000
     5  C   -0.043870   0.384015  -0.000010  -0.000000   0.000000   0.000003
     6  C    0.000030  -0.000818  -0.042219   0.009607   0.000518   0.002482
     7  C   -0.000001   0.000014   0.410128  -0.038625   0.009254   0.001980
     8  C    0.000000   0.000000  -0.042760   0.397964  -0.039185   0.005549
     9  C   -0.000000  -0.000000   0.009255  -0.050415   0.403346  -0.034085
    10  C    0.000000   0.000003   0.000355   0.009409  -0.043929   0.383986
    11  H   -0.000207   0.000107  -0.007176   0.000078  -0.000000  -0.000001
    12  H   -0.012772  -0.000302   0.000079  -0.000000  -0.000000   0.000000
    13  H    0.672015  -0.009275  -0.000000  -0.000000  -0.000000  -0.000000
    14  H   -0.009275   0.653321  -0.000001   0.000000  -0.000000   0.000000
    15  H   -0.000000  -0.000001   0.687803  -0.014577  -0.000208   0.000107
    16  H   -0.000000   0.000000  -0.014577   0.681970  -0.012770  -0.000302
    17  H   -0.000000  -0.000000  -0.000208  -0.012770   0.671988  -0.009268
    18  H   -0.000000   0.000000   0.000107  -0.000302  -0.009268   0.653337
    19  N    0.000001  -0.000038   0.004140  -0.000226   0.004416  -0.032842
    20  N    0.004417  -0.032855   0.000177   0.000001   0.000001  -0.000038
    21  Re  -0.000222  -0.017337  -0.000597   0.000363  -0.000224  -0.017436
    22  C   -0.000005  -0.001183  -0.000003   0.000000  -0.000005  -0.001176
    23  C    0.000000   0.000208  -0.000001   0.000000  -0.000029  -0.000829
    24  C   -0.000029  -0.000850   0.000001  -0.000000   0.000000   0.000210
    25  O    0.000000  -0.000027   0.000000  -0.000000   0.000000  -0.000027
    26  O   -0.000000  -0.000001   0.000000  -0.000000  -0.000001   0.003572
    27  O   -0.000001   0.003492  -0.000000   0.000000  -0.000000  -0.000001
    28  Cl  -0.000003  -0.000688  -0.000000  -0.000000  -0.000003  -0.000689
              19         20         21         22         23         24
     1  C   -0.017774   0.386703  -0.062255  -0.001005   0.000710  -0.000866
     2  C    0.003949  -0.030837  -0.000052   0.000040  -0.000000   0.000011
     3  C   -0.000135  -0.035172   0.000685   0.000024  -0.000001   0.000002
     4  C    0.000003  -0.014927  -0.001141  -0.000038   0.000001   0.000183
     5  C   -0.000669   0.481220  -0.028343  -0.002426   0.000147  -0.002785
     6  C    0.386759  -0.017755  -0.062270  -0.000983  -0.000867   0.000710
     7  C   -0.030815   0.003954  -0.000049   0.000042   0.000011  -0.000000
     8  C   -0.035187  -0.000135   0.000683   0.000023   0.000002  -0.000001
     9  C   -0.014876   0.000004  -0.001132  -0.000036   0.000184   0.000001
    10  C    0.481066  -0.000670  -0.028343  -0.002410  -0.002847   0.000148
    11  H    0.000175   0.004130  -0.000596  -0.000003   0.000001  -0.000001
    12  H    0.000001  -0.000226   0.000362   0.000000  -0.000000   0.000000
    13  H    0.000001   0.004417  -0.000222  -0.000005   0.000000  -0.000029
    14  H   -0.000038  -0.032855  -0.017337  -0.001183   0.000208  -0.000850
    15  H    0.004140   0.000177  -0.000597  -0.000003  -0.000001   0.000001
    16  H   -0.000226   0.000001   0.000363   0.000000   0.000000  -0.000000
    17  H    0.004416   0.000001  -0.000224  -0.000005  -0.000029   0.000000
    18  H   -0.032842  -0.000038  -0.017436  -0.001176  -0.000829   0.000210
    19  N    6.394435  -0.015692   0.199383   0.000698   0.005254  -0.004583
    20  N   -0.015692   6.394101   0.199443   0.000685  -0.004571   0.005244
    21  Re   0.199383   0.199443  13.783368   0.115162   0.055256   0.055052
    22  C    0.000698   0.000685   0.115162   5.394347  -0.041330  -0.041292
    23  C    0.005254  -0.004571   0.055256  -0.041330   5.474514  -0.056226
    24  C   -0.004583   0.005244   0.055052  -0.041292  -0.056226   5.474364
    25  O   -0.000037  -0.000038  -0.011224   0.698282  -0.000680  -0.000676
    26  O   -0.000049   0.000002  -0.007885  -0.001005   0.697735  -0.001138
    27  O    0.000002  -0.000048  -0.007860  -0.000996  -0.001143   0.697826
    28  Cl  -0.010434  -0.010359   0.248721  -0.004659   0.006449   0.006435
              25         26         27         28
     1  C    0.000034  -0.000001  -0.000004   0.000288
     2  C    0.000000  -0.000000   0.000000  -0.000425
     3  C   -0.000000   0.000000  -0.000000   0.000048
     4  C    0.000001  -0.000000  -0.000002  -0.000271
     5  C    0.000111  -0.000000  -0.000797   0.000113
     6  C    0.000033  -0.000004  -0.000001   0.000270
     7  C    0.000000   0.000000  -0.000000  -0.000439
     8  C   -0.000000  -0.000000   0.000000   0.000050
     9  C    0.000001  -0.000002  -0.000000  -0.000282
    10  C    0.000109  -0.000819  -0.000000   0.000132
    11  H    0.000000  -0.000000   0.000000  -0.000000
    12  H   -0.000000   0.000000  -0.000000  -0.000000
    13  H    0.000000  -0.000000  -0.000001  -0.000003
    14  H   -0.000027  -0.000001   0.003492  -0.000688
    15  H    0.000000   0.000000  -0.000000  -0.000000
    16  H   -0.000000  -0.000000   0.000000  -0.000000
    17  H    0.000000  -0.000001  -0.000000  -0.000003
    18  H   -0.000027   0.003572  -0.000001  -0.000689
    19  N   -0.000037  -0.000049   0.000002  -0.010434
    20  N   -0.000038   0.000002  -0.000048  -0.010359
    21  Re  -0.011224  -0.007885  -0.007860   0.248721
    22  C    0.698282  -0.001005  -0.000996  -0.004659
    23  C   -0.000680   0.697735  -0.001143   0.006449
    24  C   -0.000676  -0.001138   0.697826   0.006435
    25  O    7.428797   0.000032   0.000032   0.000007
    26  O    0.000032   7.416123   0.000033   0.000176
    27  O    0.000032   0.000033   7.415994   0.000175
    28  Cl   0.000007   0.000176   0.000175  17.247809
 Mulliken charges:
               1
     1  C    0.210689
     2  C    0.008304
     3  C    0.115858
     4  C    0.006772
     5  C    0.179547
     6  C    0.210578
     7  C    0.008530
     8  C    0.115905
     9  C    0.006813
    10  C    0.179496
    11  H    0.013760
    12  H    0.017824
    13  H    0.016057
    14  H    0.046243
    15  H    0.013725
    16  H    0.017808
    17  H    0.016070
    18  H    0.046273
    19  N   -0.316927
    20  N   -0.316760
    21  Re   0.588490
    22  C   -0.110748
    23  C   -0.131946
    24  C   -0.131741
    25  O   -0.114729
    26  O   -0.106768
    27  O   -0.106701
    28  Cl  -0.482422
 Sum of Mulliken charges =  -0.00000
 Mulliken charges with hydrogens summed into heavy atoms:
               1
     1  C    0.210689
     2  C    0.022063
     3  C    0.133682
     4  C    0.022829
     5  C    0.225790
     6  C    0.210578
     7  C    0.022255
     8  C    0.133713
     9  C    0.022884
    10  C    0.225770
    19  N   -0.316927
    20  N   -0.316760
    21  Re   0.588490
    22  C   -0.110748
    23  C   -0.131946
    24  C   -0.131741
    25  O   -0.114729
    26  O   -0.106768
    27  O   -0.106701
    28  Cl  -0.482422
 Electronic spatial extent (au):  <R**2>=          15607.2708
 Charge=              0.0000 electrons
 Dipole moment (field-independent basis, Debye):
    X=             11.5715    Y=             -6.9767    Z=              4.3434  Tot=             14.1929
 Quadrupole moment (field-independent basis, Debye-Ang):
   XX=           -214.8233   YY=           -116.7820   ZZ=           -162.1002
   XY=             44.6626   XZ=            -22.2802   YZ=              5.1481
 Traceless Quadrupole moment (field-independent basis, Debye-Ang):
   XX=            -50.2548   YY=             47.7865   ZZ=              2.4683
   XY=             44.6626   XZ=            -22.2802   YZ=              5.1481
 Octapole moment (field-independent basis, Debye-Ang**2):
  XXX=           2266.5724  YYY=           -327.7319  ZZZ=             -5.8050  XYY=            559.8166
  XXY=           -328.4823  XXZ=            106.1463  XZZ=            698.6619  YZZ=           -105.8043
  YYZ=              2.3414  XYZ=            -21.2204
 Hexadecapole moment (field-independent basis, Debye-Ang**3):
 XXXX=         -21762.6603 YYYY=          -3094.7254 ZZZZ=          -1295.5863 XXXY=           2582.9583
 XXXZ=           -453.0695 YYYX=           1701.7191 YYYZ=            -17.7045 ZZZX=             76.8375
 ZZZY=            -39.3754 XXYY=          -3605.2576 XXZZ=          -3784.8950 YYZZ=           -791.1778
 XXYZ=             79.3644 YYXZ=              0.6088 ZZXY=            504.1946
 N-N= 1.754393444417D+03 E-N=-6.710835890174D+03  KE= 1.314131035127D+03

 Atomic contributions to Alpha molecular orbitals:
 Alpha occ 59 OE=-0.439 is O27-p=0.1922 O26-p=0.1895
 Alpha occ 60 OE=-0.436 is O25-p=0.1241 O26-p=0.1232 O27-p=0.1209
 Alpha occ 61 OE=-0.432 is O25-p=0.2593 O27-p=0.2058 O26-p=0.2051 C22-p=0.1097
 Alpha occ 62 OE=-0.428 is O25-p=0.2743 C22-p=0.1058
 Alpha occ 63 OE=-0.426 is O26-p=0.1279 O27-p=0.1274
 Alpha occ 64 OE=-0.423 is N20-p=0.1297 N19-p=0.1292
 Alpha occ 65 OE=-0.400 is C4-p=0.0995
 Alpha occ 66 OE=-0.394 is C8-p=0.0790
 Alpha occ 67 OE=-0.351 is N19-p=0.1486 N20-p=0.1481
 Alpha occ 68 OE=-0.337 is N20-p=0.1778 N19-p=0.1766
 Alpha occ 69 OE=-0.334 is C3-p=0.1675 C8-p=0.1667 C4-p=0.1177 C9-p=0.1174
 Alpha occ 70 OE=-0.323 is C8-p=0.1652 C3-p=0.1649 N19-p=0.1247 N20-p=0.1202
 Alpha occ 71 OE=-0.323 is C5-p=0.1450 C10-p=0.1420 C6-p=0.1280 C1-p=0.1274
 Alpha occ 72 OE=-0.297 is Cl28-p=0.7410
 Alpha occ 73 OE=-0.276 is Cl28-p=0.6261 Re21-d=0.1627
 Alpha occ 74 OE=-0.275 is Cl28-p=0.6358 Re21-d=0.1719
 Alpha occ 75 OE=-0.269 is C9-p=0.1422 C4-p=0.1421 C2-p=0.1169 C7-p=0.1165
 Alpha occ 76 OE=-0.249 is Re21-d=0.6374 O26-p=0.1035 O27-p=0.1035
 Alpha occ 77 OE=-0.234 is Re21-d=0.4396 Cl28-p=0.2908
 Alpha occ 78 OE=-0.231 is Re21-d=0.4637 Cl28-p=0.2606
 Alpha vir 79 OE=-0.094 is C1-p=0.1185 C6-p=0.1184 C4-p=0.1076 C9-p=0.1076 N19-p=0.1062 N20-p=0.1062
 Alpha vir 80 OE=-0.060 is C2-p=0.1634 C7-p=0.1631 C5-p=0.1561 C10-p=0.1558
 Alpha vir 81 OE=-0.052 is C8-p=0.1376 C3-p=0.1374 C10-p=0.1292 C5-p=0.1289
 Alpha vir 82 OE=-0.039 is Re21-p=0.1902 C24-p=0.1605 C23-p=0.1604 Re21-d=0.1145
 Alpha vir 83 OE=-0.031 is Re21-p=0.1874 C22-p=0.1672 C24-p=0.1204 C23-p=0.1201 Re21-d=0.1032
 Alpha vir 84 OE=-0.004 is C9-p=0.1544 C4-p=0.1542 C6-p=0.1400 C1-p=0.1399
 Alpha vir 85 OE=0.004 is C22-p=0.2302 C24-p=0.2158 C23-p=0.2156
 Alpha vir 86 OE=0.012 is Re21-p=0.2845 Re21-d=0.2157 C22-p=0.1409 C23-p=0.1064 C24-p=0.1052
 Alpha vir 87 OE=0.024 is Re21-p=0.3996 C23-p=0.1283 C24-p=0.1277 Re21-d=0.1226
 Alpha vir 88 OE=0.025 is Re21-p=0.2191 C22-p=0.2073 Re21-d=0.1692
 Alpha vir 89 OE=0.037 is Re21-p=0.5131 Re21-d=0.1187
 Alpha vir 90 OE=0.039 is Re21-p=0.2322 C22-p=0.2014 Re21-d=0.1883
 Alpha vir 91 OE=0.046 is Re21-p=0.6570
 Alpha vir 92 OE=0.054 is H11-s=0.2092 H15-s=0.2087 H12-s=0.1239 H16-s=0.1238
 Alpha vir 93 OE=0.070 is Re21-d=0.3235 Re21-p=0.3043 C22-s=0.1182
 Alpha vir 94 OE=0.072 is Re21-p=0.3383 Re21-d=0.3301
 Alpha vir 95 OE=0.079 is H16-s=0.3139 H12-s=0.3134 H17-s=0.1418 H13-s=0.1409
 Alpha vir 96 OE=0.086 is H15-s=0.1717 H11-s=0.1714 H14-s=0.1643 H18-s=0.1640 H13-s=0.1463 H17-s=0.1454
 Alpha vir 97 OE=0.095 is C4-p=0.1122 C9-p=0.1122
 Alpha vir 98 OE=0.108 is Re21-s=0.2457 H16-s=0.1760 H12-s=0.1749 H18-s=0.1056 H14-s=0.1055
 
 No NMR shielding tensors so no spin-rotation constants.
 Leave Link  601 at Mon Nov 17 10:55:08 2025, MaxMem=  2684354560 cpu:               4.6 elap:               0.2
 (Enter /home/programes/qq/gaussian/g16.A03/g16/l9999.exe)
 1\1\GINC-MAGINET226\FOpt\RB3LYP\Gen\C13H8Cl1N2O3Re1\SOLE\17-Nov-2025\0
 \\#p opt freq b3lyp/gen EmpiricalDispersion=GD3BJ pseudo=read scrf=(so
 lvent=n,n-DiMethylFormamide,pcm) nosymm pop=(Orbitals=20)\\Title Card 
 Required\\0,1\C,-2.2880266509,0.2988652842,0.0311475714\C,-0.892496733
 1,0.3393964159,-0.0631217962\C,-0.2356121312,1.5672969524,-0.042108654
 1\C,-0.9874220774,2.7357501852,0.0764625776\C,-2.371562948,2.627598767
 2,0.1654333467\C,-3.0539644551,-0.9697512511,0.0265230483\C,-2.4397954
 53,-2.2225567073,-0.078289034\C,-3.2199410535,-3.3762027767,-0.0659977
 548\C,-4.6039749221,-3.2564189475,0.0551692196\C,-5.1531498563,-1.9820
 942702,0.1547353178\H,-0.3171354464,-0.5792141707,-0.1527305196\H,0.85
 16207263,1.6072938805,-0.1160557831\H,-0.5186464222,3.7189782436,0.099
 4615959\H,-3.0011318228,3.5118097425,0.2573895377\H,-1.359121573,-2.30
 20972057,-0.1695088857\H,-2.7487260257,-4.35615048,-0.1486646735\H,-5.
 2552692791,-4.1296382501,0.0719772943\H,-6.2287935947,-1.8377918561,0.
 2490688572\N,-4.4036237695,-0.865277818,0.1383537565\N,-3.0101881008,1
 .4440431517,0.1416537733\Re,-5.2988952352,1.248895156,0.1911892607\C,-
 5.3528335234,1.2810997004,2.0923045513\C,-7.1521006114,0.7988986006,0.
 1184802738\C,-5.7688714708,3.0973576167,0.1181086182\O,-5.3774445578,1
 .2959013272,3.2554192347\O,-8.2697872937,0.4868504537,0.0658669455\O,-
 6.0169925226,4.2308828804,0.0645410065\Cl,-5.0191131966,1.0812853751,-
 2.3938386862\\Version=ES64L-G16RevA.03\HF=-1375.0680542\RMSD=3.552e-09
 \RMSF=2.583e-05\Dipole=4.5525636,-2.7448289,1.7088395\Quadrupole=-37.3
 632169,35.5280736,1.8351434,33.2055611,-16.5647763,3.8274764\PG=C01 [X
 (C13H8Cl1N2O3Re1)]\\@


 CHILDREN YOU ARE VERY LITTLE,
 AND YOUR BONES ARE VERY BRITTLE;
 IF YOU WOULD GROW GREAT AND STATELY
 YOU MUST TRY TO WALK SEDATELY.
 YOU MUST STILL BE BRIGHT AND QUIET,
 AND CONTENT WITH SIMPLE DIET;
 AND REMAIN, THROUGH ALL BEWILD'RING
 INNOCENT AND HONEST CHILDREN.
     -- A CHILD'S GARDEN OF VERSE,
        ROBERT LOUIS STEVENSON
 Leave Link 9999 at Mon Nov 17 10:55:08 2025, MaxMem=  2684354560 cpu:               0.5 elap:               0.0
 Job cpu time:       0 days  4 hours 23 minutes 22.9 seconds.
 Elapsed time:       0 days  0 hours  8 minutes 43.4 seconds.
 File lengths (MBytes):  RWF=    307 Int=      0 D2E=      0 Chk=     14 Scr=      2
 Normal termination of Gaussian 16 at Mon Nov 17 10:55:09 2025.
 (Enter /home/programes/qq/gaussian/g16.A03/g16/l1.exe)
 Link1:  Proceeding to internal job step number  2.
 ------------------------------------------------------------------
 #P Geom=AllCheck Guess=TCheck SCRF=Check GenChk RB3LYP/ChkBas Freq
 ------------------------------------------------------------------
 1/10=4,29=7,30=1,38=1,40=1/1,3;
 2/12=2,15=1,40=1/2;
 3/5=7,6=2,11=2,14=-4,16=1,17=8,25=1,30=1,67=1,70=2,71=2,74=-5,82=7,116=1,124=41,140=1/1,2,3;
 4/5=101/1;
 5/5=2,38=6,98=1/2;
 8/6=4,10=90,11=11/1;
 11/6=1,8=1,9=11,15=111,16=1,31=1/1,2,10;
 10/6=1,31=1/2;
 6/7=2,8=2,9=2,10=2,28=1/1;
 7/8=1,10=1,25=1,30=1/1,2,3,16;
 1/10=4,30=1/3;
 99//99;
 Leave Link    1 at Mon Nov 17 10:55:09 2025, MaxMem=  2684354560 cpu:               0.7 elap:               0.0
 (Enter /home/programes/qq/gaussian/g16.A03/g16/l101.exe)
 Structure from the checkpoint file:  "re-bpy-co3-cl.chk"
 -------------------
 Title Card Required
 -------------------
 Charge =  0 Multiplicity = 1
 Redundant internal coordinates found in file.  (old form).
 C,0,-2.2880266509,0.2988652842,0.0311475714
 C,0,-0.8924967331,0.3393964159,-0.0631217962
 C,0,-0.2356121312,1.5672969524,-0.0421086541
 C,0,-0.9874220774,2.7357501852,0.0764625776
 C,0,-2.371562948,2.6275987672,0.1654333467
 C,0,-3.0539644551,-0.9697512511,0.0265230483
 C,0,-2.439795453,-2.2225567073,-0.078289034
 C,0,-3.2199410535,-3.3762027767,-0.0659977548
 C,0,-4.6039749221,-3.2564189475,0.0551692196
 C,0,-5.1531498563,-1.9820942702,0.1547353178
 H,0,-0.3171354464,-0.5792141707,-0.1527305196
 H,0,0.8516207263,1.6072938805,-0.1160557831
 H,0,-0.5186464222,3.7189782436,0.0994615959
 H,0,-3.0011318228,3.5118097425,0.2573895377
 H,0,-1.359121573,-2.3020972057,-0.1695088857
 H,0,-2.7487260257,-4.35615048,-0.1486646735
 H,0,-5.2552692791,-4.1296382501,0.0719772943
 H,0,-6.2287935947,-1.8377918561,0.2490688572
 N,0,-4.4036237695,-0.865277818,0.1383537565
 N,0,-3.0101881008,1.4440431517,0.1416537733
 Re,0,-5.2988952352,1.248895156,0.1911892607
 C,0,-5.3528335234,1.2810997004,2.0923045513
 C,0,-7.1521006114,0.7988986006,0.1184802738
 C,0,-5.7688714708,3.0973576167,0.1181086182
 O,0,-5.3774445578,1.2959013272,3.2554192347
 O,0,-8.2697872937,0.4868504537,0.0658669455
 O,0,-6.0169925226,4.2308828804,0.0645410065
 Cl,0,-5.0191131966,1.0812853751,-2.3938386862
 Recover connectivity data from disk.
 ITRead=  0  0  0  0  0  0  0  0  0  0  0  0  0  0  0  0  0  0  0  0
 ITRead=  0  0  0  0  0  0  0  0
 MicOpt= -1 -1 -1 -1 -1 -1 -1 -1 -1 -1 -1 -1 -1 -1 -1 -1 -1 -1 -1 -1
 MicOpt= -1 -1 -1 -1 -1 -1 -1 -1
 NAtoms=     28 NQM=       28 NQMF=       0 NMMI=      0 NMMIF=      0
                NMic=       0 NMicF=      0.
                    Isotopes and Nuclear Properties:
 (Nuclear quadrupole moments (NQMom) in fm**2, nuclear magnetic moments (NMagM)
  in nuclear magnetons)

  Atom         1           2           3           4           5           6           7           8           9          10
 IAtWgt=          12          12          12          12          12          12          12          12          12          12
 AtmWgt=  12.0000000  12.0000000  12.0000000  12.0000000  12.0000000  12.0000000  12.0000000  12.0000000  12.0000000  12.0000000
 NucSpn=           0           0           0           0           0           0           0           0           0           0
 AtZEff=   3.6000000   3.6000000   3.6000000   3.6000000   3.6000000   3.6000000   3.6000000   3.6000000   3.6000000   3.6000000
 NQMom=    0.0000000   0.0000000   0.0000000   0.0000000   0.0000000   0.0000000   0.0000000   0.0000000   0.0000000   0.0000000
 NMagM=    0.0000000   0.0000000   0.0000000   0.0000000   0.0000000   0.0000000   0.0000000   0.0000000   0.0000000   0.0000000
 AtZNuc=   6.0000000   6.0000000   6.0000000   6.0000000   6.0000000   6.0000000   6.0000000   6.0000000   6.0000000   6.0000000

  Atom        11          12          13          14          15          16          17          18          19          20
 IAtWgt=           1           1           1           1           1           1           1           1          14          14
 AtmWgt=   1.0078250   1.0078250   1.0078250   1.0078250   1.0078250   1.0078250   1.0078250   1.0078250  14.0030740  14.0030740
 NucSpn=           1           1           1           1           1           1           1           1           2           2
 AtZEff=   1.0000000   1.0000000   1.0000000   1.0000000   1.0000000   1.0000000   1.0000000   1.0000000   4.5500000   4.5500000
 NQMom=    0.0000000   0.0000000   0.0000000   0.0000000   0.0000000   0.0000000   0.0000000   0.0000000   2.0440000   2.0440000
 NMagM=    2.7928460   2.7928460   2.7928460   2.7928460   2.7928460   2.7928460   2.7928460   2.7928460   0.4037610   0.4037610
 AtZNuc=   1.0000000   1.0000000   1.0000000   1.0000000   1.0000000   1.0000000   1.0000000   1.0000000   7.0000000   7.0000000

  Atom        21          22          23          24          25          26          27          28
 IAtWgt=         187          12          12          12          16          16          16          35
 AtmWgt= 186.9560000  12.0000000  12.0000000  12.0000000  15.9949146  15.9949146  15.9949146  34.9688527
 NucSpn=           5           0           0           0           0           0           0           3
 AtZEff=1099.5000000   3.6000000   3.6000000   3.6000000   5.6000000   5.6000000   5.6000000  14.2400000
 NQMom=  207.0000000   0.0000000   0.0000000   0.0000000   0.0000000   0.0000000   0.0000000  -8.1650000
 NMagM=    3.2197000   0.0000000   0.0000000   0.0000000   0.0000000   0.0000000   0.0000000   0.8218740
 AtZNuc=  75.0000000   6.0000000   6.0000000   6.0000000   8.0000000   8.0000000   8.0000000  17.0000000
 Leave Link  101 at Mon Nov 17 10:55:09 2025, MaxMem=  2684354560 cpu:               4.5 elap:               0.1
 (Enter /home/programes/qq/gaussian/g16.A03/g16/l103.exe)

 GradGradGradGradGradGradGradGradGradGradGradGradGradGradGradGradGradGrad
 Berny optimization.
 Initialization pass.
                           ----------------------------
                           !    Initial Parameters    !
                           ! (Angstroms and Degrees)  !
 --------------------------                            --------------------------
 ! Name  Definition              Value          Derivative Info.                !
 --------------------------------------------------------------------------------
 ! R1    R(1,2)                  1.3993         calculate D2E/DX2 analytically  !
 ! R2    R(1,6)                  1.4819         calculate D2E/DX2 analytically  !
 ! R3    R(1,20)                 1.3584         calculate D2E/DX2 analytically  !
 ! R4    R(2,3)                  1.3927         calculate D2E/DX2 analytically  !
 ! R5    R(2,11)                 1.0876         calculate D2E/DX2 analytically  !
 ! R6    R(3,4)                  1.3945         calculate D2E/DX2 analytically  !
 ! R7    R(3,12)                 1.0905         calculate D2E/DX2 analytically  !
 ! R8    R(4,5)                  1.3912         calculate D2E/DX2 analytically  !
 ! R9    R(4,13)                 1.0895         calculate D2E/DX2 analytically  !
 ! R10   R(5,14)                 1.0893         calculate D2E/DX2 analytically  !
 ! R11   R(5,20)                 1.3451         calculate D2E/DX2 analytically  !
 ! R12   R(6,7)                  1.3992         calculate D2E/DX2 analytically  !
 ! R13   R(6,19)                 1.3583         calculate D2E/DX2 analytically  !
 ! R14   R(7,8)                  1.3927         calculate D2E/DX2 analytically  !
 ! R15   R(7,15)                 1.0874         calculate D2E/DX2 analytically  !
 ! R16   R(8,9)                  1.3945         calculate D2E/DX2 analytically  !
 ! R17   R(8,16)                 1.0905         calculate D2E/DX2 analytically  !
 ! R18   R(9,10)                 1.3912         calculate D2E/DX2 analytically  !
 ! R19   R(9,17)                 1.0895         calculate D2E/DX2 analytically  !
 ! R20   R(10,18)                1.0894         calculate D2E/DX2 analytically  !
 ! R21   R(10,19)                1.3451         calculate D2E/DX2 analytically  !
 ! R22   R(19,21)                2.2965         calculate D2E/DX2 analytically  !
 ! R23   R(20,21)                2.2975         calculate D2E/DX2 analytically  !
 ! R24   R(21,22)                1.9022         calculate D2E/DX2 analytically  !
 ! R25   R(21,23)                1.9084         calculate D2E/DX2 analytically  !
 ! R26   R(21,24)                1.9087         calculate D2E/DX2 analytically  !
 ! R27   R(21,28)                2.6055         calculate D2E/DX2 analytically  !
 ! R28   R(22,25)                1.1635         calculate D2E/DX2 analytically  !
 ! R29   R(23,26)                1.1616         calculate D2E/DX2 analytically  !
 ! R30   R(24,27)                1.1616         calculate D2E/DX2 analytically  !
 ! A1    A(2,1,6)              122.6871         calculate D2E/DX2 analytically  !
 ! A2    A(2,1,20)             120.7484         calculate D2E/DX2 analytically  !
 ! A3    A(6,1,20)             116.5631         calculate D2E/DX2 analytically  !
 ! A4    A(1,2,3)              119.6635         calculate D2E/DX2 analytically  !
 ! A5    A(1,2,11)             120.5754         calculate D2E/DX2 analytically  !
 ! A6    A(3,2,11)             119.7611         calculate D2E/DX2 analytically  !
 ! A7    A(2,3,4)              119.0616         calculate D2E/DX2 analytically  !
 ! A8    A(2,3,12)             120.1036         calculate D2E/DX2 analytically  !
 ! A9    A(4,3,12)             120.8347         calculate D2E/DX2 analytically  !
 ! A10   A(3,4,5)              118.4698         calculate D2E/DX2 analytically  !
 ! A11   A(3,4,13)             121.736          calculate D2E/DX2 analytically  !
 ! A12   A(5,4,13)             119.7942         calculate D2E/DX2 analytically  !
 ! A13   A(4,5,14)             121.1515         calculate D2E/DX2 analytically  !
 ! A14   A(4,5,20)             122.6599         calculate D2E/DX2 analytically  !
 ! A15   A(14,5,20)            116.1885         calculate D2E/DX2 analytically  !
 ! A16   A(1,6,7)              122.6747         calculate D2E/DX2 analytically  !
 ! A17   A(1,6,19)             116.5812         calculate D2E/DX2 analytically  !
 ! A18   A(7,6,19)             120.7431         calculate D2E/DX2 analytically  !
 ! A19   A(6,7,8)              119.6789         calculate D2E/DX2 analytically  !
 ! A20   A(6,7,15)             120.5306         calculate D2E/DX2 analytically  !
 ! A21   A(8,7,15)             119.7905         calculate D2E/DX2 analytically  !
 ! A22   A(7,8,9)              119.0502         calculate D2E/DX2 analytically  !
 ! A23   A(7,8,16)             120.1091         calculate D2E/DX2 analytically  !
 ! A24   A(9,8,16)             120.8406         calculate D2E/DX2 analytically  !
 ! A25   A(8,9,10)             118.4698         calculate D2E/DX2 analytically  !
 ! A26   A(8,9,17)             121.7231         calculate D2E/DX2 analytically  !
 ! A27   A(10,9,17)            119.8071         calculate D2E/DX2 analytically  !
 ! A28   A(9,10,18)            121.1521         calculate D2E/DX2 analytically  !
 ! A29   A(9,10,19)            122.6628         calculate D2E/DX2 analytically  !
 ! A30   A(18,10,19)           116.185          calculate D2E/DX2 analytically  !
 ! A31   A(6,19,10)            119.3942         calculate D2E/DX2 analytically  !
 ! A32   A(6,19,21)            117.3907         calculate D2E/DX2 analytically  !
 ! A33   A(10,19,21)           123.1507         calculate D2E/DX2 analytically  !
 ! A34   A(1,20,5)             119.396          calculate D2E/DX2 analytically  !
 ! A35   A(1,20,21)            117.3704         calculate D2E/DX2 analytically  !
 ! A36   A(5,20,21)            123.1834         calculate D2E/DX2 analytically  !
 ! A37   A(19,21,20)            71.9022         calculate D2E/DX2 analytically  !
 ! A38   A(19,21,22)            92.845          calculate D2E/DX2 analytically  !
 ! A39   A(19,21,23)            99.2422         calculate D2E/DX2 analytically  !
 ! A40   A(19,21,28)            82.8823         calculate D2E/DX2 analytically  !
 ! A41   A(20,21,22)            92.7718         calculate D2E/DX2 analytically  !
 ! A42   A(20,21,24)            99.3347         calculate D2E/DX2 analytically  !
 ! A43   A(20,21,28)            82.9408         calculate D2E/DX2 analytically  !
 ! A44   A(22,21,23)            90.8328         calculate D2E/DX2 analytically  !
 ! A45   A(22,21,24)            90.8531         calculate D2E/DX2 analytically  !
 ! A46   A(23,21,24)            89.3004         calculate D2E/DX2 analytically  !
 ! A47   A(23,21,28)            92.9409         calculate D2E/DX2 analytically  !
 ! A48   A(24,21,28)            92.9091         calculate D2E/DX2 analytically  !
 ! A49   L(19,21,24,20,-1)     171.2368         calculate D2E/DX2 analytically  !
 ! A50   L(20,21,23,19,-1)     171.1443         calculate D2E/DX2 analytically  !
 ! A51   L(22,21,28,19,-1)     175.7274         calculate D2E/DX2 analytically  !
 ! A52   L(21,22,25,13,-1)     179.7437         calculate D2E/DX2 analytically  !
 ! A53   L(21,23,26,9,-1)      178.0405         calculate D2E/DX2 analytically  !
 ! A54   L(21,24,27,4,-1)      178.0737         calculate D2E/DX2 analytically  !
 ! A55   L(19,21,24,20,-2)     176.5891         calculate D2E/DX2 analytically  !
 ! A56   L(20,21,23,19,-2)     183.2965         calculate D2E/DX2 analytically  !
 ! A57   L(22,21,28,19,-2)     183.1457         calculate D2E/DX2 analytically  !
 ! A58   L(21,22,25,13,-2)     180.4327         calculate D2E/DX2 analytically  !
 ! A59   L(21,23,26,9,-2)      180.3772         calculate D2E/DX2 analytically  !
 ! A60   L(21,24,27,4,-2)      179.5745         calculate D2E/DX2 analytically  !
 ! D1    D(6,1,2,3)           -179.4942         calculate D2E/DX2 analytically  !
 ! D2    D(6,1,2,11)             0.515          calculate D2E/DX2 analytically  !
 ! D3    D(20,1,2,3)             0.0662         calculate D2E/DX2 analytically  !
 ! D4    D(20,1,2,11)         -179.9246         calculate D2E/DX2 analytically  !
 ! D5    D(2,1,6,7)             -0.2842         calculate D2E/DX2 analytically  !
 ! D6    D(2,1,6,19)           179.3342         calculate D2E/DX2 analytically  !
 ! D7    D(20,1,6,7)          -179.8619         calculate D2E/DX2 analytically  !
 ! D8    D(20,1,6,19)           -0.2434         calculate D2E/DX2 analytically  !
 ! D9    D(2,1,20,5)            -0.256          calculate D2E/DX2 analytically  !
 ! D10   D(2,1,20,21)          177.2501         calculate D2E/DX2 analytically  !
 ! D11   D(6,1,20,5)           179.3303         calculate D2E/DX2 analytically  !
 ! D12   D(6,1,20,21)           -3.1635         calculate D2E/DX2 analytically  !
 ! D13   D(1,2,3,4)              0.1593         calculate D2E/DX2 analytically  !
 ! D14   D(1,2,3,12)          -179.942          calculate D2E/DX2 analytically  !
 ! D15   D(11,2,3,4)          -179.8498         calculate D2E/DX2 analytically  !
 ! D16   D(11,2,3,12)            0.0489         calculate D2E/DX2 analytically  !
 ! D17   D(2,3,4,5)             -0.1927         calculate D2E/DX2 analytically  !
 ! D18   D(2,3,4,13)           179.8721         calculate D2E/DX2 analytically  !
 ! D19   D(12,3,4,5)           179.9093         calculate D2E/DX2 analytically  !
 ! D20   D(12,3,4,13)           -0.0258         calculate D2E/DX2 analytically  !
 ! D21   D(3,4,5,14)          -179.8812         calculate D2E/DX2 analytically  !
 ! D22   D(3,4,5,20)             0.0031         calculate D2E/DX2 analytically  !
 ! D23   D(13,4,5,14)            0.0552         calculate D2E/DX2 analytically  !
 ! D24   D(13,4,5,20)          179.9396         calculate D2E/DX2 analytically  !
 ! D25   D(4,5,20,1)             0.2232         calculate D2E/DX2 analytically  !
 ! D26   D(4,5,20,21)         -177.1305         calculate D2E/DX2 analytically  !
 ! D27   D(14,5,20,1)         -179.8871         calculate D2E/DX2 analytically  !
 ! D28   D(14,5,20,21)           2.7592         calculate D2E/DX2 analytically  !
 ! D29   D(1,6,7,8)            179.5103         calculate D2E/DX2 analytically  !
 ! D30   D(1,6,7,15)            -0.5104         calculate D2E/DX2 analytically  !
 ! D31   D(19,6,7,8)            -0.0927         calculate D2E/DX2 analytically  !
 ! D32   D(19,6,7,15)          179.8866         calculate D2E/DX2 analytically  !
 ! D33   D(1,6,19,10)         -179.2934         calculate D2E/DX2 analytically  !
 ! D34   D(1,6,19,21)            3.5327         calculate D2E/DX2 analytically  !
 ! D35   D(7,6,19,10)            0.333          calculate D2E/DX2 analytically  !
 ! D36   D(7,6,19,21)         -176.841          calculate D2E/DX2 analytically  !
 ! D37   D(6,7,8,9)             -0.1866         calculate D2E/DX2 analytically  !
 ! D38   D(6,7,8,16)           179.9138         calculate D2E/DX2 analytically  !
 ! D39   D(15,7,8,9)           179.8339         calculate D2E/DX2 analytically  !
 ! D40   D(15,7,8,16)           -0.0657         calculate D2E/DX2 analytically  !
 ! D41   D(7,8,9,10)             0.2228         calculate D2E/DX2 analytically  !
 ! D42   D(7,8,9,17)          -179.8508         calculate D2E/DX2 analytically  !
 ! D43   D(16,8,9,10)         -179.8783         calculate D2E/DX2 analytically  !
 ! D44   D(16,8,9,17)            0.0481         calculate D2E/DX2 analytically  !
 ! D45   D(8,9,10,18)          179.8786         calculate D2E/DX2 analytically  !
 ! D46   D(8,9,10,19)            0.018          calculate D2E/DX2 analytically  !
 ! D47   D(17,9,10,18)          -0.0492         calculate D2E/DX2 analytically  !
 ! D48   D(17,9,10,19)        -179.9098         calculate D2E/DX2 analytically  !
 ! D49   D(9,10,19,6)           -0.2983         calculate D2E/DX2 analytically  !
 ! D50   D(9,10,19,21)         176.7045         calculate D2E/DX2 analytically  !
 ! D51   D(18,10,19,6)         179.8347         calculate D2E/DX2 analytically  !
 ! D52   D(18,10,19,21)         -3.1625         calculate D2E/DX2 analytically  !
 ! D53   D(6,19,21,20)          -3.767          calculate D2E/DX2 analytically  !
 ! D54   D(6,19,21,22)         -95.7554         calculate D2E/DX2 analytically  !
 ! D55   D(6,19,21,23)         172.9364         calculate D2E/DX2 analytically  !
 ! D56   D(6,19,21,28)          81.0989         calculate D2E/DX2 analytically  !
 ! D57   D(10,19,21,20)        179.174          calculate D2E/DX2 analytically  !
 ! D58   D(10,19,21,22)         87.1856         calculate D2E/DX2 analytically  !
 ! D59   D(10,19,21,23)         -4.1226         calculate D2E/DX2 analytically  !
 ! D60   D(10,19,21,28)        -95.9601         calculate D2E/DX2 analytically  !
 ! D61   D(1,20,21,19)           3.6319         calculate D2E/DX2 analytically  !
 ! D62   D(1,20,21,22)          95.7212         calculate D2E/DX2 analytically  !
 ! D63   D(1,20,21,24)        -172.9572         calculate D2E/DX2 analytically  !
 ! D64   D(1,20,21,28)         -81.1537         calculate D2E/DX2 analytically  !
 ! D65   D(5,20,21,19)        -178.9643         calculate D2E/DX2 analytically  !
 ! D66   D(5,20,21,22)         -86.875          calculate D2E/DX2 analytically  !
 ! D67   D(5,20,21,24)           4.4466         calculate D2E/DX2 analytically  !
 ! D68   D(5,20,21,28)          96.2501         calculate D2E/DX2 analytically  !
 --------------------------------------------------------------------------------
 Trust Radius=3.00D-01 FncErr=1.00D-07 GrdErr=1.00D-07 EigMax=2.50D+02 EigMin=1.00D-04
 Number of steps in this run=      2 maximum allowed number of steps=      2.
 GradGradGradGradGradGradGradGradGradGradGradGradGradGradGradGradGradGrad

 Leave Link  103 at Mon Nov 17 10:55:09 2025, MaxMem=  2684354560 cpu:               0.1 elap:               0.0
 (Enter /home/programes/qq/gaussian/g16.A03/g16/l202.exe)
                          Input orientation:                          
 ---------------------------------------------------------------------
 Center     Atomic      Atomic             Coordinates (Angstroms)
 Number     Number       Type             X           Y           Z
 ---------------------------------------------------------------------
      1          6           0       -2.288027    0.298865    0.031148
      2          6           0       -0.892497    0.339396   -0.063122
      3          6           0       -0.235612    1.567297   -0.042109
      4          6           0       -0.987422    2.735750    0.076463
      5          6           0       -2.371563    2.627599    0.165433
      6          6           0       -3.053964   -0.969751    0.026523
      7          6           0       -2.439795   -2.222557   -0.078289
      8          6           0       -3.219941   -3.376203   -0.065998
      9          6           0       -4.603975   -3.256419    0.055169
     10          6           0       -5.153150   -1.982094    0.154735
     11          1           0       -0.317135   -0.579214   -0.152731
     12          1           0        0.851621    1.607294   -0.116056
     13          1           0       -0.518646    3.718978    0.099462
     14          1           0       -3.001132    3.511810    0.257390
     15          1           0       -1.359122   -2.302097   -0.169509
     16          1           0       -2.748726   -4.356150   -0.148665
     17          1           0       -5.255269   -4.129638    0.071977
     18          1           0       -6.228794   -1.837792    0.249069
     19          7           0       -4.403624   -0.865278    0.138354
     20          7           0       -3.010188    1.444043    0.141654
     21         75           0       -5.298895    1.248895    0.191189
     22          6           0       -5.352834    1.281100    2.092305
     23          6           0       -7.152101    0.798899    0.118480
     24          6           0       -5.768871    3.097358    0.118109
     25          8           0       -5.377445    1.295901    3.255419
     26          8           0       -8.269787    0.486850    0.065867
     27          8           0       -6.016993    4.230883    0.064541
     28         17           0       -5.019113    1.081285   -2.393839
 ---------------------------------------------------------------------
                    Distance matrix (angstroms):
                    1          2          3          4          5
     1  C    0.000000
     2  C    1.399297   0.000000
     3  C    2.413854   1.392723   0.000000
     4  C    2.762614   2.402292   1.394475   0.000000
     5  C    2.334097   2.734181   2.393658   1.391208   0.000000
     6  C    1.481914   2.528606   3.792682   4.243092   3.664136
     7  C    2.528355   2.992986   4.384373   5.168960   4.856755
     8  C    3.792628   4.384368   5.774511   6.508487   6.067861
     9  C    4.243140   5.169038   6.508478   6.999000   6.294242
    10  C    3.664285   4.856948   6.067875   6.294241   5.383921
    11  H    2.165467   1.087619   2.150905   3.389809   3.821721
    12  H    3.404562   2.156922   1.090478   2.166231   3.392517
    13  H    3.851304   3.404081   2.174829   1.089503   2.151456
    14  H    3.298896   3.822731   3.393955   2.165648   1.089331
    15  H    2.769139   2.684501   4.031218   5.057526   5.043721
    16  H    4.681212   5.049858   6.435396   7.310809   7.000976
    17  H    5.330839   6.246944   7.593750   8.083817   7.347431
    18  H    4.488033   5.771800   6.899104   6.958380   5.901266
    19  N    2.417121   3.717505   4.829318   4.964037   4.041063
    20  N    1.358367   2.397247   2.783385   2.400904   1.345069
    21  Re   3.161250   4.506463   5.078646   4.562094   3.235856
    22  C    3.821805   5.042546   5.551899   5.023589   3.796560
    23  C    4.890488   6.279073   6.960893   6.461921   5.118583
    24  C    4.467147   5.605196   5.743145   4.795284   3.429959
    25  O    4.575425   5.660598   6.114392   5.608139   4.511846
    26  O    5.984814   7.379891   8.107219   7.621713   6.275489
    27  O    5.419139   6.435870   6.366351   5.247108   3.983699
    28  Cl   3.735180   4.797041   5.352450   5.009409   3.993805
                    6          7          8          9         10
     6  C    0.000000
     7  C    1.399182   0.000000
     8  C    2.413942   1.392723   0.000000
     9  C    2.762644   2.402156   1.394482   0.000000
    10  C    2.334064   2.733938   2.393649   1.391190   0.000000
    11  H    2.770358   2.685480   4.031991   5.058423   5.044764
    12  H    4.681355   5.050010   6.435477   7.310851   7.001022
    13  H    5.330792   6.246939   7.593811   8.083813   7.347374
    14  H    4.487815   5.771545   6.899070   6.958370   5.901246
    15  H    2.164732   1.087430   2.151062   3.389732   3.821281
    16  H    3.404638   2.156992   1.090493   2.166312   3.392558
    17  H    3.851324   3.403885   2.174687   1.089486   2.151563
    18  H    3.298873   3.822527   3.393990   2.165672   1.089372
    19  N    1.358308   2.397032   2.783453   2.400962   1.345116
    20  N    2.416935   3.717214   4.829274   4.964069   4.041148
    21  Re   3.160573   4.505336   5.077374   4.560622   3.234480
    22  C    3.823425   5.047066   5.558594   5.029889   3.800327
    23  C    4.464448   5.601226   5.738239   4.789839   3.425061
    24  C    4.890857   6.278758   6.959736   6.459986   5.116765
    25  O    4.577938   5.667710   6.124964   5.618138   4.517721
    26  O    5.415537   6.430433   6.359364   5.239309   3.977061
    27  O    5.985614   7.379947   8.106065   7.619475   6.273392
    28  Cl   3.731851   4.788530   5.340886   4.998566   3.987166
                   11         12         13         14         15
    11  H    0.000000
    12  H    2.479547   0.000000
    13  H    4.310298   2.526517   0.000000
    14  H    4.910042   4.313971   2.496116   0.000000
    15  H    2.013540   4.491501   6.085400   6.056398   0.000000
    16  H    4.491981   6.966077   8.381081   7.882473   2.480034
    17  H    6.086146   8.381041   9.167177   7.969143   4.310242
    18  H    6.057488   7.882525   7.969056   6.247888   4.909633
    19  N    4.106817   5.813427   6.009157   4.597831   3.380565
    20  N    3.381237   3.873839   3.374150   2.071023   4.105656
    21  Re   5.317725   6.168606   5.381496   3.225660   5.316151
    22  C    5.818866   6.593824   5.769232   3.724712   5.822786
    23  C    6.977786   8.047861   7.247754   4.960819   6.577060
    24  C    6.581182   6.790143   5.286929   2.802062   6.977301
    25  O    6.382654   7.089786   6.280071   4.421006   6.389260
    26  O    8.026765   9.191767   8.398093   6.078305   7.455933
    27  O    7.461408   7.354841   5.522235   3.106392   8.026853
    28  Cl   5.467030   6.319058   5.781710   4.124162   5.458064
                   16         17         18         19         20
    16  H    0.000000
    17  H    2.526410   0.000000
    18  H    4.314069   2.496331   0.000000
    19  N    3.873920   3.374278   2.071059   0.000000
    20  N    5.813338   6.009257   4.597978   2.697154   0.000000
    21  Re   6.167285   5.380031   3.224236   2.296526   2.297546
    22  C    6.601660   5.776446   3.727239   3.053827   3.052798
    23  C    6.784954   5.281156   2.796728   3.213099   4.191919
    24  C    8.046566   7.245370   4.958264   4.191276   3.216261
    25  O    7.102368   6.291717   4.425265   3.916008   3.914254
    26  O    7.347299   5.513558   3.098900   4.096428   5.346526
    27  O    9.190439   8.395153   6.075173   5.345957   4.100402
    28  Cl   6.305646   5.769726   4.119381   3.252681   3.255164
                   21         22         23         24         25
    21  Re   0.000000
    22  C    1.902153   0.000000
    23  C    1.908443   2.714012   0.000000
    24  C    1.908673   2.714651   2.682580   0.000000
    25  O    3.065597   1.163469   3.638242   3.638843   0.000000
    26  O    3.069628   3.639492   1.161622   3.615530   4.381033
    27  O    3.069846   3.640625   3.615231   1.161599   4.382333
    28  Cl   2.605521   4.502974   3.307737   3.307048   5.664678
                   26         27         28
    26  O    0.000000
    27  O    4.369538   0.000000
    28  Cl   4.119513   4.118174   0.000000
 Symmetry turned off by external request.
 Stoichiometry    C13H8ClN2O3Re
 Framework group  C1[X(C13H8ClN2O3Re)]
 Deg. of freedom    78
 Full point group                 C1      NOp   1
 Rotational constants (GHZ):           0.3384337           0.2666528           0.1987896
 Leave Link  202 at Mon Nov 17 10:55:09 2025, MaxMem=  2684354560 cpu:               0.1 elap:               0.0
 (Enter /home/programes/qq/gaussian/g16.A03/g16/l301.exe)
 Basis read from chk: "re-bpy-co3-cl.chk" (5D, 7F)
 Pseudo-potential data read from chk file.
   339 basis functions,   774 primitive gaussians,   363 cartesian basis functions
    78 alpha electrons       78 beta electrons
       nuclear repulsion energy      1754.4776831637 Hartrees.
 IExCor=  402 DFT=T Ex+Corr=B3LYP ExCW=0 ScaHFX=  0.200000
 ScaDFX=  0.800000  0.720000  1.000000  0.810000 ScalE2=  1.000000  1.000000
 IRadAn=      5 IRanWt=     -1 IRanGd=            0 ICorTp=0 IEmpDi=141
 NAtoms=   28 NActive=   28 NUniq=   28 SFac= 1.00D+00 NAtFMM=   60 NAOKFM=F Big=F
 Integral buffers will be    131072 words long.
 Raffenetti 2 integral format.
 Two-electron integral symmetry is turned off.
 R6Disp:  Grimme-D3(BJ) Dispersion energy=       -0.0842387468 Hartrees.
 Nuclear repulsion after empirical dispersion term =     1754.3934444169 Hartrees.
 No density basis found on file 20724.
 Force inversion solution in PCM.
 ------------------------------------------------------------------------------
 Polarizable Continuum Model (PCM)
 =================================
 Model                : PCM.
 Atomic radii         : UFF (Universal Force Field).
 Polarization charges : Total charges.
 Charge compensation  : None.
 Solution method      : Matrix inversion.
 Cavity type          : Scaled VdW (van der Waals Surface) (Alpha=1.100).
 Cavity algorithm     : GePol (No added spheres)
                        Default sphere list used, NSphG=   28.
                        Lebedev-Laikov grids with approx.  5.0 points / Ang**2.
                        Smoothing algorithm: York/Karplus (Gamma=1.0000).
                        Polarization charges: spherical gaussians, with
                                              point-specific exponents (IZeta= 3).
                        Self-potential: point-specific (ISelfS= 7).
                        Self-field    : sphere-specific E.n sum rule (ISelfD= 2).
 1st derivatives      : Analytical E(r).r(x)/FMM algorithm (CHGder, D1EAlg=3).
                        Cavity 1st derivative terms included.
 2nd derivatives      : Analytical E(r).r(xy)/FMM algorithm (CHGder, D2EAlg=3).
                        Cavity 2nd derivative terms included.
 Solvent              : n,n-DiMethylFormamide, Eps=  37.219000 Eps(inf)=   2.046330
 ------------------------------------------------------------------------------
 GePol: Number of generator spheres                  =      28
 GePol: Total number of spheres                      =      28
 GePol: Number of exposed spheres                    =      27 ( 96.43%)
 GePol: Number of points                             =    2582
 GePol: Average weight of points                     =       0.13
 GePol: Minimum weight of points                     =   0.19D-10
 GePol: Maximum weight of points                     =    0.21616
 GePol: Number of points with low weight             =     118
 GePol: Fraction of low-weight points (<1% of avg)   =       4.57%
 GePol: Cavity surface area                          =    342.370 Ang**2
 GePol: Cavity volume                                =    378.133 Ang**3
 Leave Link  301 at Mon Nov 17 10:55:09 2025, MaxMem=  2684354560 cpu:               1.2 elap:               0.0
 (Enter /home/programes/qq/gaussian/g16.A03/g16/l302.exe)
 NPDir=0 NMtPBC=     1 NCelOv=     1 NCel=       1 NClECP=     1 NCelD=      1
         NCelK=      1 NCelE2=     1 NClLst=     1 CellRange=     0.0.
 One-electron integrals computed using PRISM.
   1 Symmetry operations used in ECPInt.
 ECPInt:  NShTT=   11175 NPrTT=  105620 LenC2=   10452 LenP2D=   51063.
 LDataN:  DoStor=T MaxTD1= 7 Len=  274
 NBasis=   339 RedAO= T EigKep=  3.67D-04  NBF=   339
 NBsUse=   339 1.00D-06 EigRej= -1.00D+00 NBFU=   339
 Precomputing XC quadrature grid using
 IXCGrd= 4 IRadAn=           5 IRanWt=          -1 IRanGd=           0 AccXCQ= 0.00D+00.
 Defaulting to unpruned grid for atomic number  75.
 Generated NRdTot=       0 NPtTot=           0 NUsed=           0 NTot=          32
 NSgBfM=   363   363   363   363   363 MxSgAt=    28 MxSgA2=    28.
 Leave Link  302 at Mon Nov 17 10:55:09 2025, MaxMem=  2684354560 cpu:              12.1 elap:               0.4
 (Enter /home/programes/qq/gaussian/g16.A03/g16/l303.exe)
 DipDrv:  MaxL=1.
 Leave Link  303 at Mon Nov 17 10:55:09 2025, MaxMem=  2684354560 cpu:               1.1 elap:               0.1
 (Enter /home/programes/qq/gaussian/g16.A03/g16/l401.exe)
 Initial guess from the checkpoint file:  "re-bpy-co3-cl.chk"
 B after Tr=     0.000000    0.000000    0.000000
         Rot=    1.000000    0.000000    0.000000    0.000000 Ang=   0.00 deg.
 Guess basis will be translated and rotated to current coordinates.
 JPrj=2 DoOrth=T DoCkMO=T.
 Leave Link  401 at Mon Nov 17 10:55:10 2025, MaxMem=  2684354560 cpu:               6.4 elap:               0.2
 (Enter /home/programes/qq/gaussian/g16.A03/g16/l502.exe)
 Two-electron integral symmetry not used.
 Closed shell SCF:
 Using DIIS extrapolation, IDIIS=  1040.
 NGot=  2684354560 LenX=  2684076439 LenY=  2683944229
 Requested convergence on RMS density matrix=1.00D-08 within 128 cycles.
 Requested convergence on MAX density matrix=1.00D-06.
 Requested convergence on             energy=1.00D-06.
 No special actions if energy rises.
 Fock matrices will be formed incrementally for  20 cycles.

 Cycle   1  Pass 1  IDiag  1:
 FoFJK:  IHMeth= 1 ICntrl=       0 DoSepK=F KAlg= 0 I1Cent=           0 FoldK=F
 IRaf= 870000000 NMat=       1 IRICut=       1 DoRegI=T DoRafI=F ISym2E= 0 IDoP0=0 IntGTp=1.
 FoFCou: FMM=F IPFlag=           0 FMFlag=      100000 FMFlg1=           0
         NFxFlg=           0 DoJE=F BraDBF=F KetDBF=F FulRan=T
         wScrn=  0.000000 ICntrl=         0 IOpCl=  0 I1Cent=           0 NGrid=           0
         NMat0=    1 NMatS0=      1 NMatT0=    0 NMatD0=    1 NMtDS0=    0 NMtDT0=    0
 Symmetry not used in FoFCou.
 Defaulting to unpruned grid for atomic number  75.
 Defaulting to unpruned grid for atomic number  75.
 Defaulting to unpruned grid for atomic number  75.
 Defaulting to unpruned grid for atomic number  75.
 Defaulting to unpruned grid for atomic number  75.
 Defaulting to unpruned grid for atomic number  75.
 Defaulting to unpruned grid for atomic number  75.
 Defaulting to unpruned grid for atomic number  75.
 Defaulting to unpruned grid for atomic number  75.
 Defaulting to unpruned grid for atomic number  75.
 Defaulting to unpruned grid for atomic number  75.
 Defaulting to unpruned grid for atomic number  75.
 Defaulting to unpruned grid for atomic number  75.
 Defaulting to unpruned grid for atomic number  75.
 Defaulting to unpruned grid for atomic number  75.
 Defaulting to unpruned grid for atomic number  75.
 Defaulting to unpruned grid for atomic number  75.
 Defaulting to unpruned grid for atomic number  75.
 Defaulting to unpruned grid for atomic number  75.
 Defaulting to unpruned grid for atomic number  75.
 Defaulting to unpruned grid for atomic number  75.
 Defaulting to unpruned grid for atomic number  75.
 Defaulting to unpruned grid for atomic number  75.
 Defaulting to unpruned grid for atomic number  75.
 Defaulting to unpruned grid for atomic number  75.
 Defaulting to unpruned grid for atomic number  75.
 Defaulting to unpruned grid for atomic number  75.
 Defaulting to unpruned grid for atomic number  75.
 Defaulting to unpruned grid for atomic number  75.
 Defaulting to unpruned grid for atomic number  75.
 Defaulting to unpruned grid for atomic number  75.
 Defaulting to unpruned grid for atomic number  75.
 Inv3:  Mode=1 IEnd=    20000172.
 Iteration    1 A*A^-1 deviation from unit magnitude is 6.88D-15 for   1061.
 Iteration    1 A*A^-1 deviation from orthogonality  is 3.39D-15 for   2179   1246.
 Iteration    1 A^-1*A deviation from unit magnitude is 7.66D-15 for    465.
 Iteration    1 A^-1*A deviation from orthogonality  is 2.53D-15 for   1920    474.
 E= -1375.06805418749    
 DIIS: error= 8.94D-09 at cycle   1 NSaved=   1.
 NSaved= 1 IEnMin= 1 EnMin= -1375.06805418749     IErMin= 1 ErrMin= 8.94D-09
 ErrMax= 8.94D-09  0.00D+00 EMaxC= 1.00D-01 BMatC= 6.77D-14 BMatP= 6.77D-14
 IDIUse=1 WtCom= 1.00D+00 WtEn= 0.00D+00
 Coeff-Com:  0.100D+01
 Coeff:      0.100D+01
 Gap=     0.137 Goal=   None    Shift=    0.000
 RMSDP=1.96D-09 MaxDP=8.10D-08              OVMax= 1.75D-07

 Error on total polarization charges =  0.01128
 SCF Done:  E(RB3LYP) =  -1375.06805419     A.U. after    1 cycles
            NFock=  1  Conv=0.20D-08     -V/T= 2.0464
 KE= 1.314131037217D+03 PE=-6.710835892264D+03 EE= 2.267243356443D+03
 Leave Link  502 at Mon Nov 17 10:55:16 2025, MaxMem=  2684354560 cpu:             159.9 elap:               6.6
 (Enter /home/programes/qq/gaussian/g16.A03/g16/l801.exe)
 DoSCS=F DFT=T ScalE2(SS,OS)=  1.000000  1.000000
 Range of M.O.s used for correlation:     1   339
 NBasis=   339 NAE=    78 NBE=    78 NFC=     0 NFV=     0
 NROrb=    339 NOA=    78 NOB=    78 NVA=   261 NVB=   261

 **** Warning!!: The largest alpha MO coefficient is  0.12505200D+02

 Leave Link  801 at Mon Nov 17 10:55:18 2025, MaxMem=  2684354560 cpu:               1.1 elap:               0.1
 (Enter /home/programes/qq/gaussian/g16.A03/g16/l1101.exe)
 Using compressed storage, NAtomX=    28.
 Will process     29 centers per pass.
   1 Symmetry operations used in ECPInt.
 ECPInt:  NShTT=   11175 NPrTT=  105620 LenC2=   10452 LenP2D=   51063.
 LDataN:  DoStor=T MaxTD1= 8 Len=  415
 Number of processors reduced to  20 by ecpmxn.
 R6Disp: Adding Grimme-D3(BJ) dispersion energy 1st derivatives to the gradient.
 Leave Link 1101 at Mon Nov 17 10:55:19 2025, MaxMem=  2684354560 cpu:              25.9 elap:               1.0
 (Enter /home/programes/qq/gaussian/g16.A03/g16/l1102.exe)
 Symmetrizing basis deriv contribution to polar:
 IMax=3 JMax=2 DiffMx= 0.00D+00
 Leave Link 1102 at Mon Nov 17 10:55:19 2025, MaxMem=  2684354560 cpu:               4.3 elap:               0.2
 (Enter /home/programes/qq/gaussian/g16.A03/g16/l1110.exe)
 Forming Gx(P) for the SCF density, NAtomX=    28.
 Integral derivatives from FoFJK, PRISM(SPDF).
 Do as many integral derivatives as possible in FoFJK.
 G2DrvN: MDV=    2684352296.
 G2DrvN: will do    29 centers at a time, making    1 passes.
 Calling FoFCou, ICntrl=  3107 FMM=F I1Cent=   0 AccDes= 0.00D+00.
 FoFJK:  IHMeth= 1 ICntrl=    3107 DoSepK=F KAlg= 0 I1Cent=           0 FoldK=F
 IRaf=         0 NMat=       1 IRICut=       1 DoRegI=T DoRafI=F ISym2E= 0 IDoP0=0 IntGTp=1.
 FoFCou: FMM=F IPFlag=           0 FMFlag=      100000 FMFlg1=           0
         NFxFlg=           0 DoJE=F BraDBF=F KetDBF=F FulRan=T
         wScrn=  0.000000 ICntrl=      3107 IOpCl=  0 I1Cent=           0 NGrid=           0
         NMat0=    1 NMatS0=      1 NMatT0=    0 NMatD0=    1 NMtDS0=    0 NMtDT0=    0
 Symmetry not used in FoFCou.
 Defaulting to unpruned grid for atomic number  75.
 Defaulting to unpruned grid for atomic number  75.
 Defaulting to unpruned grid for atomic number  75.
 Defaulting to unpruned grid for atomic number  75.
 Defaulting to unpruned grid for atomic number  75.
 Defaulting to unpruned grid for atomic number  75.
 Defaulting to unpruned grid for atomic number  75.
 Defaulting to unpruned grid for atomic number  75.
 Defaulting to unpruned grid for atomic number  75.
 Defaulting to unpruned grid for atomic number  75.
 Defaulting to unpruned grid for atomic number  75.
 Defaulting to unpruned grid for atomic number  75.
 Defaulting to unpruned grid for atomic number  75.
 Defaulting to unpruned grid for atomic number  75.
 Defaulting to unpruned grid for atomic number  75.
 Defaulting to unpruned grid for atomic number  75.
 Defaulting to unpruned grid for atomic number  75.
 Defaulting to unpruned grid for atomic number  75.
 Defaulting to unpruned grid for atomic number  75.
 Defaulting to unpruned grid for atomic number  75.
 Defaulting to unpruned grid for atomic number  75.
 Defaulting to unpruned grid for atomic number  75.
 Defaulting to unpruned grid for atomic number  75.
 Defaulting to unpruned grid for atomic number  75.
 Defaulting to unpruned grid for atomic number  75.
 Defaulting to unpruned grid for atomic number  75.
 Defaulting to unpruned grid for atomic number  75.
 Defaulting to unpruned grid for atomic number  75.
 Defaulting to unpruned grid for atomic number  75.
 Defaulting to unpruned grid for atomic number  75.
 Defaulting to unpruned grid for atomic number  75.
 Defaulting to unpruned grid for atomic number  75.
 NEqPCM:  Using equilibrium solvation (IEInf=0, Eps=  37.2190, EpsInf=   2.0463)
 G2PCM: DoFxE=T DoFxN=T DoGrad=T DoDP/DQ/DG/TGxP=FFFF NFrqRd=   0 IEInf=0 SqF1=F DoCFld=F IF1Alg=4.
 GePol: Maximum number of non-zero 1st derivatives   =     254
 End of G2Drv F.D. properties file   721 does not exist.
 End of G2Drv F.D. properties file   722 does not exist.
 End of G2Drv F.D. properties file   788 does not exist.
 Leave Link 1110 at Mon Nov 17 10:56:10 2025, MaxMem=  2684354560 cpu:            1584.4 elap:              50.1
 (Enter /home/programes/qq/gaussian/g16.A03/g16/l1002.exe)
 Minotr:  Closed shell wavefunction.
          IDoAtm=1111111111111111111111111111
 NEqPCM:  Using equilibrium solvation (IEInf=0, Eps=  37.2190, EpsInf=   2.0463)
          Direct CPHF calculation.
          Differentiating once with respect to electric field.
                with respect to dipole field.
          Differentiating once with respect to nuclear coordinates.
          Requested convergence is 1.0D-08 RMS, and 1.0D-07 maximum.
          Secondary convergence is 1.0D-12 RMS, and 1.0D-12 maximum.
          NewPWx=T KeepS1=F KeepF1=F KeepIn=T MapXYZ=F SortEE=F KeepMc=T.
 Defaulting to unpruned grid for atomic number  75.
         8576 words used for storage of precomputed grid.
 Keep R1 ints in memory in canonical form, NReq=1697570129.
 FoFCou: FMM=F IPFlag=           0 FMFlag=           0 FMFlg1=           0
         NFxFlg=           0 DoJE=F BraDBF=F KetDBF=F FulRan=T
         wScrn=  0.000000 ICntrl=       600 IOpCl=  0 I1Cent=           0 NGrid=           0
         NMat0=    1 NMatS0=  57630 NMatT0=    0 NMatD0=    1 NMtDS0=    0 NMtDT0=    0
 Symmetry not used in FoFCou.
 Two-electron integral symmetry not used.
          MDV=    2684354560 using IRadAn=       1.
          Solving linear equations simultaneously, MaxMat=       0.
 Defaulting to unpruned grid for atomic number  75.
 Defaulting to unpruned grid for atomic number  75.
 Defaulting to unpruned grid for atomic number  75.
 Defaulting to unpruned grid for atomic number  75.
 Defaulting to unpruned grid for atomic number  75.
 Defaulting to unpruned grid for atomic number  75.
 Defaulting to unpruned grid for atomic number  75.
 Defaulting to unpruned grid for atomic number  75.
 Defaulting to unpruned grid for atomic number  75.
 Defaulting to unpruned grid for atomic number  75.
 Defaulting to unpruned grid for atomic number  75.
 Defaulting to unpruned grid for atomic number  75.
 Defaulting to unpruned grid for atomic number  75.
 Defaulting to unpruned grid for atomic number  75.
 Defaulting to unpruned grid for atomic number  75.
 Defaulting to unpruned grid for atomic number  75.
 Defaulting to unpruned grid for atomic number  75.
 Defaulting to unpruned grid for atomic number  75.
 Defaulting to unpruned grid for atomic number  75.
 Defaulting to unpruned grid for atomic number  75.
 Defaulting to unpruned grid for atomic number  75.
 Defaulting to unpruned grid for atomic number  75.
 Defaulting to unpruned grid for atomic number  75.
 Defaulting to unpruned grid for atomic number  75.
 Defaulting to unpruned grid for atomic number  75.
 Defaulting to unpruned grid for atomic number  75.
 Defaulting to unpruned grid for atomic number  75.
 Defaulting to unpruned grid for atomic number  75.
 Defaulting to unpruned grid for atomic number  75.
 Defaulting to unpruned grid for atomic number  75.
 Defaulting to unpruned grid for atomic number  75.
 Defaulting to unpruned grid for atomic number  75.
          There are    87 degrees of freedom in the 1st order CPHF.  IDoFFX=6 NUNeed=     3.
     84 vectors produced by pass  0 Test12= 2.34D-14 1.15D-09 XBig12= 4.11D+02 1.00D+01.
 AX will form    84 AO Fock derivatives at one time.
     84 vectors produced by pass  1 Test12= 2.34D-14 1.15D-09 XBig12= 1.21D+02 2.14D+00.
     84 vectors produced by pass  2 Test12= 2.34D-14 1.15D-09 XBig12= 4.93D+00 3.04D-01.
     84 vectors produced by pass  3 Test12= 2.34D-14 1.15D-09 XBig12= 5.78D-02 2.77D-02.
     84 vectors produced by pass  4 Test12= 2.34D-14 1.15D-09 XBig12= 2.07D-04 2.22D-03.
     84 vectors produced by pass  5 Test12= 2.34D-14 1.15D-09 XBig12= 3.56D-07 7.51D-05.
     44 vectors produced by pass  6 Test12= 2.34D-14 1.15D-09 XBig12= 4.34D-10 2.22D-06.
      3 vectors produced by pass  7 Test12= 2.34D-14 1.15D-09 XBig12= 4.69D-13 9.73D-08.
      3 vectors produced by pass  8 Test12= 2.34D-14 1.15D-09 XBig12= 5.59D-16 3.43D-09.
 InvSVY:  IOpt=1 It=  1 EMax= 4.26D-14
 Solved reduced A of dimension   554 with    87 vectors.
 FullF1:  Do perturbations      1 to       3.
 Isotropic polarizability for W=    0.000000      295.92 Bohr**3.
 End of Minotr F.D. properties file   721 does not exist.
 End of Minotr F.D. properties file   722 does not exist.
 End of Minotr F.D. properties file   788 does not exist.
 Leave Link 1002 at Mon Nov 17 10:57:26 2025, MaxMem=  2684354560 cpu:            2427.5 elap:              76.4
 (Enter /home/programes/qq/gaussian/g16.A03/g16/l601.exe)
 Copying SCF densities to generalized density rwf, IOpCl= 0 IROHF=0.

 **********************************************************************

            Population analysis using the SCF density.

 **********************************************************************

 Alpha  occ. eigenvalues -- -101.46995 -19.20651 -19.20649 -19.20184 -14.39582
 Alpha  occ. eigenvalues --  -14.39580 -10.29355 -10.29353 -10.29089 -10.27129
 Alpha  occ. eigenvalues --  -10.27106 -10.25763 -10.25762 -10.23234 -10.23234
 Alpha  occ. eigenvalues --  -10.22794 -10.22788 -10.22379 -10.22379  -9.38570
 Alpha  occ. eigenvalues --   -7.14462  -7.14085  -7.14069  -3.23427  -1.83362
 Alpha  occ. eigenvalues --   -1.82788  -1.82726  -1.11823  -1.11774  -1.11312
 Alpha  occ. eigenvalues --   -1.00258  -0.97820  -0.83977  -0.83176  -0.83046
 Alpha  occ. eigenvalues --   -0.77555  -0.73491  -0.68893  -0.67973  -0.64762
 Alpha  occ. eigenvalues --   -0.63557  -0.58931  -0.56677  -0.56073  -0.55852
 Alpha  occ. eigenvalues --   -0.53284  -0.53003  -0.50686  -0.49763  -0.47984
 Alpha  occ. eigenvalues --   -0.47437  -0.46409  -0.46303  -0.46194  -0.45988
 Alpha  occ. eigenvalues --   -0.45287  -0.45097  -0.44679  -0.43917  -0.43624
 Alpha  occ. eigenvalues --   -0.43169  -0.42821  -0.42568  -0.42334  -0.39998
 Alpha  occ. eigenvalues --   -0.39412  -0.35082  -0.33683  -0.33360  -0.32305
 Alpha  occ. eigenvalues --   -0.32277  -0.29704  -0.27637  -0.27547  -0.26882
 Alpha  occ. eigenvalues --   -0.24930  -0.23380  -0.23108
 Alpha virt. eigenvalues --   -0.09414  -0.05978  -0.05172  -0.03889  -0.03079
 Alpha virt. eigenvalues --   -0.00436   0.00426   0.01218   0.02364   0.02521
 Alpha virt. eigenvalues --    0.03674   0.03948   0.04552   0.05371   0.07042
 Alpha virt. eigenvalues --    0.07173   0.07943   0.08602   0.09509   0.10837
 Alpha virt. eigenvalues --    0.11915   0.12286   0.14295   0.15241   0.15592
 Alpha virt. eigenvalues --    0.18983   0.19742   0.20806   0.23305   0.24010
 Alpha virt. eigenvalues --    0.25698   0.25817   0.26676   0.28036   0.31227
 Alpha virt. eigenvalues --    0.32670   0.33188   0.33905   0.34240   0.35175
 Alpha virt. eigenvalues --    0.37012   0.39518   0.40538   0.41256   0.42292
 Alpha virt. eigenvalues --    0.42308   0.42766   0.44528   0.45616   0.46343
 Alpha virt. eigenvalues --    0.46676   0.47140   0.47158   0.47749   0.48293
 Alpha virt. eigenvalues --    0.49382   0.50193   0.50503   0.50729   0.51224
 Alpha virt. eigenvalues --    0.52760   0.53094   0.54091   0.54725   0.55249
 Alpha virt. eigenvalues --    0.56737   0.57692   0.58255   0.58310   0.59755
 Alpha virt. eigenvalues --    0.61649   0.62441   0.62728   0.63262   0.63571
 Alpha virt. eigenvalues --    0.64520   0.64946   0.65286   0.65678   0.65986
 Alpha virt. eigenvalues --    0.67683   0.68123   0.68389   0.69049   0.70101
 Alpha virt. eigenvalues --    0.71211   0.72383   0.73527   0.73922   0.75535
 Alpha virt. eigenvalues --    0.75755   0.79415   0.80083   0.81298   0.81580
 Alpha virt. eigenvalues --    0.82748   0.82859   0.84086   0.85907   0.86015
 Alpha virt. eigenvalues --    0.87027   0.87824   0.88921   0.89545   0.89817
 Alpha virt. eigenvalues --    0.89959   0.90192   0.91270   0.93402   0.94139
 Alpha virt. eigenvalues --    0.94336   0.95890   0.96009   0.96189   0.97147
 Alpha virt. eigenvalues --    0.99410   1.00073   1.00516   1.01229   1.02853
 Alpha virt. eigenvalues --    1.03334   1.03839   1.04034   1.05376   1.05842
 Alpha virt. eigenvalues --    1.06487   1.07078   1.08056   1.08409   1.08672
 Alpha virt. eigenvalues --    1.09497   1.10000   1.10935   1.12662   1.13306
 Alpha virt. eigenvalues --    1.13782   1.14337   1.14618   1.16992   1.20257
 Alpha virt. eigenvalues --    1.22532   1.22802   1.26493   1.28746   1.30326
 Alpha virt. eigenvalues --    1.33552   1.34671   1.36538   1.37292   1.38912
 Alpha virt. eigenvalues --    1.40700   1.41578   1.43225   1.44274   1.44828
 Alpha virt. eigenvalues --    1.45320   1.46474   1.46862   1.47615   1.48552
 Alpha virt. eigenvalues --    1.52170   1.53096   1.54526   1.54668   1.55572
 Alpha virt. eigenvalues --    1.57830   1.58997   1.59011   1.60426   1.60462
 Alpha virt. eigenvalues --    1.61665   1.62724   1.64679   1.65095   1.67269
 Alpha virt. eigenvalues --    1.68394   1.69028   1.69403   1.70276   1.71230
 Alpha virt. eigenvalues --    1.71304   1.74959   1.75354   1.75953   1.77687
 Alpha virt. eigenvalues --    1.79341   1.80318   1.80810   1.80972   1.82448
 Alpha virt. eigenvalues --    1.83704   1.84387   1.85835   1.87166   1.88470
 Alpha virt. eigenvalues --    1.88814   1.89382   1.91459   1.92431   1.93778
 Alpha virt. eigenvalues --    1.95525   1.96796   1.98228   1.98360   1.99286
 Alpha virt. eigenvalues --    2.00129   2.00328   2.01051   2.04561   2.04755
 Alpha virt. eigenvalues --    2.06088   2.07496   2.10267   2.11180   2.15316
 Alpha virt. eigenvalues --    2.22590   2.23711   2.25780   2.29166   2.32020
 Alpha virt. eigenvalues --    2.33268   2.34959   2.35600   2.35843   2.37098
 Alpha virt. eigenvalues --    2.37531   2.38831   2.43015   2.46895   2.47397
 Alpha virt. eigenvalues --    2.48997   2.50329   2.59990   2.60077   2.60340
 Alpha virt. eigenvalues --    2.60557   2.61137   2.61447   2.62296   2.62342
 Alpha virt. eigenvalues --    2.69884   2.71074   2.75317   2.76728   2.81479
 Alpha virt. eigenvalues --    2.84543   2.86292   2.90088   3.08092   3.08388
 Alpha virt. eigenvalues --    3.08697   3.09052   3.09453   3.09932   3.10118
 Alpha virt. eigenvalues --    3.43219   3.49005   3.49617   3.49675   3.56464
 Alpha virt. eigenvalues --   21.40000
          Condensed to atoms (all electrons):
               1          2          3          4          5          6
     1  C    4.964436   0.495590  -0.001050  -0.054109  -0.056309   0.251956
     2  C    0.495590   4.798591   0.477215   0.010601  -0.061464  -0.080889
     3  C   -0.001050   0.477215   4.643642   0.480942  -0.015185   0.009828
     4  C   -0.054109   0.010601   0.480942   4.711666   0.531373   0.000973
     5  C   -0.056309  -0.061464  -0.015185   0.531373   4.619017   0.006533
     6  C    0.251956  -0.080889   0.009828   0.000973   0.006533   4.964065
     7  C   -0.080856  -0.006906   0.000397  -0.000080  -0.000035   0.495771
     8  C    0.009833   0.000399  -0.000047   0.000002   0.000002  -0.001014
     9  C    0.000967  -0.000080   0.000002  -0.000000  -0.000001  -0.054127
    10  C    0.006536  -0.000035   0.000002  -0.000001   0.000049  -0.056288
    11  H   -0.042396   0.410153  -0.042637   0.009257   0.000354  -0.022564
    12  H    0.009606  -0.038547   0.397959  -0.050485   0.009409  -0.000313
    13  H    0.000515   0.009258  -0.039280   0.403373  -0.043870   0.000030
    14  H    0.002491   0.001978   0.005550  -0.034048   0.384015  -0.000818
    15  H   -0.022628   0.003104   0.001352  -0.000047  -0.000010  -0.042219
    16  H   -0.000313   0.000026  -0.000001   0.000000  -0.000000   0.009607
    17  H    0.000030  -0.000001   0.000000  -0.000000   0.000000   0.000518
    18  H   -0.000818   0.000014   0.000000  -0.000000   0.000003   0.002482
    19  N   -0.017774   0.003949  -0.000135   0.000003  -0.000669   0.386759
    20  N    0.386703  -0.030837  -0.035172  -0.014927   0.481220  -0.017755
    21  Re  -0.062255  -0.000052   0.000685  -0.001141  -0.028343  -0.062270
    22  C   -0.001005   0.000040   0.000024  -0.000038  -0.002426  -0.000983
    23  C    0.000710  -0.000000  -0.000001   0.000001   0.000147  -0.000867
    24  C   -0.000866   0.000011   0.000002   0.000183  -0.002785   0.000710
    25  O    0.000034   0.000000  -0.000000   0.000001   0.000111   0.000033
    26  O   -0.000001  -0.000000   0.000000  -0.000000  -0.000000  -0.000004
    27  O   -0.000004   0.000000  -0.000000  -0.000002  -0.000797  -0.000001
    28  Cl   0.000288  -0.000425   0.000048  -0.000271   0.000113   0.000270
               7          8          9         10         11         12
     1  C   -0.080856   0.009833   0.000967   0.006536  -0.042396   0.009606
     2  C   -0.006906   0.000399  -0.000080  -0.000035   0.410153  -0.038547
     3  C    0.000397  -0.000047   0.000002   0.000002  -0.042637   0.397959
     4  C   -0.000080   0.000002  -0.000000  -0.000001   0.009257  -0.050485
     5  C   -0.000035   0.000002  -0.000001   0.000049   0.000354   0.009409
     6  C    0.495771  -0.001014  -0.054127  -0.056288  -0.022564  -0.000313
     7  C    4.798398   0.477050   0.010671  -0.061508   0.003087   0.000026
     8  C    0.477050   4.643684   0.481024  -0.015190   0.001350  -0.000001
     9  C    0.010671   0.481024   4.711574   0.531241  -0.000047   0.000000
    10  C   -0.061508  -0.015190   0.531241   4.619516  -0.000010  -0.000000
    11  H    0.003087   0.001350  -0.000047  -0.000010   0.687778  -0.014590
    12  H    0.000026  -0.000001   0.000000  -0.000000  -0.014590   0.681970
    13  H   -0.000001   0.000000  -0.000000   0.000000  -0.000207  -0.012772
    14  H    0.000014   0.000000  -0.000000   0.000003   0.000107  -0.000302
    15  H    0.410128  -0.042760   0.009255   0.000355  -0.007176   0.000079
    16  H   -0.038625   0.397964  -0.050415   0.009409   0.000078  -0.000000
    17  H    0.009254  -0.039185   0.403346  -0.043929  -0.000000  -0.000000
    18  H    0.001980   0.005549  -0.034085   0.383986  -0.000001   0.000000
    19  N   -0.030815  -0.035187  -0.014876   0.481066   0.000175   0.000001
    20  N    0.003954  -0.000135   0.000004  -0.000670   0.004130  -0.000226
    21  Re  -0.000049   0.000683  -0.001132  -0.028343  -0.000596   0.000362
    22  C    0.000042   0.000023  -0.000036  -0.002410  -0.000003   0.000000
    23  C    0.000011   0.000002   0.000184  -0.002847   0.000001  -0.000000
    24  C   -0.000000  -0.000001   0.000001   0.000148  -0.000001   0.000000
    25  O    0.000000  -0.000000   0.000001   0.000109   0.000000  -0.000000
    26  O    0.000000  -0.000000  -0.000002  -0.000819  -0.000000   0.000000
    27  O   -0.000000   0.000000  -0.000000  -0.000000   0.000000  -0.000000
    28  Cl  -0.000439   0.000050  -0.000282   0.000132  -0.000000  -0.000000
              13         14         15         16         17         18
     1  C    0.000515   0.002491  -0.022628  -0.000313   0.000030  -0.000818
     2  C    0.009258   0.001978   0.003104   0.000026  -0.000001   0.000014
     3  C   -0.039280   0.005550   0.001352  -0.000001   0.000000   0.000000
     4  C    0.403373  -0.034048  -0.000047   0.000000  -0.000000  -0.000000
     5  C   -0.043870   0.384015  -0.000010  -0.000000   0.000000   0.000003
     6  C    0.000030  -0.000818  -0.042219   0.009607   0.000518   0.002482
     7  C   -0.000001   0.000014   0.410128  -0.038625   0.009254   0.001980
     8  C    0.000000   0.000000  -0.042760   0.397964  -0.039185   0.005549
     9  C   -0.000000  -0.000000   0.009255  -0.050415   0.403346  -0.034085
    10  C    0.000000   0.000003   0.000355   0.009409  -0.043929   0.383986
    11  H   -0.000207   0.000107  -0.007176   0.000078  -0.000000  -0.000001
    12  H   -0.012772  -0.000302   0.000079  -0.000000  -0.000000   0.000000
    13  H    0.672015  -0.009275  -0.000000  -0.000000  -0.000000  -0.000000
    14  H   -0.009275   0.653322  -0.000001   0.000000  -0.000000   0.000000
    15  H   -0.000000  -0.000001   0.687803  -0.014577  -0.000208   0.000107
    16  H   -0.000000   0.000000  -0.014577   0.681970  -0.012770  -0.000302
    17  H   -0.000000  -0.000000  -0.000208  -0.012770   0.671988  -0.009268
    18  H   -0.000000   0.000000   0.000107  -0.000302  -0.009268   0.653337
    19  N    0.000001  -0.000038   0.004140  -0.000226   0.004416  -0.032842
    20  N    0.004417  -0.032855   0.000177   0.000001   0.000001  -0.000038
    21  Re  -0.000222  -0.017337  -0.000597   0.000363  -0.000224  -0.017436
    22  C   -0.000005  -0.001183  -0.000003   0.000000  -0.000005  -0.001176
    23  C    0.000000   0.000208  -0.000001   0.000000  -0.000029  -0.000829
    24  C   -0.000029  -0.000850   0.000001  -0.000000   0.000000   0.000210
    25  O    0.000000  -0.000027   0.000000  -0.000000   0.000000  -0.000027
    26  O   -0.000000  -0.000001   0.000000  -0.000000  -0.000001   0.003572
    27  O   -0.000001   0.003492  -0.000000   0.000000  -0.000000  -0.000001
    28  Cl  -0.000003  -0.000688  -0.000000  -0.000000  -0.000003  -0.000689
              19         20         21         22         23         24
     1  C   -0.017774   0.386703  -0.062255  -0.001005   0.000710  -0.000866
     2  C    0.003949  -0.030837  -0.000052   0.000040  -0.000000   0.000011
     3  C   -0.000135  -0.035172   0.000685   0.000024  -0.000001   0.000002
     4  C    0.000003  -0.014927  -0.001141  -0.000038   0.000001   0.000183
     5  C   -0.000669   0.481220  -0.028343  -0.002426   0.000147  -0.002785
     6  C    0.386759  -0.017755  -0.062270  -0.000983  -0.000867   0.000710
     7  C   -0.030815   0.003954  -0.000049   0.000042   0.000011  -0.000000
     8  C   -0.035187  -0.000135   0.000683   0.000023   0.000002  -0.000001
     9  C   -0.014876   0.000004  -0.001132  -0.000036   0.000184   0.000001
    10  C    0.481066  -0.000670  -0.028343  -0.002410  -0.002847   0.000148
    11  H    0.000175   0.004130  -0.000596  -0.000003   0.000001  -0.000001
    12  H    0.000001  -0.000226   0.000362   0.000000  -0.000000   0.000000
    13  H    0.000001   0.004417  -0.000222  -0.000005   0.000000  -0.000029
    14  H   -0.000038  -0.032855  -0.017337  -0.001183   0.000208  -0.000850
    15  H    0.004140   0.000177  -0.000597  -0.000003  -0.000001   0.000001
    16  H   -0.000226   0.000001   0.000363   0.000000   0.000000  -0.000000
    17  H    0.004416   0.000001  -0.000224  -0.000005  -0.000029   0.000000
    18  H   -0.032842  -0.000038  -0.017436  -0.001176  -0.000829   0.000210
    19  N    6.394435  -0.015692   0.199383   0.000698   0.005254  -0.004583
    20  N   -0.015692   6.394101   0.199443   0.000685  -0.004571   0.005244
    21  Re   0.199383   0.199443  13.783369   0.115162   0.055256   0.055052
    22  C    0.000698   0.000685   0.115162   5.394347  -0.041330  -0.041292
    23  C    0.005254  -0.004571   0.055256  -0.041330   5.474514  -0.056226
    24  C   -0.004583   0.005244   0.055052  -0.041292  -0.056226   5.474364
    25  O   -0.000037  -0.000038  -0.011224   0.698282  -0.000680  -0.000676
    26  O   -0.000049   0.000002  -0.007885  -0.001005   0.697735  -0.001138
    27  O    0.000002  -0.000048  -0.007860  -0.000996  -0.001143   0.697826
    28  Cl  -0.010434  -0.010359   0.248721  -0.004659   0.006449   0.006435
              25         26         27         28
     1  C    0.000034  -0.000001  -0.000004   0.000288
     2  C    0.000000  -0.000000   0.000000  -0.000425
     3  C   -0.000000   0.000000  -0.000000   0.000048
     4  C    0.000001  -0.000000  -0.000002  -0.000271
     5  C    0.000111  -0.000000  -0.000797   0.000113
     6  C    0.000033  -0.000004  -0.000001   0.000270
     7  C    0.000000   0.000000  -0.000000  -0.000439
     8  C   -0.000000  -0.000000   0.000000   0.000050
     9  C    0.000001  -0.000002  -0.000000  -0.000282
    10  C    0.000109  -0.000819  -0.000000   0.000132
    11  H    0.000000  -0.000000   0.000000  -0.000000
    12  H   -0.000000   0.000000  -0.000000  -0.000000
    13  H    0.000000  -0.000000  -0.000001  -0.000003
    14  H   -0.000027  -0.000001   0.003492  -0.000688
    15  H    0.000000   0.000000  -0.000000  -0.000000
    16  H   -0.000000  -0.000000   0.000000  -0.000000
    17  H    0.000000  -0.000001  -0.000000  -0.000003
    18  H   -0.000027   0.003572  -0.000001  -0.000689
    19  N   -0.000037  -0.000049   0.000002  -0.010434
    20  N   -0.000038   0.000002  -0.000048  -0.010359
    21  Re  -0.011224  -0.007885  -0.007860   0.248721
    22  C    0.698282  -0.001005  -0.000996  -0.004659
    23  C   -0.000680   0.697735  -0.001143   0.006449
    24  C   -0.000676  -0.001138   0.697826   0.006435
    25  O    7.428797   0.000032   0.000032   0.000007
    26  O    0.000032   7.416123   0.000033   0.000176
    27  O    0.000032   0.000033   7.415995   0.000175
    28  Cl   0.000007   0.000176   0.000175  17.247809
 Mulliken charges:
               1
     1  C    0.210689
     2  C    0.008303
     3  C    0.115859
     4  C    0.006772
     5  C    0.179547
     6  C    0.210578
     7  C    0.008530
     8  C    0.115906
     9  C    0.006814
    10  C    0.179497
    11  H    0.013760
    12  H    0.017823
    13  H    0.016057
    14  H    0.046243
    15  H    0.013725
    16  H    0.017808
    17  H    0.016070
    18  H    0.046273
    19  N   -0.316928
    20  N   -0.316760
    21  Re   0.588490
    22  C   -0.110748
    23  C   -0.131946
    24  C   -0.131741
    25  O   -0.114729
    26  O   -0.106768
    27  O   -0.106701
    28  Cl  -0.482422
 Sum of Mulliken charges =  -0.00000
 Mulliken charges with hydrogens summed into heavy atoms:
               1
     1  C    0.210689
     2  C    0.022063
     3  C    0.133682
     4  C    0.022829
     5  C    0.225790
     6  C    0.210578
     7  C    0.022255
     8  C    0.133714
     9  C    0.022884
    10  C    0.225770
    19  N   -0.316928
    20  N   -0.316760
    21  Re   0.588490
    22  C   -0.110748
    23  C   -0.131946
    24  C   -0.131741
    25  O   -0.114729
    26  O   -0.106768
    27  O   -0.106701
    28  Cl  -0.482422
 APT charges:
               1
     1  C    0.299213
     2  C   -0.254765
     3  C    0.204966
     4  C   -0.115020
     5  C    0.047066
     6  C    0.298580
     7  C   -0.254887
     8  C    0.205800
     9  C   -0.114639
    10  C    0.049393
    11  H    0.079946
    12  H    0.063867
    13  H    0.068191
    14  H    0.080690
    15  H    0.075957
    16  H    0.064069
    17  H    0.067090
    18  H    0.081201
    19  N   -0.229420
    20  N   -0.230562
    21  Re  -1.026046
    22  C    1.583234
    23  C    1.618102
    24  C    1.617635
    25  O   -1.179289
    26  O   -1.179357
    27  O   -1.179749
    28  Cl  -0.741267
 Sum of APT charges =   0.00000
 APT charges with hydrogens summed into heavy atoms:
               1
     1  C    0.299213
     2  C   -0.174818
     3  C    0.268833
     4  C   -0.046829
     5  C    0.127756
     6  C    0.298580
     7  C   -0.178931
     8  C    0.269869
     9  C   -0.047549
    10  C    0.130594
    19  N   -0.229420
    20  N   -0.230562
    21  Re  -1.026046
    22  C    1.583234
    23  C    1.618102
    24  C    1.617635
    25  O   -1.179289
    26  O   -1.179357
    27  O   -1.179749
    28  Cl  -0.741267
 Electronic spatial extent (au):  <R**2>=          15607.2708
 Charge=              0.0000 electrons
 Dipole moment (field-independent basis, Debye):
    X=             11.5715    Y=             -6.9767    Z=              4.3434  Tot=             14.1929
 Quadrupole moment (field-independent basis, Debye-Ang):
   XX=           -214.8233   YY=           -116.7820   ZZ=           -162.1002
   XY=             44.6626   XZ=            -22.2802   YZ=              5.1481
 Traceless Quadrupole moment (field-independent basis, Debye-Ang):
   XX=            -50.2548   YY=             47.7865   ZZ=              2.4683
   XY=             44.6626   XZ=            -22.2802   YZ=              5.1481
 Octapole moment (field-independent basis, Debye-Ang**2):
  XXX=           2266.5725  YYY=           -327.7319  ZZZ=             -5.8050  XYY=            559.8165
  XXY=           -328.4824  XXZ=            106.1463  XZZ=            698.6619  YZZ=           -105.8043
  YYZ=              2.3414  XYZ=            -21.2204
 Hexadecapole moment (field-independent basis, Debye-Ang**3):
 XXXX=         -21762.6613 YYYY=          -3094.7252 ZZZZ=          -1295.5862 XXXY=           2582.9585
 XXXZ=           -453.0699 YYYX=           1701.7192 YYYZ=            -17.7045 ZZZX=             76.8373
 ZZZY=            -39.3754 XXYY=          -3605.2572 XXZZ=          -3784.8947 YYZZ=           -791.1777
 XXYZ=             79.3646 YYXZ=              0.6088 ZZXY=            504.1945
 N-N= 1.754393444417D+03 E-N=-6.710835900371D+03  KE= 1.314131037217D+03
  Exact polarizability: 336.467  21.470 359.034  -6.211   4.493 192.264
 Approx polarizability: 425.117  31.244 458.037  -2.270   2.182 275.828
 No NMR shielding tensors so no spin-rotation constants.
 Leave Link  601 at Mon Nov 17 10:57:28 2025, MaxMem=  2684354560 cpu:              15.4 elap:               0.6
 (Enter /home/programes/qq/gaussian/g16.A03/g16/l701.exe)
 ... and contract with generalized density number  0.
 Compute integral second derivatives.
 R6Disp: Adding Grimme-D3(BJ) dispersion energy 2nd derivatives to the Hessian.
   1 Symmetry operations used in ECPInt.
 ECPInt:  NShTT=   11175 NPrTT=  105620 LenC2=   10452 LenP2D=   51063.
 LDataN:  DoStor=T MaxTD1= 9 Len=  602
 D2PCM: PCM CHGder 2nd derivatives, FixD1E=F FixD2E=F DoIter=F DoCFld=F I1PDM=0
 GePol: Maximum number of non-zero 2nd derivatives   =     254
 Leave Link  701 at Mon Nov 17 10:57:34 2025, MaxMem=  2684354560 cpu:             198.2 elap:               6.3
 (Enter /home/programes/qq/gaussian/g16.A03/g16/l702.exe)
 L702 exits ... SP integral derivatives will be done elsewhere.
 Leave Link  702 at Mon Nov 17 10:57:34 2025, MaxMem=  2684354560 cpu:               0.7 elap:               0.0
 (Enter /home/programes/qq/gaussian/g16.A03/g16/l703.exe)
 Integral derivatives from FoFJK, PRISM(SPDF).
 Compute integral second derivatives, UseDBF=F ICtDFT=           0.
 Calling FoFJK, ICntrl=    100127 FMM=F ISym2X=0 I1Cent= 0 IOpClX= 0 NMat=1 NMatS=1 NMatT=0.
 FoFJK:  IHMeth= 1 ICntrl=  100127 DoSepK=F KAlg= 0 I1Cent=           0 FoldK=F
 IRaf=         0 NMat=       1 IRICut=       1 DoRegI=T DoRafI=F ISym2E= 0 IDoP0=0 IntGTp=1.
 FoFCou: FMM=F IPFlag=           0 FMFlag=      100000 FMFlg1=         800
         NFxFlg=           0 DoJE=F BraDBF=F KetDBF=F FulRan=T
         wScrn=  0.000000 ICntrl=    100127 IOpCl=  0 I1Cent=           0 NGrid=           0
         NMat0=    1 NMatS0=      1 NMatT0=    0 NMatD0=    1 NMtDS0=    0 NMtDT0=    0
 Symmetry not used in FoFCou.
 Defaulting to unpruned grid for atomic number  75.
 Defaulting to unpruned grid for atomic number  75.
 Defaulting to unpruned grid for atomic number  75.
 Defaulting to unpruned grid for atomic number  75.
 Defaulting to unpruned grid for atomic number  75.
 Defaulting to unpruned grid for atomic number  75.
 Defaulting to unpruned grid for atomic number  75.
 Defaulting to unpruned grid for atomic number  75.
 Defaulting to unpruned grid for atomic number  75.
 Defaulting to unpruned grid for atomic number  75.
 Defaulting to unpruned grid for atomic number  75.
 Defaulting to unpruned grid for atomic number  75.
 Defaulting to unpruned grid for atomic number  75.
 Defaulting to unpruned grid for atomic number  75.
 Defaulting to unpruned grid for atomic number  75.
 Defaulting to unpruned grid for atomic number  75.
 Defaulting to unpruned grid for atomic number  75.
 Defaulting to unpruned grid for atomic number  75.
 Defaulting to unpruned grid for atomic number  75.
 Defaulting to unpruned grid for atomic number  75.
 Defaulting to unpruned grid for atomic number  75.
 Defaulting to unpruned grid for atomic number  75.
 Defaulting to unpruned grid for atomic number  75.
 Defaulting to unpruned grid for atomic number  75.
 Defaulting to unpruned grid for atomic number  75.
 Defaulting to unpruned grid for atomic number  75.
 Defaulting to unpruned grid for atomic number  75.
 Defaulting to unpruned grid for atomic number  75.
 Defaulting to unpruned grid for atomic number  75.
 Defaulting to unpruned grid for atomic number  75.
 Defaulting to unpruned grid for atomic number  75.
 Defaulting to unpruned grid for atomic number  75.
 Leave Link  703 at Mon Nov 17 10:58:32 2025, MaxMem=  2684354560 cpu:            1847.4 elap:              58.1
 (Enter /home/programes/qq/gaussian/g16.A03/g16/l716.exe)
 Dipole        = 4.55256447D+00-2.74482887D+00 1.70884044D+00
 Polarizability= 3.36467457D+02 2.14696240D+01 3.59033797D+02
                -6.21126595D+00 4.49280722D+00 1.92263983D+02
 Full mass-weighted force constant matrix:
 Low frequencies ---   -8.6656   -7.2425   -4.5816   -0.0010   -0.0007    0.0006
 Low frequencies ---   36.1553   43.2842   62.9368
 Diagonal vibrational polarizability:
       54.1481847      58.4613501      98.2307851
 Harmonic frequencies (cm**-1), IR intensities (KM/Mole), Raman scattering
 activities (A**4/AMU), depolarization ratios for plane and unpolarized
 incident light, reduced masses (AMU), force constants (mDyne/A),
 and normal coordinates:
                      1                      2                      3
                      A                      A                      A
 Frequencies --     35.9281                43.2724                62.9256
 Red. masses --      7.8849                 7.1034                14.0767
 Frc consts  --      0.0060                 0.0078                 0.0328
 IR Inten    --      0.7346                 1.8657                 0.7925
  Atom  AN      X      Y      Z        X      Y      Z        X      Y      Z
     1   6     0.01   0.00   0.04    -0.01   0.01  -0.08     0.00   0.05   0.01
     2   6     0.02  -0.00   0.17    -0.02   0.01  -0.22     0.00   0.10   0.05
     3   6     0.02  -0.01   0.25    -0.02   0.01  -0.19    -0.04   0.12   0.05
     4   6     0.01  -0.00   0.20    -0.01   0.00   0.00    -0.09   0.10   0.01
     5   6     0.01   0.00   0.07     0.00  -0.00   0.13    -0.08   0.05  -0.03
     6   6     0.00   0.01  -0.04    -0.01   0.01  -0.08     0.04   0.02  -0.00
     7   6    -0.01   0.01  -0.18    -0.02   0.01  -0.22     0.09   0.05  -0.04
     8   6    -0.02   0.02  -0.26    -0.02   0.01  -0.18     0.13   0.02  -0.05
     9   6    -0.01   0.01  -0.19    -0.01   0.00   0.01     0.13  -0.03  -0.02
    10   6     0.00   0.01  -0.06     0.00  -0.00   0.13     0.08  -0.05   0.02
    11   1     0.02  -0.00   0.21    -0.03   0.02  -0.36     0.04   0.12   0.08
    12   1     0.03  -0.01   0.36    -0.03   0.02  -0.31    -0.04   0.16   0.08
    13   1     0.02  -0.01   0.26    -0.00  -0.00   0.04    -0.12   0.12   0.01
    14   1     0.00   0.00   0.03     0.01  -0.01   0.26    -0.11   0.03  -0.05
    15   1    -0.01   0.02  -0.23    -0.03   0.02  -0.36     0.09   0.09  -0.07
    16   1    -0.02   0.02  -0.37    -0.03   0.02  -0.30     0.16   0.04  -0.09
    17   1    -0.01   0.01  -0.24    -0.00   0.00   0.05     0.16  -0.06  -0.03
    18   1     0.00   0.00  -0.01     0.02  -0.01   0.27     0.08  -0.09   0.04
    19   7     0.00   0.00   0.01     0.00   0.00   0.08     0.04  -0.03   0.02
    20   7     0.00   0.00  -0.00    -0.00  -0.00   0.08    -0.04   0.02  -0.02
    21  75     0.00   0.00   0.00     0.00  -0.00   0.05    -0.01  -0.02   0.00
    22   6     0.08   0.13   0.00    -0.13   0.07   0.04    -0.04  -0.07   0.00
    23   6     0.00  -0.02   0.11     0.01  -0.01  -0.06    -0.07   0.20  -0.06
    24   6    -0.02  -0.01  -0.12     0.01  -0.00  -0.05     0.20   0.03   0.06
    25   8     0.14   0.23   0.00    -0.23   0.13   0.04    -0.09  -0.14   0.00
    26   8     0.00  -0.03   0.20     0.01  -0.01  -0.13    -0.13   0.43  -0.14
    27   8    -0.03  -0.02  -0.21     0.01  -0.01  -0.12     0.44   0.08   0.13
    28  17    -0.09  -0.14   0.00     0.16  -0.09   0.06    -0.17  -0.27   0.00
                      4                      5                      6
                      A                      A                      A
 Frequencies --     79.6849                81.3861                88.1437
 Red. masses --     14.1358                 5.3260                15.6952
 Frc consts  --      0.0529                 0.0208                 0.0718
 IR Inten    --      1.7646                 2.7639                 3.7355
  Atom  AN      X      Y      Z        X      Y      Z        X      Y      Z
     1   6    -0.02  -0.00   0.02    -0.02   0.01  -0.11    -0.02   0.01   0.08
     2   6    -0.03   0.05  -0.04    -0.02   0.02  -0.13    -0.02   0.02   0.06
     3   6    -0.07   0.07  -0.08    -0.01   0.01   0.06    -0.03   0.02  -0.07
     4   6    -0.10   0.04  -0.03    -0.00  -0.00   0.25    -0.04   0.03  -0.16
     5   6    -0.10  -0.01   0.03    -0.01  -0.01   0.20    -0.04   0.02  -0.10
     6   6     0.01  -0.02   0.02    -0.01   0.01  -0.11    -0.02   0.01   0.08
     7   6     0.06  -0.01   0.09    -0.01   0.01  -0.11    -0.02   0.01   0.06
     8   6     0.10  -0.03   0.05     0.00  -0.00   0.07    -0.03   0.01  -0.07
     9   6     0.08  -0.07  -0.08     0.02  -0.01   0.25    -0.04   0.01  -0.17
    10   6     0.03  -0.09  -0.12     0.01  -0.01   0.19    -0.03   0.01  -0.11
    11   1     0.00   0.07  -0.08    -0.02   0.03  -0.25    -0.01   0.01   0.13
    12   1    -0.08   0.11  -0.14    -0.01   0.02   0.06    -0.04   0.03  -0.10
    13   1    -0.14   0.06  -0.05     0.00  -0.01   0.42    -0.05   0.04  -0.28
    14   1    -0.12  -0.03   0.06    -0.00  -0.02   0.31    -0.04   0.02  -0.15
    15   1     0.07   0.03   0.19    -0.02   0.02  -0.23    -0.01   0.01   0.13
    16   1     0.13  -0.02   0.10     0.01  -0.00   0.09    -0.03   0.02  -0.10
    17   1     0.11  -0.09  -0.13     0.03  -0.02   0.41    -0.04   0.02  -0.29
    18   1     0.02  -0.12  -0.20     0.02  -0.01   0.29    -0.04   0.02  -0.17
    19   7     0.00  -0.06  -0.06    -0.00  -0.00   0.01    -0.02   0.00   0.01
    20   7    -0.05  -0.03   0.05    -0.01   0.00   0.02    -0.02   0.01   0.02
    21  75    -0.03  -0.06   0.01    -0.01   0.00  -0.04    -0.03   0.01  -0.03
    22   6    -0.04  -0.03   0.01     0.07  -0.05  -0.04     0.06  -0.03  -0.02
    23   6    -0.07   0.06   0.16    -0.02   0.03   0.01    -0.06   0.12   0.07
    24   6     0.12  -0.03  -0.16    -0.02   0.00  -0.02    -0.13  -0.01   0.07
    25   8    -0.05   0.03   0.01     0.19  -0.12  -0.03     0.21  -0.10  -0.02
    26   8    -0.12   0.20   0.37    -0.04   0.07   0.07    -0.11   0.28   0.22
    27   8     0.30  -0.01  -0.40    -0.03   0.00   0.00    -0.28  -0.03   0.21
    28  17     0.15   0.27   0.00     0.03   0.01  -0.02     0.41  -0.23   0.06
                      7                      8                      9
                      A                      A                      A
 Frequencies --     93.3278                94.9151                99.7375
 Red. masses --     13.3331                16.0212                14.3254
 Frc consts  --      0.0684                 0.0850                 0.0840
 IR Inten    --      1.6298                 0.9575                 2.5971
  Atom  AN      X      Y      Z        X      Y      Z        X      Y      Z
     1   6    -0.05  -0.03  -0.01    -0.03   0.03  -0.04    -0.06   0.04   0.07
     2   6    -0.05   0.02  -0.06    -0.03   0.02  -0.00    -0.07   0.05   0.04
     3   6    -0.09   0.03  -0.04    -0.02   0.01   0.05    -0.08   0.05  -0.04
     4   6    -0.11   0.01   0.04    -0.01   0.02   0.05    -0.08   0.06  -0.08
     5   6    -0.11  -0.03   0.07    -0.02   0.03  -0.00    -0.07   0.05  -0.03
     6   6    -0.01  -0.05  -0.01    -0.03   0.03  -0.05    -0.07   0.04   0.07
     7   6     0.03  -0.03   0.05    -0.04   0.03  -0.04    -0.08   0.04   0.03
     8   6     0.06  -0.06   0.04    -0.04   0.03   0.02    -0.09   0.04  -0.05
     9   6     0.05  -0.09  -0.03    -0.04   0.03   0.07    -0.09   0.05  -0.07
    10   6     0.01  -0.10  -0.07    -0.03   0.03   0.03    -0.08   0.04  -0.01
    11   1    -0.03   0.04  -0.12    -0.03   0.02  -0.00    -0.06   0.05   0.07
    12   1    -0.09   0.07  -0.08    -0.02   0.01   0.09    -0.08   0.06  -0.07
    13   1    -0.14   0.02   0.08    -0.01   0.01   0.09    -0.08   0.06  -0.15
    14   1    -0.13  -0.05   0.12    -0.01   0.03  -0.01    -0.08   0.05  -0.05
    15   1     0.04  -0.00   0.10    -0.04   0.02  -0.07    -0.07   0.03   0.04
    16   1     0.09  -0.05   0.09    -0.04   0.02   0.03    -0.09   0.05  -0.09
    17   1     0.08  -0.11  -0.04    -0.04   0.03   0.12    -0.10   0.05  -0.14
    18   1     0.01  -0.13  -0.11    -0.03   0.03   0.06    -0.08   0.05  -0.02
    19   7    -0.02  -0.08  -0.05    -0.03   0.03  -0.02    -0.07   0.04   0.05
    20   7    -0.07  -0.05   0.04    -0.02   0.03  -0.05    -0.06   0.04   0.04
    21  75    -0.03  -0.04  -0.01    -0.01   0.02  -0.06    -0.05   0.03   0.04
    22   6     0.10   0.20  -0.01    -0.12   0.04  -0.07     0.13  -0.08   0.04
    23   6    -0.04  -0.02  -0.10     0.02  -0.15   0.14    -0.01  -0.12  -0.07
    24   6     0.04  -0.03   0.12     0.13   0.07   0.11     0.10   0.07  -0.07
    25   8     0.31   0.58  -0.01    -0.30   0.07  -0.08     0.44  -0.27   0.05
    26   8    -0.04  -0.00  -0.25     0.07  -0.41   0.44     0.07  -0.37  -0.24
    27   8     0.13  -0.00   0.32     0.38   0.13   0.38     0.35   0.11  -0.23
    28  17     0.06   0.09  -0.01     0.12  -0.10  -0.09     0.11  -0.07   0.01
                     10                     11                     12
                      A                      A                      A
 Frequencies --    111.1314               139.2604               146.1812
 Red. masses --      4.2951                18.3380                 9.8539
 Frc consts  --      0.0313                 0.2095                 0.1241
 IR Inten    --      1.0481                30.1828                 0.0578
  Atom  AN      X      Y      Z        X      Y      Z        X      Y      Z
     1   6     0.01   0.01  -0.02     0.06  -0.04  -0.01    -0.12  -0.10  -0.00
     2   6    -0.00   0.01  -0.18     0.07  -0.11  -0.02    -0.13  -0.01   0.00
     3   6     0.01   0.01  -0.13     0.13  -0.14  -0.03    -0.19   0.02   0.01
     4   6     0.03  -0.00   0.12     0.17  -0.12  -0.02    -0.25  -0.02   0.02
     5   6     0.03  -0.00   0.21     0.16  -0.06  -0.01    -0.23  -0.09   0.01
     6   6     0.00   0.01   0.02     0.07  -0.04  -0.01    -0.03  -0.15  -0.00
     7   6     0.01   0.00   0.18     0.13  -0.02  -0.01     0.04  -0.12  -0.00
     8   6    -0.00   0.01   0.13     0.19  -0.05  -0.02     0.10  -0.16  -0.01
     9   6    -0.02   0.03  -0.12     0.18  -0.10  -0.03     0.10  -0.22  -0.02
    10   6    -0.02   0.03  -0.21     0.13  -0.12  -0.02     0.03  -0.24  -0.02
    11   1    -0.02   0.02  -0.36     0.03  -0.13  -0.02    -0.08   0.02  -0.00
    12   1    -0.00   0.01  -0.27     0.13  -0.19  -0.04    -0.19   0.08   0.01
    13   1     0.04  -0.01   0.20     0.20  -0.13  -0.02    -0.30   0.01   0.03
    14   1     0.05  -0.01   0.35     0.20  -0.03  -0.01    -0.27  -0.12   0.02
    15   1     0.02  -0.01   0.36     0.13   0.03  -0.00     0.05  -0.06  -0.00
    16   1     0.01   0.00   0.26     0.23  -0.03  -0.03     0.15  -0.14  -0.00
    17   1    -0.03   0.03  -0.20     0.22  -0.13  -0.04     0.14  -0.26  -0.03
    18   1    -0.03   0.04  -0.35     0.12  -0.17  -0.03     0.02  -0.29  -0.03
    19   7    -0.01   0.02  -0.11     0.07  -0.08  -0.01    -0.03  -0.21  -0.00
    20   7     0.02   0.01   0.11     0.10  -0.03  -0.00    -0.18  -0.12  -0.00
    21  75     0.01   0.01   0.00    -0.09   0.06  -0.08     0.06   0.10   0.00
    22   6     0.00   0.01  -0.00    -0.04   0.02  -0.04     0.02   0.03   0.00
    23   6     0.01  -0.00   0.00    -0.06   0.00  -0.03     0.05   0.06   0.00
    24   6    -0.00   0.01  -0.00    -0.03   0.05  -0.03     0.03   0.07  -0.00
    25   8     0.00  -0.00  -0.00     0.01  -0.00  -0.04    -0.05  -0.08   0.00
    26   8     0.02  -0.02   0.04    -0.03  -0.12  -0.00     0.09  -0.06   0.04
    27   8    -0.01   0.01  -0.03     0.09   0.08  -0.00    -0.10   0.05  -0.04
    28  17    -0.06  -0.10  -0.00    -0.04   0.02   0.54    -0.01  -0.02  -0.01
                     13                     14                     15
                      A                      A                      A
 Frequencies --    177.9789               231.0255               257.1441
 Red. masses --      6.6256                 4.8296                 4.4611
 Frc consts  --      0.1237                 0.1519                 0.1738
 IR Inten    --      0.5396                 4.5050                 0.0655
  Atom  AN      X      Y      Z        X      Y      Z        X      Y      Z
     1   6     0.03  -0.02   0.23     0.13  -0.06  -0.03    -0.01   0.01  -0.13
     2   6     0.01   0.00   0.05     0.13   0.11  -0.01    -0.02   0.01  -0.20
     3   6    -0.01   0.02  -0.18    -0.01   0.20   0.02     0.00  -0.01   0.06
     4   6    -0.01   0.01  -0.07    -0.13   0.13   0.02     0.01  -0.01   0.17
     5   6     0.01  -0.01   0.18    -0.11  -0.04  -0.01    -0.01   0.01  -0.13
     6   6     0.03  -0.02   0.23     0.12  -0.09  -0.02     0.01  -0.01   0.13
     7   6     0.01  -0.01   0.05    -0.03  -0.17  -0.00     0.02  -0.01   0.20
     8   6    -0.02   0.00  -0.18    -0.18  -0.08   0.02    -0.00   0.00  -0.07
     9   6    -0.01   0.00  -0.07    -0.17   0.05   0.01    -0.01   0.01  -0.17
    10   6     0.02  -0.00   0.18    -0.01   0.11  -0.00     0.01  -0.01   0.13
    11   1     0.02   0.01   0.01     0.24   0.17  -0.01    -0.03   0.01  -0.32
    12   1    -0.03   0.04  -0.42    -0.01   0.32   0.04     0.01  -0.02   0.19
    13   1    -0.03   0.02  -0.21    -0.23   0.18   0.04     0.03  -0.03   0.40
    14   1     0.01  -0.02   0.26    -0.22  -0.12  -0.00    -0.01   0.01  -0.22
    15   1     0.00  -0.02   0.01    -0.03  -0.29  -0.00     0.03  -0.01   0.32
    16   1    -0.05   0.01  -0.42    -0.29  -0.14   0.03    -0.01   0.01  -0.19
    17   1    -0.03   0.01  -0.20    -0.27   0.12   0.02    -0.03   0.01  -0.40
    18   1     0.02  -0.00   0.26     0.00   0.25   0.00     0.02  -0.01   0.22
    19   7     0.03  -0.01   0.25     0.12   0.01  -0.02     0.02  -0.01   0.20
    20   7     0.02  -0.02   0.25     0.05  -0.11  -0.02    -0.02   0.01  -0.20
    21  75     0.01  -0.00  -0.05     0.01  -0.00  -0.01    -0.00  -0.00   0.00
    22   6     0.00   0.00  -0.06     0.01  -0.01  -0.01     0.01   0.01  -0.00
    23   6     0.01   0.00  -0.04     0.01   0.01  -0.00    -0.00  -0.01   0.02
    24   6     0.00  -0.00  -0.04    -0.01  -0.01  -0.00    -0.00  -0.00  -0.02
    25   8     0.04  -0.02  -0.06    -0.01   0.01  -0.01    -0.01  -0.02  -0.00
    26   8    -0.00   0.00   0.07     0.01  -0.01  -0.00    -0.00   0.00  -0.02
    27   8    -0.00   0.00   0.07     0.01  -0.01   0.00     0.00  -0.00   0.02
    28  17    -0.08   0.05  -0.04    -0.01   0.01   0.10     0.01   0.02  -0.00
                     16                     17                     18
                      A                      A                      A
 Frequencies --    319.7047               428.8081               430.8692
 Red. masses --      9.3879                 3.1756                 3.8101
 Frc consts  --      0.5653                 0.3440                 0.4168
 IR Inten    --      4.3920                11.4492                 0.3270
  Atom  AN      X      Y      Z        X      Y      Z        X      Y      Z
     1   6    -0.10   0.13   0.01    -0.01   0.01  -0.12    -0.00   0.00   0.04
     2   6    -0.09   0.15   0.00     0.01  -0.01   0.15    -0.02   0.01  -0.15
     3   6    -0.02   0.14   0.01    -0.00   0.00  -0.06     0.01  -0.01   0.16
     4   6     0.11   0.22   0.01     0.00   0.01  -0.07    -0.00   0.00  -0.05
     5   6     0.11   0.26  -0.00     0.01  -0.00   0.15    -0.01   0.01  -0.12
     6   6    -0.16   0.02   0.01    -0.01   0.00  -0.13     0.00  -0.00  -0.02
     7   6    -0.18   0.01   0.00     0.01  -0.01   0.17     0.01  -0.01   0.12
     8   6    -0.13  -0.05   0.01    -0.01  -0.00  -0.08    -0.01   0.00  -0.15
     9   6    -0.15  -0.21   0.01    -0.01  -0.00  -0.06     0.00  -0.00   0.06
    10   6    -0.18  -0.22  -0.00     0.01  -0.01   0.17     0.01  -0.00   0.09
    11   1    -0.09   0.15  -0.00     0.02  -0.02   0.39    -0.04   0.02  -0.44
    12   1    -0.02   0.03   0.01    -0.01   0.00  -0.10     0.02  -0.02   0.33
    13   1     0.19   0.19   0.01    -0.00   0.01  -0.10    -0.01   0.01  -0.15
    14   1     0.11   0.26  -0.01     0.03  -0.02   0.43    -0.02   0.03  -0.34
    15   1    -0.18   0.01  -0.00     0.04  -0.03   0.45     0.03  -0.02   0.36
    16   1    -0.03   0.00   0.01    -0.01   0.00  -0.15    -0.03   0.01  -0.30
    17   1    -0.08  -0.26   0.01    -0.01  -0.00  -0.08     0.01  -0.00   0.17
    18   1    -0.18  -0.22  -0.02     0.04  -0.02   0.47     0.03  -0.00   0.26
    19   7    -0.18  -0.19   0.00    -0.01   0.00  -0.14    -0.01   0.01  -0.20
    20   7     0.08   0.25   0.00    -0.01   0.01  -0.11     0.01  -0.01   0.22
    21  75     0.05  -0.03  -0.03    -0.00   0.00   0.00     0.00   0.00   0.00
    22   6     0.05  -0.03  -0.01     0.04  -0.03   0.01    -0.05  -0.07  -0.00
    23   6     0.07  -0.04  -0.01    -0.00  -0.00   0.04    -0.00   0.01  -0.09
    24   6     0.07  -0.04  -0.01    -0.00   0.00   0.05     0.01   0.01   0.08
    25   8    -0.02   0.01  -0.01    -0.02   0.01   0.01     0.02   0.03  -0.00
    26   8     0.05   0.04   0.01    -0.00   0.00  -0.02    -0.00  -0.01   0.04
    27   8    -0.01  -0.06   0.01     0.00  -0.00  -0.02    -0.01  -0.00  -0.04
    28  17    -0.02   0.01   0.13     0.01  -0.00   0.00    -0.01  -0.01  -0.00
                     19                     20                     21
                      A                      A                      A
 Frequencies --    454.2604               455.6936               497.2025
 Red. masses --      5.6710                 4.1559                10.0473
 Frc consts  --      0.6895                 0.5085                 1.4634
 IR Inten    --      2.8029                 0.9618                 6.6739
  Atom  AN      X      Y      Z        X      Y      Z        X      Y      Z
     1   6    -0.14   0.12  -0.04    -0.02   0.02   0.17    -0.05  -0.02  -0.00
     2   6    -0.20   0.00   0.01    -0.04   0.00   0.04    -0.11  -0.15  -0.01
     3   6    -0.06  -0.10   0.04    -0.02  -0.01  -0.17    -0.25  -0.12   0.02
     4   6     0.04  -0.03  -0.06     0.03  -0.02   0.18    -0.18  -0.06  -0.00
     5   6     0.02   0.13   0.03     0.00   0.03  -0.05    -0.14   0.04   0.01
     6   6     0.16  -0.07  -0.07     0.05  -0.03   0.17    -0.01   0.06  -0.00
     7   6     0.10  -0.17  -0.04     0.02  -0.05   0.03     0.08   0.17  -0.01
     8   6    -0.05  -0.10   0.06    -0.03  -0.02  -0.16    -0.01   0.28   0.03
     9   6    -0.06   0.03  -0.06     0.00  -0.00   0.18    -0.03   0.18  -0.00
    10   6     0.10   0.08   0.00     0.02   0.02  -0.06    -0.10   0.10   0.01
    11   1    -0.34  -0.08   0.03    -0.08  -0.02   0.01    -0.09  -0.13  -0.02
    12   1    -0.05  -0.23   0.12    -0.04  -0.03  -0.44    -0.25  -0.07   0.04
    13   1     0.15  -0.08  -0.12     0.06  -0.04   0.35    -0.05  -0.12  -0.03
    14   1     0.13   0.20   0.06     0.02   0.06  -0.19    -0.20  -0.00   0.01
    15   1     0.09  -0.33  -0.05     0.02  -0.08  -0.01     0.07   0.14  -0.02
    16   1    -0.16  -0.16   0.17    -0.08  -0.02  -0.43    -0.06   0.26   0.05
    17   1    -0.16   0.11  -0.10    -0.01   0.01   0.35     0.08   0.10  -0.03
    18   1     0.13   0.21   0.04     0.02   0.05  -0.19    -0.09   0.18   0.00
    19   7     0.22  -0.03   0.04     0.04  -0.00  -0.15     0.04  -0.04   0.01
    20   7    -0.13   0.17   0.06    -0.04   0.05  -0.15     0.06  -0.01   0.01
    21  75     0.01   0.02   0.00    -0.00   0.01  -0.00     0.01  -0.00  -0.06
    22   6    -0.03   0.01  -0.00     0.07  -0.04   0.01     0.15  -0.10   0.22
    23   6    -0.03  -0.14  -0.06    -0.01  -0.03   0.07     0.19   0.10   0.02
    24   6    -0.11  -0.09   0.01    -0.03  -0.02   0.09     0.02  -0.22   0.04
    25   8     0.01  -0.00  -0.00    -0.03   0.02   0.01    -0.06   0.04   0.22
    26   8    -0.08   0.03   0.02    -0.02   0.01  -0.03     0.21   0.04   0.00
    27   8     0.06  -0.06   0.00     0.02  -0.02  -0.04     0.06  -0.22  -0.00
    28  17    -0.00   0.00   0.00     0.01  -0.01  -0.00    -0.01   0.00   0.09
                     22                     23                     24
                      A                      A                      A
 Frequencies --    502.5669               510.6112               516.3839
 Red. masses --     10.8290                13.3389                12.6075
 Frc consts  --      1.6115                 2.0490                 1.9807
 IR Inten    --      8.0887                17.3544                13.1202
  Atom  AN      X      Y      Z        X      Y      Z        X      Y      Z
     1   6    -0.01  -0.01   0.04    -0.05   0.03  -0.01     0.03   0.02  -0.00
     2   6    -0.03  -0.02  -0.06    -0.08  -0.01   0.03     0.08   0.12   0.01
     3   6    -0.04  -0.02   0.07    -0.06  -0.03  -0.03     0.20   0.09  -0.03
     4   6    -0.03   0.01  -0.04    -0.00   0.00   0.02     0.14   0.03   0.00
     5   6    -0.02   0.01  -0.01    -0.01   0.05   0.00     0.10  -0.05  -0.01
     6   6    -0.01  -0.01  -0.04     0.05  -0.03   0.01    -0.01  -0.04  -0.00
     7   6     0.00  -0.02   0.05     0.03  -0.07  -0.03    -0.07  -0.13   0.01
     8   6     0.00  -0.02  -0.07     0.00  -0.07   0.03     0.02  -0.22  -0.03
     9   6     0.01  -0.01   0.04     0.00   0.00  -0.02     0.03  -0.14   0.00
    10   6     0.01  -0.00   0.01     0.05   0.02  -0.00     0.09  -0.07  -0.01
    11   1    -0.03  -0.00  -0.21    -0.10  -0.03   0.10     0.05   0.09   0.04
    12   1    -0.04  -0.02   0.11    -0.06  -0.07  -0.05     0.20   0.04  -0.05
    13   1    -0.01  -0.00  -0.14     0.06  -0.03   0.06     0.03   0.09   0.03
    14   1    -0.04   0.01  -0.10     0.01   0.06   0.04     0.16  -0.00   0.00
    15   1     0.01  -0.02   0.20     0.02  -0.11  -0.10    -0.06  -0.09   0.03
    16   1    -0.00  -0.02  -0.11    -0.04  -0.09   0.05     0.06  -0.20  -0.05
    17   1     0.01   0.00   0.14    -0.05   0.04  -0.06    -0.06  -0.07   0.03
    18   1     0.02  -0.02   0.10     0.05   0.05  -0.04     0.08  -0.14   0.00
    19   7    -0.01   0.02  -0.12     0.06   0.01   0.05    -0.03   0.05  -0.02
    20   7     0.02  -0.00   0.12    -0.02   0.06  -0.05    -0.06   0.01  -0.02
    21  75    -0.01  -0.02  -0.00    -0.04  -0.06  -0.00    -0.08   0.05   0.00
    22   6     0.24   0.39   0.01    -0.18  -0.31   0.00    -0.26   0.16   0.15
    23   6     0.19  -0.21   0.37     0.40   0.06  -0.11     0.26   0.19  -0.05
    24   6    -0.27   0.06  -0.37    -0.13   0.38   0.11    -0.05  -0.31  -0.06
    25   8    -0.09  -0.15   0.01     0.07   0.11   0.00     0.09  -0.05   0.16
    26   8     0.12   0.13  -0.14     0.40   0.12   0.07     0.33   0.05   0.04
    27   8     0.06   0.16   0.14    -0.08   0.41  -0.07     0.11  -0.30   0.05
    28  17     0.01   0.01   0.00    -0.00  -0.01   0.00     0.01  -0.00  -0.11
                     25                     26                     27
                      A                      A                      A
 Frequencies --    522.3546               530.3987               531.6137
 Red. masses --     13.2719                10.7584                10.5542
 Frc consts  --      2.1336                 1.7832                 1.7574
 IR Inten    --      0.7901                20.6000                26.7767
  Atom  AN      X      Y      Z        X      Y      Z        X      Y      Z
     1   6     0.00   0.00   0.00    -0.07   0.08   0.02     0.01   0.03   0.01
     2   6     0.01   0.01   0.04    -0.11   0.01   0.00     0.03   0.10  -0.06
     3   6     0.02   0.01  -0.05    -0.04  -0.05   0.01     0.15   0.05   0.07
     4   6     0.01  -0.00   0.04     0.02  -0.01  -0.01     0.09   0.02  -0.07
     5   6     0.01  -0.01  -0.02     0.01   0.08   0.00     0.07  -0.03   0.02
     6   6     0.01  -0.00  -0.00     0.10  -0.02  -0.02     0.01  -0.02   0.00
     7   6    -0.00  -0.02   0.04     0.08  -0.07   0.01    -0.05  -0.09  -0.06
     8   6    -0.00  -0.02  -0.05    -0.03  -0.02  -0.03     0.02  -0.17   0.07
     9   6     0.01  -0.01   0.04    -0.02   0.04   0.03     0.02  -0.08  -0.07
    10   6     0.01  -0.00  -0.01     0.05   0.06  -0.01     0.08  -0.04   0.01
    11   1     0.01   0.01   0.09    -0.19  -0.03  -0.03    -0.02   0.07  -0.15
    12   1     0.02   0.01  -0.12    -0.04  -0.12   0.01     0.16  -0.00   0.16
    13   1     0.00   0.00   0.11     0.10  -0.04  -0.03     0.01   0.06  -0.17
    14   1     0.02   0.00   0.00     0.07   0.12  -0.01     0.13   0.01  -0.01
    15   1     0.00  -0.02   0.09     0.08  -0.17   0.06    -0.05  -0.07  -0.14
    16   1    -0.01  -0.02  -0.12    -0.11  -0.05  -0.05     0.05  -0.16   0.15
    17   1    -0.00  -0.00   0.11    -0.06   0.07   0.08    -0.07  -0.02  -0.16
    18   1     0.01  -0.01   0.01     0.06   0.15   0.01     0.07  -0.08  -0.02
    19   7    -0.01   0.02  -0.07     0.11  -0.02  -0.06    -0.00   0.04   0.11
    20   7    -0.02   0.00  -0.07    -0.05   0.09   0.03    -0.06   0.01   0.12
    21  75     0.03  -0.02  -0.04    -0.02  -0.04   0.01    -0.03   0.01  -0.05
    22   6    -0.19   0.11   0.45     0.01   0.14  -0.04     0.44  -0.24   0.25
    23   6    -0.12  -0.12  -0.33    -0.10   0.50   0.17    -0.10   0.10   0.27
    24   6     0.08   0.17  -0.33     0.50   0.12  -0.22     0.00   0.08   0.21
    25   8     0.06  -0.04   0.51    -0.01  -0.06  -0.04    -0.16   0.09   0.24
    26   8    -0.19  -0.02   0.11     0.09  -0.16  -0.06    -0.05  -0.06  -0.10
    27   8    -0.08   0.18   0.11    -0.19  -0.02   0.08    -0.03   0.07  -0.09
    28  17    -0.01   0.01  -0.00     0.00   0.01   0.01     0.02  -0.01  -0.08
                     28                     29                     30
                      A                      A                      A
 Frequencies --    564.6524               632.1304               634.8453
 Red. masses --      2.7699                 7.6836                11.8551
 Frc consts  --      0.5203                 1.8090                 2.8151
 IR Inten    --      0.0069                 1.7687                26.5467
  Atom  AN      X      Y      Z        X      Y      Z        X      Y      Z
     1   6     0.01  -0.01   0.17    -0.02   0.12   0.01    -0.02   0.05  -0.01
     2   6     0.00  -0.00   0.06     0.04   0.18   0.00     0.00   0.07   0.01
     3   6    -0.01   0.01  -0.10     0.30   0.04  -0.01     0.11   0.01  -0.02
     4   6     0.01  -0.01   0.15     0.02  -0.16  -0.01     0.01  -0.06   0.00
     5   6    -0.01   0.01  -0.12    -0.02  -0.18  -0.01    -0.00  -0.06  -0.01
     6   6    -0.01   0.01  -0.17     0.12   0.04  -0.01     0.05   0.01   0.01
     7   6    -0.00   0.00  -0.06     0.14   0.12  -0.00     0.06   0.03  -0.01
     8   6     0.01  -0.00   0.10    -0.11   0.28   0.02    -0.04   0.10   0.02
     9   6    -0.01   0.01  -0.15    -0.15  -0.06   0.01    -0.06  -0.01  -0.00
    10   6     0.01  -0.00   0.12    -0.15  -0.10   0.01    -0.06  -0.03   0.01
    11   1    -0.01   0.01  -0.15    -0.15   0.06  -0.01    -0.07   0.02   0.07
    12   1    -0.03   0.02  -0.41     0.30   0.05  -0.02     0.11   0.00  -0.00
    13   1     0.01  -0.01   0.14    -0.25  -0.04  -0.01    -0.08  -0.01   0.06
    14   1    -0.03   0.02  -0.45     0.16  -0.06  -0.03     0.07  -0.02   0.02
    15   1     0.01  -0.01   0.15     0.13  -0.10   0.01     0.05  -0.05  -0.07
    16   1     0.03  -0.02   0.41    -0.10   0.29   0.02    -0.05   0.10   0.01
    17   1    -0.01   0.01  -0.14     0.08  -0.23   0.01     0.02  -0.08  -0.06
    18   1     0.04  -0.02   0.45    -0.13   0.11   0.03    -0.05   0.05  -0.02
    19   7    -0.00   0.00  -0.04     0.08  -0.24  -0.02     0.04  -0.09   0.01
    20   7     0.00  -0.00   0.04    -0.25  -0.04   0.02    -0.09  -0.01  -0.01
    21  75    -0.00  -0.00  -0.00     0.00   0.01  -0.00    -0.02  -0.04   0.00
    22   6     0.00   0.00   0.00    -0.08  -0.12   0.00     0.34   0.56   0.00
    23   6    -0.00   0.00   0.00     0.02  -0.03   0.11     0.06   0.05  -0.41
    24   6     0.00   0.00  -0.00    -0.03   0.00  -0.11     0.01   0.08   0.41
    25   8    -0.00  -0.00  -0.00     0.02   0.04   0.00    -0.10  -0.16   0.00
    26   8     0.00  -0.00  -0.00     0.02   0.02  -0.03     0.06   0.00   0.12
    27   8    -0.00  -0.00   0.00     0.00   0.02   0.03    -0.02   0.05  -0.12
    28  17    -0.00  -0.00  -0.00    -0.00  -0.00  -0.00     0.01   0.01   0.00
                     31                     32                     33
                      A                      A                      A
 Frequencies --    642.1081               660.8510               662.4319
 Red. masses --     12.4087                12.9368                 6.9503
 Frc consts  --      3.0143                 3.3288                 1.7970
 IR Inten    --     25.4131                51.7417                 6.3447
  Atom  AN      X      Y      Z        X      Y      Z        X      Y      Z
     1   6     0.01  -0.01   0.02    -0.00   0.00  -0.00    -0.16  -0.17   0.00
     2   6     0.01  -0.01  -0.02     0.01   0.04   0.01    -0.20   0.16   0.02
     3   6    -0.02  -0.00   0.03     0.05   0.02  -0.01    -0.02   0.11   0.01
     4   6    -0.02  -0.00  -0.02    -0.01  -0.04   0.01     0.17   0.19  -0.00
     5   6    -0.01  -0.00   0.02    -0.01  -0.06  -0.01     0.18  -0.15  -0.02
     6   6     0.02  -0.00   0.02    -0.00   0.01  -0.00    -0.08  -0.22  -0.00
     7   6     0.02  -0.00  -0.02    -0.04  -0.02   0.01     0.24  -0.10  -0.02
     8   6    -0.00   0.01   0.03     0.01  -0.05  -0.01     0.10   0.03  -0.01
     9   6    -0.01   0.02  -0.02     0.02   0.02   0.01     0.09   0.24   0.00
    10   6     0.00   0.01   0.02     0.05   0.03  -0.02    -0.22   0.09   0.02
    11   1     0.02  -0.00  -0.07    -0.02   0.02   0.03    -0.08   0.24   0.02
    12   1    -0.02   0.02   0.03     0.05   0.03  -0.01    -0.01  -0.22  -0.01
    13   1    -0.02  -0.00  -0.08    -0.09  -0.00   0.04     0.05   0.25   0.01
    14   1    -0.00   0.00  -0.00     0.04  -0.03   0.00     0.10  -0.21  -0.01
    15   1     0.01  -0.01  -0.07    -0.03   0.00   0.03     0.25   0.04  -0.02
    16   1    -0.02   0.00   0.03     0.00  -0.06  -0.01    -0.19  -0.11   0.01
    17   1    -0.01   0.02  -0.08    -0.04   0.07   0.04     0.20   0.16  -0.01
    18   1    -0.00   0.00  -0.01     0.05  -0.02   0.00    -0.23  -0.00   0.01
    19   7     0.01  -0.00   0.02    -0.01   0.05  -0.00    -0.10  -0.03   0.01
    20   7     0.01  -0.01   0.02    -0.05  -0.02  -0.00     0.02  -0.10  -0.01
    21  75    -0.00   0.00  -0.05    -0.06   0.03   0.03    -0.00   0.00   0.00
    22   6    -0.40   0.25   0.06     0.34  -0.20  -0.05    -0.00  -0.01  -0.00
    23   6     0.09  -0.39   0.41     0.23  -0.49  -0.24     0.00  -0.01   0.00
    24   6     0.39   0.10   0.42     0.53   0.03  -0.24    -0.00  -0.00  -0.01
    25   8     0.11  -0.07   0.08    -0.09   0.05  -0.08     0.00   0.00  -0.00
    26   8    -0.02   0.11  -0.12     0.05   0.16   0.07    -0.00   0.00  -0.00
    27   8    -0.11  -0.03  -0.12    -0.12  -0.12   0.07     0.00  -0.00   0.00
    28  17    -0.00   0.00  -0.00     0.01  -0.00   0.00    -0.00   0.00  -0.00
                     34                     35                     36
                      A                      A                      A
 Frequencies --    752.6842               758.4263               771.7182
 Red. masses --      4.2426                 1.6211                 5.2591
 Frc consts  --      1.4162                 0.5494                 1.8453
 IR Inten    --     16.6474                 0.0289                 1.5906
  Atom  AN      X      Y      Z        X      Y      Z        X      Y      Z
     1   6     0.02  -0.01   0.22    -0.01   0.00  -0.07    -0.10  -0.06   0.02
     2   6     0.01  -0.00  -0.14    -0.00   0.00  -0.00    -0.23   0.12   0.01
     3   6     0.01  -0.01   0.09    -0.01   0.00  -0.08    -0.09   0.04   0.00
     4   6    -0.01   0.00  -0.13     0.00  -0.00   0.02     0.07   0.09  -0.02
     5   6     0.00   0.01   0.10    -0.00   0.00  -0.08     0.11  -0.23  -0.02
     6   6     0.02  -0.02   0.22     0.01  -0.00   0.06     0.01   0.11   0.02
     7   6     0.01  -0.00  -0.14    -0.00   0.00   0.01    -0.21   0.15   0.01
     8   6     0.01  -0.00   0.09     0.01  -0.00   0.08    -0.08   0.07  -0.00
     9   6    -0.01   0.01  -0.14    -0.00  -0.00  -0.01    -0.05  -0.11  -0.02
    10   6    -0.01  -0.01   0.10     0.01  -0.00   0.07     0.25   0.01  -0.03
    11   1     0.01  -0.00  -0.14     0.03  -0.02   0.46    -0.22   0.13   0.09
    12   1     0.03  -0.01   0.37     0.02  -0.02   0.28    -0.08  -0.28   0.10
    13   1     0.02  -0.01   0.08     0.03  -0.02   0.44    -0.07   0.15   0.13
    14   1     0.02  -0.01   0.45     0.01  -0.01   0.07     0.03  -0.30   0.07
    15   1     0.00  -0.00  -0.17    -0.04   0.02  -0.44    -0.21   0.13   0.11
    16   1     0.02  -0.02   0.35    -0.02   0.01  -0.27     0.21   0.20   0.11
    17   1     0.02  -0.01   0.05    -0.04   0.02  -0.42    -0.16  -0.01   0.14
    18   1     0.02  -0.02   0.44    -0.00   0.00  -0.08     0.28   0.11   0.07
    19   7    -0.02   0.00  -0.18    -0.01   0.00  -0.09     0.13   0.04  -0.01
    20   7    -0.01   0.02  -0.18     0.01  -0.01   0.10     0.02  -0.13  -0.02
    21  75    -0.00   0.00   0.00     0.00   0.00  -0.00     0.01  -0.01  -0.00
    22   6    -0.00   0.00  -0.00     0.00   0.00   0.00    -0.01   0.01  -0.01
    23   6     0.00   0.00  -0.02    -0.00  -0.00   0.01     0.00   0.00   0.01
    24   6    -0.00  -0.00  -0.02    -0.00  -0.00  -0.01    -0.00  -0.00   0.01
    25   8     0.00  -0.00   0.00    -0.00  -0.00  -0.00     0.00  -0.00  -0.01
    26   8     0.00  -0.00   0.01    -0.00   0.00  -0.00     0.00  -0.00  -0.00
    27   8     0.00  -0.00   0.01     0.00  -0.00   0.00     0.00  -0.00  -0.00
    28  17     0.00  -0.00  -0.00    -0.00  -0.00  -0.00    -0.00   0.00   0.02
                     37                     38                     39
                      A                      A                      A
 Frequencies --    776.7345               831.0915               859.2813
 Red. masses --      1.2596                 2.3812                 5.4496
 Frc consts  --      0.4478                 0.9690                 2.3708
 IR Inten    --    114.0987                 0.0015                 4.6485
  Atom  AN      X      Y      Z        X      Y      Z        X      Y      Z
     1   6     0.01   0.00   0.00    -0.01   0.01  -0.22     0.07  -0.10  -0.01
     2   6     0.01  -0.01  -0.02     0.00  -0.00   0.05     0.10  -0.19  -0.02
     3   6     0.00   0.00  -0.06    -0.00   0.00   0.00    -0.19  -0.01   0.01
     4   6    -0.01  -0.01  -0.02     0.01  -0.00   0.09     0.14   0.23   0.01
     5   6    -0.01   0.02  -0.05     0.00  -0.00   0.01     0.10   0.05  -0.01
     6   6    -0.00  -0.01  -0.00     0.02  -0.01   0.22     0.12  -0.02  -0.01
     7   6     0.01  -0.01  -0.02    -0.00   0.00  -0.05     0.21   0.00  -0.02
     8   6    -0.00  -0.00  -0.07     0.00  -0.00  -0.00    -0.08   0.18   0.01
     9   6     0.00   0.01  -0.02    -0.01   0.00  -0.09    -0.14  -0.23   0.00
    10   6    -0.02   0.00  -0.05    -0.00   0.00  -0.01     0.01  -0.11  -0.01
    11   1     0.04  -0.03   0.34     0.01  -0.01   0.11     0.33  -0.04  -0.02
    12   1     0.03  -0.00   0.34    -0.02   0.02  -0.31    -0.19  -0.08   0.01
    13   1     0.03  -0.04   0.45    -0.03   0.03  -0.45     0.38   0.13  -0.02
    14   1     0.01   0.01   0.19    -0.02   0.02  -0.35    -0.01  -0.03  -0.01
    15   1     0.04  -0.02   0.36    -0.01   0.01  -0.10     0.19  -0.27  -0.02
    16   1     0.02  -0.03   0.35     0.03  -0.01   0.32    -0.01   0.21   0.02
    17   1     0.05  -0.02   0.46     0.04  -0.02   0.45     0.06  -0.39  -0.02
    18   1    -0.00  -0.02   0.19     0.03  -0.01   0.35     0.02   0.02  -0.00
    19   7    -0.00  -0.00   0.05    -0.00   0.00  -0.07     0.03   0.02   0.01
    20   7     0.00   0.01   0.05     0.00  -0.00   0.07    -0.00  -0.04   0.01
    21  75    -0.00   0.00  -0.00     0.00   0.00  -0.00    -0.03   0.02   0.01
    22   6     0.00  -0.00   0.00     0.00   0.00  -0.00     0.02  -0.01   0.02
    23   6    -0.00  -0.00   0.01    -0.00   0.00   0.00    -0.01  -0.02  -0.01
    24   6     0.00   0.00   0.01     0.00  -0.00  -0.00     0.01   0.02  -0.01
    25   8    -0.00   0.00   0.00    -0.00  -0.00  -0.00    -0.01   0.00   0.02
    26   8    -0.00   0.00  -0.00     0.00  -0.00  -0.00    -0.01   0.00   0.00
    27   8    -0.00   0.00  -0.00    -0.00   0.00   0.00    -0.01   0.01   0.00
    28  17    -0.00   0.00  -0.00    -0.00  -0.00   0.00     0.01  -0.00  -0.06
                     40                     41                     42
                      A                      A                      A
 Frequencies --    911.6546               913.1232               990.6589
 Red. masses --      1.3143                 1.4843                 1.3958
 Frc consts  --      0.6436                 0.7292                 0.8071
 IR Inten    --      0.0370                 0.0151                 1.5301
  Atom  AN      X      Y      Z        X      Y      Z        X      Y      Z
     1   6     0.00  -0.00   0.04    -0.00   0.00  -0.06     0.00  -0.00   0.02
     2   6    -0.01   0.01  -0.11     0.00  -0.00   0.07    -0.00   0.00  -0.06
     3   6    -0.00   0.00  -0.02     0.00  -0.00   0.01     0.00  -0.00   0.05
     4   6     0.00  -0.00   0.05    -0.00   0.00  -0.01     0.01  -0.00   0.08
     5   6     0.01  -0.00   0.08    -0.00   0.00  -0.04    -0.01   0.01  -0.12
     6   6    -0.00   0.00  -0.01     0.01  -0.00   0.07    -0.00  -0.00   0.00
     7   6    -0.00   0.00  -0.05    -0.01   0.01  -0.12    -0.00   0.00  -0.03
     8   6    -0.00   0.00  -0.02    -0.00   0.00  -0.02     0.00  -0.00   0.02
     9   6     0.00  -0.00   0.03     0.00  -0.00   0.04     0.00  -0.00   0.05
    10   6     0.00  -0.00   0.04     0.01  -0.00   0.08    -0.01   0.00  -0.07
    11   1     0.04  -0.03   0.61    -0.02   0.02  -0.30     0.02  -0.02   0.29
    12   1     0.01  -0.01   0.20    -0.01   0.01  -0.13    -0.02   0.02  -0.27
    13   1    -0.03   0.02  -0.37     0.01  -0.01   0.16    -0.03   0.02  -0.40
    14   1    -0.03   0.02  -0.44     0.01  -0.01   0.22     0.04  -0.04   0.65
    15   1     0.03  -0.02   0.33     0.05  -0.03   0.62     0.01  -0.01   0.15
    16   1     0.01  -0.00   0.10     0.02  -0.01   0.23    -0.01   0.01  -0.14
    17   1    -0.02   0.01  -0.22    -0.03   0.02  -0.36    -0.02   0.01  -0.22
    18   1    -0.02   0.01  -0.23    -0.04   0.02  -0.45     0.03  -0.01   0.35
    19   7    -0.00   0.00  -0.01    -0.00   0.00  -0.03     0.00  -0.00   0.01
    20   7    -0.00   0.00  -0.02     0.00  -0.00   0.02     0.00  -0.00   0.01
    21  75     0.00  -0.00   0.00     0.00   0.00   0.00     0.00  -0.00  -0.00
    22   6    -0.00  -0.00  -0.00     0.00   0.00  -0.00     0.00   0.00   0.00
    23   6     0.00   0.00  -0.00     0.00  -0.00   0.00    -0.00   0.00   0.00
    24   6     0.00  -0.00  -0.00    -0.00  -0.00  -0.00    -0.00   0.00   0.00
    25   8     0.00   0.00   0.00    -0.00  -0.00   0.00     0.00   0.00  -0.00
    26   8    -0.00   0.00   0.00    -0.00   0.00  -0.00     0.00  -0.00  -0.00
    27   8    -0.00   0.00   0.00     0.00  -0.00   0.00     0.00  -0.00  -0.00
    28  17     0.00   0.00   0.00    -0.00  -0.00   0.00    -0.00   0.00  -0.00
                     43                     44                     45
                      A                      A                      A
 Frequencies --    992.2537              1019.0930              1029.6479
 Red. masses --      1.4154                 7.2859                 1.3551
 Frc consts  --      0.8211                 4.4582                 0.8465
 IR Inten    --      0.2063                 4.2458                 0.0066
  Atom  AN      X      Y      Z        X      Y      Z        X      Y      Z
     1   6    -0.00   0.00  -0.03     0.00   0.05   0.00     0.00  -0.00   0.00
     2   6     0.00  -0.00   0.04    -0.18   0.23   0.03     0.00  -0.00   0.05
     3   6    -0.00   0.00  -0.03     0.01  -0.01  -0.00    -0.01   0.01  -0.10
     4   6    -0.00   0.00  -0.04    -0.14  -0.23  -0.00     0.01  -0.00   0.07
     5   6     0.00  -0.00   0.06    -0.03  -0.01   0.00    -0.00   0.00  -0.02
     6   6     0.00  -0.00   0.04     0.04   0.03  -0.00    -0.00   0.00  -0.00
     7   6    -0.00   0.00  -0.06     0.29  -0.05  -0.03    -0.00   0.00  -0.04
     8   6     0.00  -0.00   0.05    -0.02   0.00   0.00     0.01  -0.00   0.08
     9   6     0.01  -0.00   0.08    -0.15  -0.23  -0.00    -0.00   0.00  -0.06
    10   6    -0.01   0.01  -0.12    -0.00  -0.03   0.00     0.00  -0.00   0.02
    11   1    -0.01   0.01  -0.16    -0.33   0.16   0.03    -0.02   0.01  -0.28
    12   1     0.01  -0.01   0.15     0.00  -0.05   0.00     0.04  -0.03   0.58
    13   1     0.01  -0.01   0.20    -0.19  -0.23  -0.01    -0.03   0.02  -0.39
    14   1    -0.02   0.02  -0.35    -0.07  -0.06   0.00     0.01  -0.01   0.15
    15   1     0.02  -0.01   0.30     0.30  -0.21  -0.03     0.02  -0.01   0.21
    16   1    -0.02   0.01  -0.27    -0.05  -0.02  -0.01    -0.04   0.02  -0.46
    17   1    -0.03   0.02  -0.39    -0.11  -0.28   0.01     0.02  -0.01   0.31
    18   1     0.05  -0.02   0.66    -0.02  -0.09  -0.01    -0.01   0.00  -0.12
    19   7     0.00   0.00   0.01    -0.15   0.28   0.02     0.00  -0.00   0.01
    20   7     0.00   0.00  -0.00     0.32  -0.00  -0.02    -0.00   0.00  -0.01
    21  75     0.00  -0.00  -0.00     0.00   0.00  -0.00    -0.00  -0.00   0.00
    22   6    -0.00  -0.00   0.00    -0.00  -0.00   0.00    -0.00  -0.00  -0.00
    23   6    -0.00   0.00   0.00    -0.00  -0.00  -0.00     0.00  -0.00  -0.00
    24   6     0.00   0.00   0.00     0.00  -0.00   0.00    -0.00   0.00   0.00
    25   8     0.00   0.00  -0.00     0.00   0.00   0.00     0.00   0.00   0.00
    26   8     0.00  -0.00  -0.00    -0.01  -0.00   0.00     0.00   0.00   0.00
    27   8    -0.00   0.00  -0.00     0.00  -0.01  -0.00     0.00   0.00  -0.00
    28  17    -0.00   0.00  -0.00    -0.00  -0.00  -0.00     0.00   0.00  -0.00
                     46                     47                     48
                      A                      A                      A
 Frequencies --   1032.5181              1062.9774              1090.7081
 Red. masses --      1.3385                 5.4986                 2.2058
 Frc consts  --      0.8407                 3.6606                 1.5461
 IR Inten    --      0.2024                 4.3016                 0.8516
  Atom  AN      X      Y      Z        X      Y      Z        X      Y      Z
     1   6     0.00  -0.00   0.00    -0.11  -0.20  -0.00    -0.01  -0.01   0.00
     2   6     0.00  -0.00   0.04    -0.03  -0.01   0.00    -0.03  -0.04  -0.00
     3   6    -0.01   0.00  -0.08     0.26  -0.02  -0.02     0.13  -0.06  -0.01
     4   6     0.00  -0.00   0.05     0.02   0.05   0.00     0.03   0.12   0.00
     5   6    -0.00   0.00  -0.01    -0.17   0.21   0.02    -0.11   0.06   0.01
     6   6     0.00  -0.00   0.01    -0.13  -0.19   0.00     0.01   0.02  -0.00
     7   6     0.00  -0.00   0.05     0.01  -0.03  -0.00     0.02   0.04   0.00
     8   6    -0.01   0.00  -0.10    -0.14   0.22   0.02     0.10  -0.08  -0.01
     9   6     0.01  -0.00   0.07     0.04   0.04  -0.00    -0.08  -0.07   0.00
    10   6    -0.00   0.00  -0.02     0.27  -0.05  -0.02    -0.11   0.06   0.01
    11   1    -0.02   0.01  -0.25    -0.14  -0.09   0.01    -0.26  -0.18   0.01
    12   1     0.03  -0.03   0.46     0.29  -0.15  -0.03     0.15  -0.40  -0.04
    13   1    -0.02   0.02  -0.30     0.06   0.05  -0.00    -0.06   0.17   0.01
    14   1     0.01  -0.01   0.11    -0.38   0.09   0.03    -0.39  -0.13   0.01
    15   1    -0.02   0.02  -0.31    -0.02  -0.17  -0.01     0.03   0.25   0.01
    16   1     0.05  -0.03   0.58    -0.27   0.18   0.03     0.41   0.05  -0.03
    17   1    -0.03   0.01  -0.37     0.01   0.08   0.00    -0.14  -0.05   0.01
    18   1     0.01  -0.00   0.14     0.26  -0.30  -0.03    -0.08   0.38   0.02
    19   7    -0.00   0.00  -0.01    -0.04   0.02   0.00     0.05   0.01  -0.00
    20   7     0.00   0.00  -0.01     0.04  -0.02  -0.00     0.02  -0.05  -0.00
    21  75    -0.00   0.00   0.00    -0.00  -0.00  -0.00    -0.00   0.00   0.00
    22   6    -0.00   0.00  -0.00    -0.00  -0.00   0.00    -0.00   0.00   0.00
    23   6    -0.00   0.00  -0.00    -0.00   0.00   0.00     0.00  -0.01   0.00
    24   6    -0.00  -0.00  -0.00     0.00   0.00  -0.00     0.01   0.00   0.00
    25   8     0.00  -0.00   0.00     0.00   0.00  -0.00     0.00  -0.00  -0.00
    26   8     0.00  -0.00   0.00     0.00   0.00  -0.00    -0.00   0.00  -0.00
    27   8     0.00  -0.00   0.00    -0.00   0.00   0.00    -0.00  -0.00  -0.00
    28  17     0.00  -0.00   0.00     0.00   0.00   0.00    -0.00  -0.00   0.00
                     49                     50                     51
                      A                      A                      A
 Frequencies --   1095.1174              1122.9409              1143.7211
 Red. masses --      1.6922                 1.6982                 1.5750
 Frc consts  --      1.1957                 1.2617                 1.2139
 IR Inten    --      9.0946                 6.4194                 0.9677
  Atom  AN      X      Y      Z        X      Y      Z        X      Y      Z
     1   6    -0.04  -0.10  -0.00     0.05  -0.04  -0.01    -0.05  -0.06   0.00
     2   6     0.02   0.05   0.00    -0.02   0.11   0.01    -0.01  -0.07  -0.00
     3   6    -0.02   0.03   0.00    -0.03  -0.01   0.00     0.03   0.05   0.00
     4   6     0.00  -0.09  -0.01     0.04  -0.05  -0.01    -0.04  -0.02   0.00
     5   6     0.01   0.05   0.00    -0.06   0.06   0.01     0.06  -0.01  -0.00
     6   6    -0.07  -0.08   0.00     0.06  -0.02  -0.01    -0.02  -0.07  -0.00
     7   6     0.03   0.05  -0.00    -0.11  -0.03   0.01    -0.06  -0.05   0.00
     8   6     0.05  -0.02  -0.00    -0.01   0.03   0.00     0.03   0.05  -0.00
     9   6    -0.09  -0.05   0.01     0.07  -0.01  -0.01     0.00  -0.05  -0.00
    10   6     0.03   0.04  -0.00    -0.08   0.02   0.01    -0.04   0.05   0.01
    11   1     0.40   0.29  -0.01     0.08   0.18   0.00    -0.13  -0.15   0.00
    12   1    -0.04   0.18   0.01    -0.03  -0.14  -0.01     0.02   0.42   0.02
    13   1     0.26  -0.22  -0.03     0.56  -0.30  -0.05    -0.38   0.14   0.03
    14   1     0.16   0.16   0.00    -0.15   0.00   0.01     0.24   0.12  -0.01
    15   1     0.07   0.51   0.02    -0.12  -0.17   0.00    -0.08  -0.20  -0.00
    16   1     0.21   0.06  -0.01     0.10   0.09  -0.01     0.37   0.22  -0.02
    17   1    -0.31   0.11   0.03     0.51  -0.34  -0.06     0.32  -0.29  -0.04
    18   1     0.06   0.26   0.00    -0.07   0.11   0.01    -0.01   0.28   0.01
    19   7     0.04  -0.02  -0.00     0.04   0.02  -0.00     0.05   0.05  -0.00
    20   7    -0.03   0.02   0.00     0.01  -0.05  -0.00     0.02   0.06   0.00
    21  75    -0.00  -0.00   0.00    -0.00   0.00   0.00    -0.00  -0.00   0.00
    22   6     0.00   0.00   0.00     0.00  -0.00   0.00     0.00   0.00   0.00
    23   6     0.00   0.00   0.00     0.00  -0.00  -0.00    -0.00   0.00   0.00
    24   6     0.00   0.00  -0.00     0.00   0.00  -0.00     0.00   0.00  -0.00
    25   8    -0.00  -0.00  -0.00    -0.00   0.00   0.00    -0.00  -0.00   0.00
    26   8     0.00  -0.00  -0.00    -0.00   0.00   0.00    -0.00  -0.00  -0.00
    27   8    -0.00   0.00   0.00    -0.00   0.00  -0.00    -0.00  -0.00   0.00
    28  17     0.00   0.00  -0.00     0.00  -0.00  -0.00     0.00   0.00  -0.00
                     52                     53                     54
                      A                      A                      A
 Frequencies --   1172.3168              1187.9530              1299.9569
 Red. masses --      1.0886                 1.1223                 1.4935
 Frc consts  --      0.8815                 0.9331                 1.4870
 IR Inten    --      7.4505                 5.5273                 0.1780
  Atom  AN      X      Y      Z        X      Y      Z        X      Y      Z
     1   6     0.00   0.01   0.00    -0.02   0.01   0.00    -0.11   0.07   0.01
     2   6    -0.02  -0.01   0.00    -0.02  -0.04  -0.00     0.04  -0.01  -0.00
     3   6    -0.00   0.04   0.00     0.02   0.03   0.00     0.02  -0.03  -0.00
     4   6     0.03  -0.00  -0.00     0.02   0.01  -0.00    -0.00   0.00   0.00
     5   6    -0.01  -0.02   0.00    -0.01  -0.02  -0.00     0.01  -0.04  -0.00
     6   6     0.00   0.01   0.00    -0.02   0.01   0.00    -0.11   0.07   0.01
     7   6     0.00  -0.02  -0.00     0.02   0.04  -0.00     0.03  -0.03  -0.00
     8   6     0.03   0.01  -0.00    -0.02  -0.03   0.00     0.03  -0.00  -0.00
     9   6    -0.02   0.02   0.00     0.00  -0.03  -0.00     0.00  -0.00  -0.00
    10   6    -0.01  -0.02  -0.00     0.01   0.01  -0.00     0.04   0.01  -0.00
    11   1    -0.29  -0.18   0.01    -0.28  -0.20   0.01     0.41   0.21  -0.02
    12   1    -0.01   0.45   0.03     0.01   0.48   0.03     0.02   0.05   0.00
    13   1     0.40  -0.18  -0.04     0.25  -0.10  -0.02     0.08  -0.04  -0.01
    14   1    -0.13  -0.10   0.00    -0.13  -0.11   0.00    -0.37  -0.32   0.01
    15   1    -0.02  -0.30  -0.01     0.05   0.37   0.01     0.00  -0.47  -0.02
    16   1     0.36   0.17  -0.02    -0.46  -0.25   0.03    -0.04  -0.04   0.00
    17   1    -0.33   0.26   0.04     0.24  -0.20  -0.03     0.07  -0.05  -0.01
    18   1    -0.02  -0.15  -0.00     0.04   0.18   0.00     0.12   0.50   0.01
    19   7    -0.02  -0.01   0.00     0.02   0.00  -0.00    -0.01  -0.03  -0.00
    20   7     0.00  -0.02  -0.00     0.01  -0.01  -0.00     0.02   0.02  -0.00
    21  75     0.00   0.00  -0.00     0.00  -0.00  -0.00     0.00  -0.00  -0.00
    22   6    -0.00  -0.00  -0.00    -0.00   0.00   0.00    -0.00   0.00   0.00
    23   6    -0.00  -0.00  -0.00     0.00  -0.00  -0.00     0.00  -0.00  -0.00
    24   6    -0.00  -0.00   0.00     0.00   0.00  -0.00     0.00   0.00  -0.00
    25   8     0.00   0.00  -0.00     0.00  -0.00  -0.00     0.00  -0.00  -0.00
    26   8     0.00   0.00   0.00    -0.00   0.00   0.00     0.00   0.00   0.00
    27   8     0.00   0.00  -0.00    -0.00   0.00  -0.00     0.00  -0.00   0.00
    28  17    -0.00  -0.00   0.00    -0.00   0.00   0.00    -0.00   0.00   0.00
                     55                     56                     57
                      A                      A                      A
 Frequencies --   1305.6186              1323.2602              1337.0297
 Red. masses --      3.3811                 6.5354                 1.9058
 Frc consts  --      3.3958                 6.7424                 2.0073
 IR Inten    --     25.6198                 1.4132                35.3625
  Atom  AN      X      Y      Z        X      Y      Z        X      Y      Z
     1   6     0.05  -0.04  -0.00    -0.03   0.27   0.02     0.17  -0.02  -0.01
     2   6    -0.08  -0.08   0.00     0.16   0.12  -0.01    -0.00   0.01   0.00
     3   6     0.01   0.08   0.00    -0.06  -0.14  -0.00    -0.04   0.09   0.01
     4   6     0.10  -0.05  -0.01    -0.14   0.07   0.01     0.03  -0.02  -0.00
     5   6    -0.10  -0.13  -0.00     0.16   0.08  -0.01    -0.07  -0.06   0.00
     6   6    -0.07   0.04   0.01    -0.26  -0.10   0.01    -0.13   0.00   0.01
     7   6    -0.03  -0.11  -0.00    -0.03  -0.19  -0.01     0.02  -0.03  -0.00
     8   6     0.07   0.05  -0.00     0.10   0.12  -0.00     0.05   0.03  -0.00
     9   6    -0.09   0.06   0.01    -0.12   0.09   0.01    -0.01   0.00   0.00
    10   6    -0.06  -0.15  -0.00     0.00  -0.18  -0.01     0.05  -0.03  -0.00
    11   1     0.32   0.17  -0.01    -0.39  -0.21   0.02    -0.38  -0.21   0.01
    12   1     0.02  -0.07  -0.01    -0.07  -0.10  -0.00    -0.03  -0.41  -0.02
    13   1    -0.05   0.02   0.00     0.12  -0.06  -0.01     0.11  -0.06  -0.01
    14   1    -0.42  -0.35   0.01     0.14   0.04  -0.01     0.29   0.21  -0.01
    15   1    -0.00   0.31   0.02     0.01   0.45   0.02     0.01  -0.21  -0.01
    16   1    -0.08  -0.02   0.01     0.05   0.10  -0.00    -0.14  -0.06   0.01
    17   1     0.04  -0.04  -0.01     0.12  -0.08  -0.01    -0.04   0.03   0.00
    18   1    -0.11  -0.49  -0.01     0.02  -0.14  -0.01     0.14   0.57   0.01
    19   7     0.16   0.10  -0.01     0.22   0.07  -0.01    -0.03  -0.02   0.00
    20   7     0.02   0.20   0.01     0.04  -0.22  -0.01    -0.03   0.05   0.00
    21  75     0.00  -0.00  -0.00    -0.00   0.00   0.00     0.00  -0.00  -0.00
    22   6     0.00   0.00  -0.00     0.00  -0.00   0.00    -0.00   0.00  -0.00
    23   6    -0.00   0.01  -0.00    -0.00  -0.01  -0.00     0.00  -0.00   0.00
    24   6     0.01   0.00   0.00     0.00   0.00  -0.00    -0.00   0.00  -0.00
    25   8    -0.00  -0.00  -0.00    -0.00   0.00   0.00     0.00  -0.00  -0.00
    26   8     0.00  -0.00   0.00    -0.00   0.00   0.00     0.00  -0.00  -0.00
    27   8    -0.00  -0.00  -0.00    -0.00   0.00   0.00     0.00  -0.00   0.00
    28  17    -0.00  -0.00   0.00     0.00  -0.00  -0.01    -0.00   0.00   0.00
                     58                     59                     60
                      A                      A                      A
 Frequencies --   1338.1038              1436.8872              1473.9116
 Red. masses --      2.7014                 1.8591                 2.5571
 Frc consts  --      2.8498                 2.2615                 3.2729
 IR Inten    --      8.6080                10.8973               100.9039
  Atom  AN      X      Y      Z        X      Y      Z        X      Y      Z
     1   6    -0.07  -0.16  -0.00     0.09  -0.02  -0.01     0.11   0.02  -0.01
     2   6    -0.05  -0.00   0.00    -0.03   0.06   0.01    -0.10   0.02   0.01
     3   6     0.05   0.01  -0.00    -0.04  -0.07  -0.00    -0.03  -0.07  -0.00
     4   6    -0.01   0.00   0.00     0.07  -0.06  -0.01     0.15  -0.03  -0.01
     5   6    -0.00   0.10   0.01     0.06   0.09   0.00    -0.06   0.07   0.01
     6   6    -0.02   0.22   0.01     0.06  -0.07  -0.01    -0.04   0.11   0.01
     7   6    -0.00   0.03   0.00    -0.06   0.00   0.01     0.06  -0.08  -0.01
     8   6     0.10  -0.03  -0.01     0.04   0.07   0.00    -0.05  -0.06   0.00
     9   6    -0.03   0.02   0.00     0.08  -0.03  -0.01    -0.10   0.12   0.01
    10   6    -0.08  -0.11   0.00    -0.05  -0.09  -0.00     0.09  -0.02  -0.01
    11   1     0.08   0.07  -0.00    -0.07   0.04   0.01     0.11   0.16   0.00
    12   1     0.05   0.17   0.01    -0.07   0.26   0.02    -0.05   0.42   0.03
    13   1    -0.05   0.02   0.00    -0.41   0.16   0.04    -0.36   0.23   0.04
    14   1     0.39   0.40  -0.00    -0.38  -0.23   0.01     0.00   0.13   0.01
    15   1    -0.03  -0.46  -0.02    -0.07   0.05   0.01     0.09   0.17   0.00
    16   1    -0.40  -0.28   0.02    -0.25  -0.06   0.02     0.40   0.15  -0.03
    17   1    -0.12   0.09   0.01    -0.33   0.28   0.04     0.38  -0.22  -0.04
    18   1    -0.06  -0.01   0.00     0.03   0.43   0.01     0.12   0.05  -0.01
    19   7     0.11   0.02  -0.01     0.01  -0.02   0.00    -0.06  -0.06   0.00
    20   7     0.02  -0.10  -0.01     0.03   0.00   0.00    -0.02  -0.09  -0.00
    21  75    -0.00   0.00   0.00    -0.01   0.00   0.00     0.00   0.00  -0.00
    22   6     0.00  -0.00   0.00     0.00  -0.00   0.01    -0.00  -0.00  -0.00
    23   6     0.00  -0.00  -0.00    -0.00  -0.00  -0.00    -0.00  -0.00  -0.00
    24   6    -0.00   0.00  -0.00     0.00   0.00  -0.00    -0.00  -0.00   0.00
    25   8    -0.00   0.00   0.00    -0.00   0.00   0.00     0.00  -0.00  -0.00
    26   8    -0.00  -0.00  -0.00    -0.00  -0.00  -0.00     0.00   0.00   0.00
    27   8    -0.00   0.00   0.00    -0.00   0.00  -0.00     0.00   0.00  -0.00
    28  17     0.00  -0.00  -0.00     0.00  -0.00  -0.02     0.00   0.00   0.00
                     61                     62                     63
                      A                      A                      A
 Frequencies --   1498.9912              1518.1722              1601.3888
 Red. masses --      2.2361                 3.0632                 7.1934
 Frc consts  --      2.9603                 4.1598                10.8688
 IR Inten    --     81.8311                 8.7304                 9.8196
  Atom  AN      X      Y      Z        X      Y      Z        X      Y      Z
     1   6    -0.05   0.10   0.01     0.07   0.17   0.00    -0.02   0.15   0.01
     2   6    -0.09  -0.09   0.00    -0.08  -0.03   0.00    -0.07  -0.16  -0.00
     3   6     0.07   0.00  -0.00    -0.00  -0.07  -0.00    -0.02   0.32   0.02
     4   6    -0.03   0.07   0.01     0.13   0.03  -0.01     0.08  -0.18  -0.02
     5   6    -0.09  -0.07   0.00    -0.14  -0.04   0.01     0.02   0.11   0.00
     6   6     0.11   0.00  -0.01    -0.12  -0.15   0.00    -0.14  -0.05   0.01
     7   6    -0.04  -0.11  -0.00    -0.01   0.09   0.01     0.11   0.14  -0.00
     8   6    -0.03   0.06   0.01     0.06   0.04  -0.00    -0.29  -0.13   0.02
     9   6     0.07   0.01  -0.01     0.03  -0.13  -0.01     0.19   0.01  -0.02
    10   6    -0.02  -0.11  -0.00    -0.03   0.14   0.01    -0.08  -0.07   0.00
    11   1     0.33   0.16  -0.01     0.31   0.23  -0.01     0.11  -0.07  -0.01
    12   1     0.08   0.08  -0.00    -0.01   0.31   0.02     0.01  -0.42  -0.02
    13   1     0.24  -0.04  -0.02    -0.08   0.15   0.01    -0.18  -0.07   0.01
    14   1     0.40   0.28  -0.01     0.25   0.26  -0.00    -0.08   0.03   0.01
    15   1    -0.01   0.36   0.02    -0.06  -0.39  -0.01     0.11  -0.06  -0.01
    16   1     0.03   0.11   0.00    -0.29  -0.14   0.02     0.37   0.19  -0.02
    17   1    -0.15   0.19   0.02    -0.17   0.00   0.01    -0.02   0.19   0.01
    18   1     0.06   0.48   0.01    -0.11  -0.34  -0.00    -0.06   0.06   0.01
    19   7    -0.06   0.04   0.01     0.05   0.06  -0.00     0.21  -0.11  -0.01
    20   7     0.06  -0.04  -0.01    -0.03  -0.07  -0.00     0.20  -0.13  -0.01
    21  75     0.00   0.00  -0.00     0.01  -0.00  -0.00    -0.02   0.01   0.01
    22   6    -0.00  -0.00  -0.00    -0.00   0.00  -0.01    -0.00   0.00   0.02
    23   6     0.00  -0.00  -0.00     0.01  -0.00   0.00    -0.01  -0.01  -0.00
    24   6    -0.00   0.00   0.00     0.00  -0.00   0.00     0.00   0.01  -0.00
    25   8     0.00   0.00  -0.00     0.00  -0.00  -0.00    -0.00   0.00   0.01
    26   8    -0.00  -0.00  -0.00     0.00   0.00   0.00    -0.01  -0.00  -0.00
    27   8     0.00  -0.00   0.00     0.00  -0.00   0.00    -0.00   0.01  -0.00
    28  17    -0.00  -0.00   0.00    -0.00   0.00   0.01     0.00  -0.00  -0.04
                     64                     65                     66
                      A                      A                      A
 Frequencies --   1625.6833              1635.9113              1659.1964
 Red. masses --      6.5007                 5.6296                 6.4437
 Frc consts  --     10.1224                 8.8765                10.4515
 IR Inten    --     19.8528                28.8592                24.1071
  Atom  AN      X      Y      Z        X      Y      Z        X      Y      Z
     1   6    -0.12   0.14   0.02     0.20   0.04  -0.01    -0.22   0.02   0.02
     2   6    -0.00  -0.15  -0.01    -0.22  -0.08   0.01     0.23   0.10  -0.01
     3   6    -0.04   0.31   0.02     0.13  -0.04  -0.01    -0.11  -0.06   0.00
     4   6     0.12  -0.18  -0.02    -0.23   0.08   0.02     0.20  -0.02  -0.02
     5   6     0.03   0.13   0.01     0.14  -0.00  -0.01    -0.22  -0.10   0.01
     6   6     0.18  -0.04  -0.02     0.06  -0.20  -0.01     0.12  -0.19  -0.02
     7   6    -0.13  -0.08   0.01    -0.04   0.23   0.01    -0.02   0.26   0.01
     8   6     0.30   0.11  -0.02     0.10  -0.09  -0.01     0.00  -0.13  -0.01
     9   6    -0.21   0.02   0.02    -0.18   0.16   0.02    -0.12   0.18   0.02
    10   6     0.10   0.09  -0.00     0.07  -0.11  -0.01     0.02  -0.24  -0.01
    11   1     0.09  -0.11  -0.01     0.31   0.26  -0.01    -0.21  -0.19   0.01
    12   1    -0.02  -0.40  -0.02     0.15   0.06  -0.01    -0.13   0.05   0.01
    13   1    -0.20  -0.05   0.01     0.26  -0.16  -0.03    -0.16   0.17   0.02
    14   1    -0.16  -0.01   0.01     0.02  -0.11  -0.01     0.20   0.22  -0.00
    15   1    -0.14   0.04   0.01    -0.09  -0.39  -0.01    -0.07  -0.29  -0.01
    16   1    -0.35  -0.20   0.02     0.01  -0.16  -0.01     0.11  -0.10  -0.01
    17   1     0.05  -0.20  -0.01     0.26  -0.17  -0.03     0.23  -0.07  -0.02
    18   1     0.07  -0.15  -0.01     0.11   0.02  -0.01     0.11   0.29   0.00
    19   7    -0.15  -0.06   0.01     0.01  -0.11  -0.00    -0.01   0.11   0.00
    20   7     0.01  -0.16  -0.01     0.10   0.04  -0.00     0.09   0.04  -0.00
    21  75     0.00   0.00  -0.00    -0.01   0.01   0.01     0.00   0.00  -0.00
    22   6    -0.00  -0.00  -0.00     0.00  -0.00   0.02    -0.00  -0.00  -0.00
    23   6    -0.00  -0.00  -0.00    -0.01  -0.00  -0.00     0.00   0.00  -0.00
    24   6    -0.00  -0.00   0.00    -0.00   0.01  -0.00     0.00   0.00   0.00
    25   8     0.00   0.00  -0.00    -0.00   0.00   0.00     0.00   0.00  -0.00
    26   8     0.00   0.00   0.00    -0.01  -0.00   0.00    -0.00  -0.00  -0.00
    27   8     0.00   0.00  -0.00    -0.00   0.01  -0.00     0.00  -0.00   0.00
    28  17    -0.00  -0.00   0.00     0.00  -0.00  -0.03    -0.00  -0.00   0.00
                     67                     68                     69
                      A                      A                      A
 Frequencies --   1689.7609              1944.0483              1953.4739
 Red. masses --      8.5360                13.3398                13.3231
 Frc consts  --     14.3600                29.7039                29.9551
 IR Inten    --     49.9774              2109.0341              2128.5993
  Atom  AN      X      Y      Z        X      Y      Z        X      Y      Z
     1   6     0.04   0.04  -0.00    -0.00  -0.00   0.00     0.00  -0.00  -0.00
     2   6    -0.08  -0.11  -0.00     0.00   0.00   0.00    -0.00  -0.00   0.00
     3   6     0.03   0.12   0.00    -0.00  -0.00  -0.00     0.00   0.00   0.00
     4   6    -0.04  -0.04   0.00     0.00   0.00   0.00     0.00  -0.00  -0.00
     5   6     0.15   0.12  -0.00    -0.00  -0.00   0.00     0.00   0.01   0.00
     6   6    -0.02  -0.05  -0.00    -0.00   0.00   0.00    -0.00   0.00   0.00
     7   6     0.06   0.11   0.00     0.00  -0.00   0.00     0.00  -0.00  -0.00
     8   6    -0.10  -0.08   0.00     0.00   0.00  -0.00     0.00   0.00  -0.00
     9   6     0.02   0.05   0.00    -0.00  -0.00   0.00    -0.00  -0.00   0.00
    10   6    -0.04  -0.18  -0.01     0.00   0.00   0.00     0.00   0.00  -0.00
    11   1     0.17   0.04  -0.01    -0.00  -0.00   0.00    -0.00  -0.00   0.00
    12   1     0.04  -0.15  -0.01    -0.00   0.00  -0.00     0.00  -0.00  -0.00
    13   1     0.02  -0.08  -0.01     0.00   0.00  -0.00    -0.01  -0.00   0.00
    14   1    -0.33  -0.23   0.01     0.00   0.01   0.00    -0.02  -0.01  -0.00
    15   1     0.04  -0.16  -0.01     0.00   0.00   0.00     0.00  -0.00  -0.00
    16   1     0.15   0.03  -0.01    -0.00   0.00  -0.00    -0.00  -0.00   0.00
    17   1     0.08   0.02  -0.01    -0.00  -0.00  -0.00     0.00  -0.00  -0.00
    18   1     0.04   0.39   0.01    -0.00  -0.01   0.00    -0.00  -0.03   0.00
    19   7    -0.10   0.43   0.01    -0.01   0.01  -0.00     0.00  -0.01   0.00
    20   7    -0.43  -0.12   0.01    -0.01   0.00  -0.00    -0.01  -0.00  -0.00
    21  75     0.03  -0.02  -0.01     0.00  -0.00  -0.00    -0.00  -0.00   0.00
    22   6     0.00  -0.00  -0.04    -0.02   0.01   0.68    -0.00  -0.00  -0.00
    23   6     0.03   0.01   0.00     0.31   0.08   0.01     0.56   0.15   0.02
    24   6     0.01  -0.03   0.00     0.07  -0.31   0.01    -0.13   0.56  -0.02
    25   8     0.00  -0.00  -0.01     0.01  -0.01  -0.48     0.00   0.00   0.00
    26   8     0.02   0.00   0.00    -0.22  -0.06  -0.01    -0.39  -0.11  -0.02
    27   8     0.01  -0.02   0.00    -0.05   0.22  -0.01     0.09  -0.40   0.02
    28  17    -0.01   0.01   0.09    -0.00   0.00   0.00    -0.00  -0.00  -0.00
                     70                     71                     72
                      A                      A                      A
 Frequencies --   2071.5154              3209.3345              3210.2567
 Red. masses --     13.2813                 1.0887                 1.0888
 Frc consts  --     33.5789                 6.6066                 6.6110
 IR Inten    --   1270.4860                 5.8861                 3.5063
  Atom  AN      X      Y      Z        X      Y      Z        X      Y      Z
     1   6    -0.00   0.00   0.00    -0.00   0.00   0.00    -0.00   0.00   0.00
     2   6    -0.00  -0.00  -0.00     0.01  -0.01  -0.00     0.01  -0.01  -0.00
     3   6    -0.00   0.00   0.00    -0.03  -0.00   0.00    -0.06  -0.00   0.00
     4   6     0.00  -0.00  -0.00     0.01   0.01   0.00     0.02   0.03   0.00
     5   6    -0.00   0.00   0.00     0.01  -0.01  -0.00     0.01  -0.02  -0.00
     6   6    -0.00   0.00   0.00     0.00  -0.00  -0.00    -0.00  -0.00   0.00
     7   6     0.00   0.00  -0.00    -0.02   0.00   0.00     0.00  -0.00  -0.00
     8   6    -0.00   0.00   0.00     0.03  -0.06  -0.00    -0.01   0.03   0.00
     9   6     0.00  -0.00  -0.00     0.02   0.03  -0.00    -0.01  -0.02   0.00
    10   6    -0.00   0.00   0.00    -0.02   0.00   0.00     0.01  -0.00  -0.00
    11   1     0.00  -0.00  -0.00    -0.07   0.12   0.01    -0.09   0.14   0.01
    12   1    -0.00  -0.00   0.00     0.39   0.01  -0.03     0.73   0.03  -0.05
    13   1    -0.00   0.00   0.00    -0.09  -0.18  -0.00    -0.18  -0.36  -0.01
    14   1    -0.00   0.00  -0.00    -0.06   0.09   0.01    -0.14   0.19   0.02
    15   1     0.00   0.00  -0.00     0.19  -0.01  -0.02    -0.05   0.00   0.00
    16   1     0.00   0.00   0.00    -0.32   0.67   0.06     0.17  -0.36  -0.03
    17   1    -0.00   0.00   0.00    -0.22  -0.30   0.01     0.13   0.17  -0.00
    18   1    -0.00  -0.00  -0.00     0.19  -0.03  -0.02    -0.12   0.02   0.01
    19   7    -0.01   0.02  -0.00     0.00  -0.00  -0.00     0.00  -0.00  -0.00
    20   7    -0.02  -0.00  -0.00    -0.00   0.00   0.00     0.00   0.00  -0.00
    21  75     0.01  -0.00  -0.00     0.00   0.00  -0.00     0.00   0.00   0.00
    22   6    -0.01   0.01   0.45    -0.00  -0.00  -0.00     0.00  -0.00  -0.00
    23   6    -0.47  -0.13  -0.02     0.00   0.00  -0.00    -0.00  -0.00  -0.00
    24   6    -0.11   0.47  -0.02     0.00  -0.00   0.00     0.00   0.00  -0.00
    25   8     0.01  -0.00  -0.31    -0.00   0.00  -0.00    -0.00  -0.00   0.00
    26   8     0.32   0.09   0.01    -0.00  -0.00   0.00     0.00   0.00   0.00
    27   8     0.07  -0.32   0.02    -0.00   0.00  -0.00    -0.00  -0.00   0.00
    28  17    -0.00   0.00   0.01     0.00   0.00   0.00     0.00  -0.00  -0.00
                     73                     74                     75
                      A                      A                      A
 Frequencies --   3219.0915              3219.4542              3231.4871
 Red. masses --      1.0915                 1.0920                 1.0960
 Frc consts  --      6.6641                 6.6688                 6.7430
 IR Inten    --      0.7564                 1.4419                11.7446
  Atom  AN      X      Y      Z        X      Y      Z        X      Y      Z
     1   6    -0.00   0.00   0.00     0.00  -0.00  -0.00    -0.00   0.00   0.00
     2   6    -0.01   0.01   0.00     0.00  -0.00  -0.00     0.02  -0.03  -0.00
     3   6     0.03  -0.00  -0.00    -0.02  -0.00   0.00    -0.00   0.00   0.00
     4   6     0.01   0.03   0.00    -0.01  -0.02  -0.00    -0.02  -0.04  -0.00
     5   6     0.03  -0.05  -0.00    -0.02   0.03   0.00     0.02  -0.03  -0.00
     6   6     0.00   0.00  -0.00     0.00   0.00  -0.00     0.00  -0.00  -0.00
     7   6     0.01  -0.00  -0.00     0.01  -0.00  -0.00    -0.03   0.00   0.00
     8   6    -0.01   0.01   0.00    -0.01   0.03   0.00     0.00   0.00  -0.00
     9   6     0.01   0.02  -0.00     0.02   0.02  -0.00    -0.02  -0.03   0.00
    10   6    -0.04   0.00   0.00    -0.06   0.01   0.01    -0.03   0.01   0.00
    11   1     0.07  -0.12  -0.01    -0.02   0.03   0.00    -0.24   0.39   0.04
    12   1    -0.35  -0.01   0.02     0.25   0.01  -0.02     0.02  -0.00  -0.00
    13   1    -0.15  -0.31  -0.01     0.08   0.18   0.00     0.22   0.45   0.01
    14   1    -0.39   0.54   0.06     0.25  -0.34  -0.04    -0.22   0.30   0.03
    15   1    -0.10   0.01   0.01    -0.07   0.01   0.01     0.39  -0.03  -0.03
    16   1     0.08  -0.17  -0.01     0.15  -0.32  -0.03    -0.00  -0.00   0.00
    17   1    -0.14  -0.19   0.00    -0.21  -0.28   0.01     0.23   0.31  -0.01
    18   1     0.41  -0.06  -0.04     0.67  -0.09  -0.06     0.29  -0.04  -0.03
    19   7     0.00   0.00  -0.00     0.00   0.00   0.00     0.00   0.00  -0.00
    20   7     0.00   0.00  -0.00    -0.00  -0.00   0.00     0.00   0.00   0.00
    21  75     0.00   0.00   0.00     0.00  -0.00  -0.00     0.00   0.00   0.00
    22   6    -0.00  -0.00  -0.00    -0.00  -0.00   0.00    -0.00  -0.00  -0.00
    23   6    -0.00   0.00  -0.00     0.00   0.00   0.00    -0.00   0.00  -0.00
    24   6     0.00   0.00   0.00    -0.00  -0.00   0.00     0.00   0.00   0.00
    25   8     0.00   0.00   0.00     0.00   0.00  -0.00    -0.00   0.00   0.00
    26   8    -0.00  -0.00   0.00    -0.00  -0.00  -0.00    -0.00  -0.00   0.00
    27   8    -0.00  -0.00  -0.00     0.00   0.00  -0.00    -0.00  -0.00  -0.00
    28  17     0.00  -0.00  -0.00    -0.00   0.00   0.00     0.00  -0.00  -0.00
                     76                     77                     78
                      A                      A                      A
 Frequencies --   3233.0428              3235.6504              3247.9508
 Red. masses --      1.0988                 1.0991                 1.0924
 Frc consts  --      6.7666                 6.7795                 6.7899
 IR Inten    --      0.2168                 3.5297                 2.8091
  Atom  AN      X      Y      Z        X      Y      Z        X      Y      Z
     1   6     0.00  -0.00  -0.00    -0.00  -0.00   0.00     0.00   0.00  -0.00
     2   6    -0.00   0.00   0.00     0.03  -0.04  -0.00    -0.03   0.05   0.00
     3   6     0.02  -0.00  -0.00     0.03   0.00  -0.00    -0.01  -0.00   0.00
     4   6     0.02   0.04   0.00     0.01   0.03   0.00    -0.00  -0.00  -0.00
     5   6    -0.02   0.02   0.00    -0.01   0.01   0.00     0.00  -0.00  -0.00
     6   6     0.00  -0.00  -0.00     0.00  -0.00  -0.00     0.00  -0.00  -0.00
     7   6    -0.01   0.00   0.00    -0.04   0.00   0.00    -0.06   0.00   0.01
     8   6     0.01  -0.01  -0.00    -0.01   0.02   0.00    -0.00   0.01   0.00
     9   6    -0.03  -0.05   0.00     0.02   0.02  -0.00     0.00   0.00  -0.00
    10   6    -0.04   0.01   0.00     0.02  -0.00  -0.00     0.00  -0.00  -0.00
    11   1     0.04  -0.06  -0.01    -0.29   0.47   0.05     0.33  -0.54  -0.05
    12   1    -0.16  -0.00   0.01    -0.29  -0.01   0.02     0.13   0.01  -0.01
    13   1    -0.22  -0.45  -0.01    -0.15  -0.32  -0.01     0.02   0.04   0.00
    14   1     0.20  -0.27  -0.03     0.12  -0.17  -0.02    -0.02   0.02   0.00
    15   1     0.12  -0.01  -0.01     0.48  -0.03  -0.04     0.73  -0.05  -0.06
    16   1    -0.08   0.16   0.01     0.10  -0.22  -0.02     0.06  -0.13  -0.01
    17   1     0.36   0.49  -0.01    -0.19  -0.25   0.00    -0.03  -0.04   0.00
    18   1     0.42  -0.06  -0.04    -0.19   0.03   0.02    -0.03   0.01   0.00
    19   7     0.00   0.00  -0.00     0.00  -0.00  -0.00     0.00  -0.00  -0.00
    20   7    -0.00  -0.00  -0.00    -0.00   0.00   0.00     0.00  -0.00  -0.00
    21  75     0.00  -0.00  -0.00    -0.00  -0.00  -0.00    -0.00   0.00   0.00
    22   6    -0.00   0.00   0.00     0.00   0.00   0.00     0.00  -0.00  -0.00
    23   6     0.00   0.00   0.00    -0.00  -0.00   0.00     0.00   0.00  -0.00
    24   6    -0.00  -0.00   0.00    -0.00  -0.00  -0.00     0.00  -0.00  -0.00
    25   8     0.00  -0.00  -0.00    -0.00  -0.00  -0.00    -0.00   0.00   0.00
    26   8     0.00  -0.00   0.00     0.00   0.00  -0.00    -0.00  -0.00  -0.00
    27   8     0.00  -0.00  -0.00     0.00   0.00   0.00    -0.00   0.00  -0.00
    28  17    -0.00   0.00   0.00     0.00   0.00   0.00     0.00  -0.00  -0.00

 -------------------
 - Thermochemistry -
 -------------------
 Temperature   298.150 Kelvin.  Pressure   1.00000 Atm.
 Atom     1 has atomic number  6 and mass  12.00000
 Atom     2 has atomic number  6 and mass  12.00000
 Atom     3 has atomic number  6 and mass  12.00000
 Atom     4 has atomic number  6 and mass  12.00000
 Atom     5 has atomic number  6 and mass  12.00000
 Atom     6 has atomic number  6 and mass  12.00000
 Atom     7 has atomic number  6 and mass  12.00000
 Atom     8 has atomic number  6 and mass  12.00000
 Atom     9 has atomic number  6 and mass  12.00000
 Atom    10 has atomic number  6 and mass  12.00000
 Atom    11 has atomic number  1 and mass   1.00783
 Atom    12 has atomic number  1 and mass   1.00783
 Atom    13 has atomic number  1 and mass   1.00783
 Atom    14 has atomic number  1 and mass   1.00783
 Atom    15 has atomic number  1 and mass   1.00783
 Atom    16 has atomic number  1 and mass   1.00783
 Atom    17 has atomic number  1 and mass   1.00783
 Atom    18 has atomic number  1 and mass   1.00783
 Atom    19 has atomic number  7 and mass  14.00307
 Atom    20 has atomic number  7 and mass  14.00307
 Atom    21 has atomic number 75 and mass 186.95600
 Atom    22 has atomic number  6 and mass  12.00000
 Atom    23 has atomic number  6 and mass  12.00000
 Atom    24 has atomic number  6 and mass  12.00000
 Atom    25 has atomic number  8 and mass  15.99491
 Atom    26 has atomic number  8 and mass  15.99491
 Atom    27 has atomic number  8 and mass  15.99491
 Atom    28 has atomic number 17 and mass  34.96885
 Molecular mass:   461.97834 amu.
 Principal axes and moments of inertia in atomic units:
                           1         2         3
     Eigenvalues --  5332.628506768.130539078.65124
           X            0.85485   0.51598   0.05476
           Y           -0.51462   0.85659  -0.03771
           Z           -0.06637   0.00406   0.99779
 This molecule is an asymmetric top.
 Rotational symmetry number  1.
 Warning -- assumption of classical behavior for rotation
           may cause significant error
 Rotational temperatures (Kelvin)      0.01624     0.01280     0.00954
 Rotational constants (GHZ):           0.33843     0.26665     0.19879
 Zero-point vibrational energy     498085.1 (Joules/Mol)
                                  119.04520 (Kcal/Mol)
 Warning -- explicit consideration of  28 degrees of freedom as
           vibrations may cause significant error
 Vibrational temperatures:     51.69    62.26    90.54   114.65   117.10
          (Kelvin)            126.82   134.28   136.56   143.50   159.89
                              200.36   210.32   256.07   332.39   369.97
                              459.98   616.96   619.92   653.58   655.64
                              715.36   723.08   734.66   742.96   751.55
                              763.13   764.87   812.41   909.49   913.40
                              923.85   950.82   953.09  1082.94  1091.21
                             1110.33  1117.55  1195.76  1236.31  1311.67
                             1313.78  1425.34  1427.63  1466.25  1481.43
                             1485.56  1529.39  1569.29  1575.63  1615.66
                             1645.56  1686.70  1709.20  1870.35  1878.49
                             1903.88  1923.69  1925.23  2067.36  2120.63
                             2156.71  2184.31  2304.04  2339.00  2353.71
                             2387.21  2431.19  2797.05  2810.61  2980.45
                             4617.52  4618.84  4631.55  4632.08  4649.39
                             4651.63  4655.38  4673.08
 
 Zero-point correction=                           0.189711 (Hartree/Particle)
 Thermal correction to Energy=                    0.208053
 Thermal correction to Enthalpy=                  0.208997
 Thermal correction to Gibbs Free Energy=         0.140545
 Sum of electronic and zero-point Energies=          -1374.878344
 Sum of electronic and thermal Energies=             -1374.860001
 Sum of electronic and thermal Enthalpies=           -1374.859057
 Sum of electronic and thermal Free Energies=        -1374.927509
 
                     E (Thermal)             CV                S
                      KCal/Mol        Cal/Mol-Kelvin    Cal/Mol-Kelvin
 Total                  130.555             66.135            144.069
 Electronic               0.000              0.000              0.000
 Translational            0.889              2.981             44.280
 Rotational               0.889              2.981             34.149
 Vibrational            128.778             60.173             65.641
 Vibration     1          0.594              1.982              5.472
 Vibration     2          0.595              1.980              5.103
 Vibration     3          0.597              1.972              4.363
 Vibration     4          0.600              1.963              3.899
 Vibration     5          0.600              1.962              3.857
 Vibration     6          0.601              1.958              3.701
 Vibration     7          0.602              1.954              3.589
 Vibration     8          0.603              1.953              3.556
 Vibration     9          0.604              1.949              3.459
 Vibration    10          0.607              1.940              3.249
 Vibration    11          0.615              1.914              2.814
 Vibration    12          0.617              1.907              2.721
 Vibration    13          0.628              1.869              2.350
 Vibration    14          0.653              1.794              1.871
 Vibration    15          0.667              1.751              1.681
 Vibration    16          0.706              1.636              1.312
 Vibration    17          0.790              1.408              0.863
 Vibration    18          0.792              1.403              0.856
 Vibration    19          0.813              1.351              0.783
 Vibration    20          0.814              1.348              0.779
 Vibration    21          0.853              1.256              0.665
 Vibration    22          0.858              1.244              0.652
 Vibration    23          0.866              1.226              0.632
 Vibration    24          0.871              1.214              0.618
 Vibration    25          0.877              1.200              0.605
 Vibration    26          0.885              1.183              0.586
 Vibration    27          0.887              1.180              0.584
 Vibration    28          0.920              1.108              0.515
                       Q            Log10(Q)             Ln(Q)
 Total Bot       0.225812D-64        -64.646254       -148.853500
 Total V=0       0.411611D+23         22.614487         52.071780
 Vib (Bot)       0.892891D-80        -80.049201       -184.320098
 Vib (Bot)    1  0.576054D+01          0.760463          1.751031
 Vib (Bot)    2  0.478015D+01          0.679441          1.564472
 Vib (Bot)    3  0.328055D+01          0.515947          1.188011
 Vib (Bot)    4  0.258460D+01          0.412393          0.949570
 Vib (Bot)    5  0.252990D+01          0.403104          0.928180
 Vib (Bot)    6  0.233335D+01          0.367981          0.847307
 Vib (Bot)    7  0.220174D+01          0.342766          0.789249
 Vib (Bot)    8  0.216429D+01          0.335316          0.772094
 Vib (Bot)    9  0.205778D+01          0.313399          0.721628
 Vib (Bot)   10  0.184252D+01          0.265413          0.611135
 Vib (Bot)   11  0.146040D+01          0.164472          0.378710
 Vib (Bot)   12  0.138862D+01          0.142582          0.328307
 Vib (Bot)   13  0.112929D+01          0.052806          0.121590
 Vib (Bot)   14  0.852155D+00         -0.069481         -0.159986
 Vib (Bot)   15  0.756397D+00         -0.121250         -0.279189
 Vib (Bot)   16  0.588091D+00         -0.230556         -0.530874
 Vib (Bot)   17  0.406710D+00         -0.390715         -0.899656
 Vib (Bot)   18  0.404114D+00         -0.393496         -0.906058
 Vib (Bot)   19  0.376200D+00         -0.424581         -0.977635
 Vib (Bot)   20  0.374577D+00         -0.426459         -0.981959
 Vib (Bot)   21  0.331375D+00         -0.479680         -1.104505
 Vib (Bot)   22  0.326281D+00         -0.486408         -1.119996
 Vib (Bot)   23  0.318831D+00         -0.496439         -1.143094
 Vib (Bot)   24  0.313620D+00         -0.503597         -1.159575
 Vib (Bot)   25  0.308344D+00         -0.510965         -1.176540
 Vib (Bot)   26  0.301413D+00         -0.520837         -1.199272
 Vib (Bot)   27  0.300384D+00         -0.522323         -1.202694
 Vib (Bot)   28  0.274004D+00         -0.562243         -1.294612
 Vib (V=0)       0.162757D+08          7.211539         16.605182
 Vib (V=0)    1  0.628220D+01          0.798112          1.837720
 Vib (V=0)    2  0.530623D+01          0.724786          1.668881
 Vib (V=0)    3  0.381843D+01          0.581885          1.339840
 Vib (V=0)    4  0.313252D+01          0.495893          1.141837
 Vib (V=0)    5  0.307884D+01          0.488387          1.124552
 Vib (V=0)    6  0.288632D+01          0.460345          1.059984
 Vib (V=0)    7  0.275780D+01          0.440563          1.014434
 Vib (V=0)    8  0.272130D+01          0.434776          1.001109
 Vib (V=0)    9  0.261766D+01          0.417912          0.962279
 Vib (V=0)   10  0.240916D+01          0.381865          0.879278
 Vib (V=0)   11  0.204362D+01          0.310401          0.714724
 Vib (V=0)   12  0.197589D+01          0.295763          0.681019
 Vib (V=0)   13  0.173503D+01          0.239307          0.551024
 Vib (V=0)   14  0.148801D+01          0.172607          0.397441
 Vib (V=0)   15  0.140672D+01          0.148207          0.341259
 Vib (V=0)   16  0.127191D+01          0.104458          0.240523
 Vib (V=0)   17  0.114453D+01          0.058625          0.134990
 Vib (V=0)   18  0.114289D+01          0.058005          0.133561
 Vib (V=0)   19  0.112572D+01          0.051431          0.118423
 Vib (V=0)   20  0.112475D+01          0.051054          0.117557
 Vib (V=0)   21  0.109984D+01          0.041330          0.095166
 Vib (V=0)   22  0.109704D+01          0.040223          0.092618
 Vib (V=0)   23  0.109300D+01          0.038622          0.088929
 Vib (V=0)   24  0.109022D+01          0.037513          0.086378
 Vib (V=0)   25  0.108743D+01          0.036402          0.083819
 Vib (V=0)   26  0.108382D+01          0.034959          0.080495
 Vib (V=0)   27  0.108329D+01          0.034746          0.080005
 Vib (V=0)   28  0.107016D+01          0.029447          0.067805
 Electronic      0.100000D+01          0.000000          0.000000
 Translational   0.390289D+09          8.591386         19.782398
 Rotational      0.647980D+07          6.811561         15.684199
 -------------------------------------------------------------------
 Center     Atomic                   Forces (Hartrees/Bohr)
 Number     Number              X              Y              Z
 -------------------------------------------------------------------
      1        6           0.000015296    0.000018369   -0.000003281
      2        6          -0.000001844   -0.000008224    0.000010193
      3        6          -0.000000803    0.000022411    0.000002120
      4        6           0.000014891   -0.000013800   -0.000000340
      5        6           0.000004211   -0.000005292   -0.000001149
      6        6          -0.000007107   -0.000026544    0.000001132
      7        6           0.000005239    0.000005755    0.000006373
      8        6          -0.000018855   -0.000010614    0.000006140
      9        6           0.000018812   -0.000006120    0.000004430
     10        6           0.000005403   -0.000004122   -0.000000807
     11        1          -0.000000216    0.000006590    0.000003894
     12        1           0.000000244    0.000000037    0.000002509
     13        1          -0.000000049    0.000000622   -0.000001391
     14        1          -0.000001458    0.000001893   -0.000007695
     15        1          -0.000005798   -0.000002536    0.000004840
     16        1           0.000000520   -0.000000621    0.000007592
     17        1          -0.000000014   -0.000000373    0.000006455
     18        1          -0.000001536   -0.000000545    0.000000067
     19        7           0.000023614   -0.000063363   -0.000007392
     20        7           0.000085287    0.000012737   -0.000010358
     21       75          -0.000147594    0.000068844    0.000049417
     22        6          -0.000024394    0.000033321    0.000002106
     23        6           0.000000156   -0.000042884    0.000013834
     24        6           0.000031049    0.000023987   -0.000039957
     25        8           0.000000493   -0.000006007    0.000005261
     26        8           0.000001245    0.000014855   -0.000007931
     27        8          -0.000009409   -0.000014800    0.000010652
     28       17           0.000012616   -0.000003577   -0.000056716
 -------------------------------------------------------------------
 Cartesian Forces:  Max     0.000147594 RMS     0.000025823
 FormGI is forming the generalized inverse of G from B-inverse, IUseBI=4.
 Leave Link  716 at Mon Nov 17 10:58:33 2025, MaxMem=  2684354560 cpu:               7.7 elap:               0.3
 (Enter /home/programes/qq/gaussian/g16.A03/g16/l103.exe)

 GradGradGradGradGradGradGradGradGradGradGradGradGradGradGradGradGradGrad
 Berny optimization.
 Red2BG is reusing G-inverse.
 Internal  Forces:  Max     0.000096453 RMS     0.000014011
 Search for a local minimum.
 Step number   1 out of a maximum of    2
 All quantities printed in internal units (Hartrees-Bohrs-Radians)
 Second derivative matrix not updated -- analytic derivatives used.
 ITU=  0
     Eigenvalues ---    0.00319   0.00335   0.00979   0.01050   0.01540
     Eigenvalues ---    0.01706   0.01741   0.01791   0.02131   0.02288
     Eigenvalues ---    0.02305   0.02389   0.02453   0.02470   0.02508
     Eigenvalues ---    0.02526   0.02756   0.02791   0.02967   0.02971
     Eigenvalues ---    0.03305   0.04010   0.04071   0.05317   0.05731
     Eigenvalues ---    0.05746   0.06152   0.07601   0.10631   0.10740
     Eigenvalues ---    0.11395   0.11810   0.12044   0.12062   0.12117
     Eigenvalues ---    0.12758   0.13001   0.13077   0.14275   0.14584
     Eigenvalues ---    0.15526   0.16256   0.16944   0.18856   0.19529
     Eigenvalues ---    0.19695   0.20109   0.20577   0.21563   0.21636
     Eigenvalues ---    0.23845   0.24109   0.26452   0.27780   0.28677
     Eigenvalues ---    0.31728   0.36309   0.36362   0.36518   0.36569
     Eigenvalues ---    0.36706   0.36727   0.36833   0.37376   0.38517
     Eigenvalues ---    0.42155   0.42958   0.45511   0.47519   0.47944
     Eigenvalues ---    0.48911   0.49072   0.53800   0.53997   1.01459
     Eigenvalues ---    1.02450   1.04783   1.77547
 Angle between quadratic step and forces=  76.57 degrees.
 Linear search not attempted -- first point.
 Iteration  1 RMS(Cart)=  0.00058866 RMS(Int)=  0.00000008
 Iteration  2 RMS(Cart)=  0.00000015 RMS(Int)=  0.00000001
 ITry= 1 IFail=0 DXMaxC= 2.64D-03 DCOld= 1.00D+10 DXMaxT= 3.00D-01 DXLimC= 3.00D+00 Rises=F
 Variable       Old X    -DE/DX   Delta X   Delta X   Delta X     New X
                                 (Linear)    (Quad)   (Total)
    R1        2.64429   0.00001   0.00000   0.00000   0.00000   2.64429
    R2        2.80041   0.00004   0.00000   0.00009   0.00009   2.80051
    R3        2.56694   0.00001   0.00000  -0.00002  -0.00002   2.56693
    R4        2.63187   0.00001   0.00000   0.00003   0.00003   2.63190
    R5        2.05530  -0.00001   0.00000  -0.00001  -0.00001   2.05529
    R6        2.63518  -0.00002   0.00000  -0.00004  -0.00004   2.63513
    R7        2.06071   0.00000   0.00000   0.00000   0.00000   2.06071
    R8        2.62900   0.00001   0.00000   0.00002   0.00002   2.62902
    R9        2.05886   0.00000   0.00000   0.00000   0.00000   2.05886
   R10        2.05854   0.00000   0.00000   0.00001   0.00001   2.05854
   R11        2.54181   0.00000   0.00000  -0.00003  -0.00003   2.54178
   R12        2.64407   0.00001   0.00000  -0.00001  -0.00001   2.64407
   R13        2.56683   0.00001   0.00000   0.00001   0.00001   2.56684
   R14        2.63187   0.00001   0.00000   0.00003   0.00003   2.63189
   R15        2.05494  -0.00001   0.00000  -0.00001  -0.00001   2.05493
   R16        2.63519  -0.00002   0.00000  -0.00005  -0.00005   2.63514
   R17        2.06073   0.00000   0.00000  -0.00000  -0.00000   2.06073
   R18        2.62897   0.00000   0.00000   0.00001   0.00001   2.62898
   R19        2.05883   0.00000   0.00000   0.00000   0.00000   2.05883
   R20        2.05861   0.00000   0.00000   0.00000   0.00000   2.05862
   R21        2.54190   0.00001   0.00000  -0.00000  -0.00000   2.54190
   R22        4.33980   0.00008   0.00000  -0.00016  -0.00016   4.33965
   R23        4.34173   0.00010   0.00000   0.00026   0.00026   4.34199
   R24        3.59455   0.00002   0.00000   0.00000   0.00000   3.59455
   R25        3.60643   0.00000   0.00000  -0.00005  -0.00005   3.60638
   R26        3.60687   0.00000   0.00000   0.00002   0.00002   3.60689
   R27        4.92372   0.00005   0.00000   0.00007   0.00007   4.92379
   R28        2.19864   0.00001   0.00000   0.00000   0.00000   2.19864
   R29        2.19515  -0.00001   0.00000  -0.00000  -0.00000   2.19514
   R30        2.19510  -0.00001   0.00000  -0.00003  -0.00003   2.19508
    A1        2.14129   0.00000   0.00000   0.00001   0.00001   2.14130
    A2        2.10746  -0.00001   0.00000  -0.00002  -0.00002   2.10743
    A3        2.03441   0.00000   0.00000   0.00001   0.00001   2.03442
    A4        2.08852   0.00001   0.00000   0.00001   0.00001   2.08853
    A5        2.10444   0.00000   0.00000   0.00003   0.00003   2.10446
    A6        2.09022  -0.00001   0.00000  -0.00004  -0.00004   2.09019
    A7        2.07802  -0.00000   0.00000  -0.00000  -0.00000   2.07802
    A8        2.09620   0.00000   0.00000  -0.00001  -0.00001   2.09619
    A9        2.10896   0.00000   0.00000   0.00001   0.00001   2.10898
   A10        2.06769   0.00000   0.00000  -0.00001  -0.00001   2.06768
   A11        2.12469  -0.00000   0.00000   0.00001   0.00001   2.12471
   A12        2.09080  -0.00000   0.00000  -0.00001  -0.00001   2.09080
   A13        2.11449  -0.00000   0.00000  -0.00000  -0.00000   2.11449
   A14        2.14082   0.00001   0.00000   0.00000   0.00000   2.14082
   A15        2.02787  -0.00000   0.00000  -0.00000  -0.00000   2.02787
   A16        2.14108   0.00000   0.00000  -0.00001  -0.00001   2.14107
   A17        2.03473   0.00000   0.00000   0.00002   0.00002   2.03474
   A18        2.10736  -0.00001   0.00000  -0.00001  -0.00001   2.10736
   A19        2.08879   0.00001   0.00000   0.00002   0.00002   2.08881
   A20        2.10366  -0.00000   0.00000   0.00001   0.00001   2.10366
   A21        2.09074  -0.00001   0.00000  -0.00003  -0.00003   2.09071
   A22        2.07782  -0.00000   0.00000  -0.00002  -0.00002   2.07780
   A23        2.09630   0.00000   0.00000  -0.00000  -0.00000   2.09630
   A24        2.10907   0.00000   0.00000   0.00002   0.00002   2.10909
   A25        2.06769   0.00000   0.00000   0.00000   0.00000   2.06769
   A26        2.12447  -0.00000   0.00000   0.00002   0.00002   2.12448
   A27        2.09103  -0.00000   0.00000  -0.00002  -0.00002   2.09101
   A28        2.11450  -0.00000   0.00000  -0.00003  -0.00003   2.11447
   A29        2.14087   0.00001   0.00000   0.00003   0.00003   2.14089
   A30        2.02781  -0.00000   0.00000   0.00000   0.00000   2.02781
   A31        2.08382  -0.00001   0.00000  -0.00003  -0.00003   2.08380
   A32        2.04886   0.00000   0.00000   0.00002   0.00002   2.04887
   A33        2.14938   0.00000   0.00000  -0.00001  -0.00001   2.14938
   A34        2.08385  -0.00001   0.00000   0.00002   0.00002   2.08387
   A35        2.04850  -0.00000   0.00000  -0.00008  -0.00008   2.04842
   A36        2.14996   0.00001   0.00000   0.00008   0.00008   2.15004
   A37        1.25493  -0.00001   0.00000   0.00003   0.00003   1.25496
   A38        1.62045   0.00002   0.00000   0.00035   0.00035   1.62080
   A39        1.73210  -0.00001   0.00000  -0.00014  -0.00014   1.73196
   A40        1.44657  -0.00000   0.00000  -0.00012  -0.00012   1.44645
   A41        1.61917   0.00001   0.00000   0.00001   0.00001   1.61918
   A42        1.73372  -0.00001   0.00000  -0.00006  -0.00006   1.73365
   A43        1.44759  -0.00001   0.00000  -0.00004  -0.00004   1.44755
   A44        1.58533  -0.00002   0.00000  -0.00024  -0.00024   1.58509
   A45        1.58569  -0.00001   0.00000  -0.00014  -0.00014   1.58555
   A46        1.55859   0.00003   0.00000   0.00018   0.00018   1.55877
   A47        1.62212   0.00001   0.00000   0.00030   0.00030   1.62243
   A48        1.62157  -0.00000   0.00000  -0.00011  -0.00011   1.62146
   A49        2.98865  -0.00002   0.00000  -0.00003  -0.00003   2.98861
   A50        2.98703  -0.00002   0.00000  -0.00011  -0.00011   2.98692
   A51        3.06702   0.00001   0.00000   0.00023   0.00023   3.06725
   A52        3.13712   0.00000   0.00000   0.00004   0.00004   3.13716
   A53        3.10739   0.00003   0.00000   0.00015   0.00015   3.10754
   A54        3.10797   0.00003   0.00000   0.00014   0.00014   3.10811
   A55        3.08206  -0.00000   0.00000  -0.00022  -0.00022   3.08184
   A56        3.19913  -0.00001   0.00000  -0.00030  -0.00030   3.19883
   A57        3.19650  -0.00000   0.00000   0.00011   0.00011   3.19661
   A58        3.14914   0.00002   0.00000   0.00008   0.00008   3.14922
   A59        3.14818   0.00001   0.00000  -0.00010  -0.00010   3.14808
   A60        3.13417   0.00004   0.00000   0.00033   0.00033   3.13449
    D1       -3.13276  -0.00000   0.00000   0.00010   0.00010  -3.13267
    D2        0.00899   0.00000   0.00000   0.00008   0.00008   0.00907
    D3        0.00116  -0.00000   0.00000  -0.00004  -0.00004   0.00111
    D4       -3.14028   0.00000   0.00000  -0.00006  -0.00006  -3.14033
    D5       -0.00496  -0.00000   0.00000  -0.00078  -0.00078  -0.00574
    D6        3.12997  -0.00000   0.00000  -0.00078  -0.00078   3.12919
    D7       -3.13918  -0.00000   0.00000  -0.00065  -0.00065  -3.13983
    D8       -0.00425  -0.00000   0.00000  -0.00065  -0.00065  -0.00490
    D9       -0.00447   0.00000   0.00000   0.00009   0.00009  -0.00438
   D10        3.09360   0.00000   0.00000   0.00061   0.00061   3.09421
   D11        3.12990   0.00000   0.00000  -0.00004  -0.00004   3.12987
   D12       -0.05521   0.00000   0.00000   0.00048   0.00048  -0.05473
   D13        0.00278  -0.00000   0.00000  -0.00001  -0.00001   0.00277
   D14       -3.14058   0.00000   0.00000  -0.00003  -0.00003  -3.14061
   D15       -3.13897  -0.00000   0.00000   0.00000   0.00000  -3.13897
   D16        0.00085  -0.00000   0.00000  -0.00001  -0.00001   0.00084
   D17       -0.00336  -0.00000   0.00000   0.00002   0.00002  -0.00335
   D18        3.13936   0.00000   0.00000  -0.00000  -0.00000   3.13936
   D19        3.14001  -0.00000   0.00000   0.00003   0.00003   3.14004
   D20       -0.00045  -0.00000   0.00000   0.00001   0.00001  -0.00044
   D21       -3.13952   0.00000   0.00000   0.00003   0.00003  -3.13949
   D22        0.00005   0.00000   0.00000   0.00003   0.00003   0.00009
   D23        0.00096   0.00000   0.00000   0.00005   0.00005   0.00101
   D24        3.14054   0.00000   0.00000   0.00005   0.00005   3.14059
   D25        0.00390  -0.00000   0.00000  -0.00009  -0.00009   0.00381
   D26       -3.09151  -0.00000   0.00000  -0.00064  -0.00064  -3.09215
   D27       -3.13962  -0.00000   0.00000  -0.00009  -0.00009  -3.13971
   D28        0.04816  -0.00000   0.00000  -0.00064  -0.00064   0.04752
   D29        3.13305  -0.00000   0.00000  -0.00011  -0.00011   3.13294
   D30       -0.00891  -0.00000   0.00000  -0.00018  -0.00018  -0.00908
   D31       -0.00162  -0.00000   0.00000  -0.00010  -0.00010  -0.00172
   D32        3.13961  -0.00000   0.00000  -0.00017  -0.00017   3.13944
   D33       -3.12926   0.00000   0.00000   0.00013   0.00013  -3.12913
   D34        0.06166   0.00000   0.00000   0.00051   0.00051   0.06216
   D35        0.00581   0.00000   0.00000   0.00013   0.00013   0.00594
   D36       -3.08646   0.00000   0.00000   0.00050   0.00050  -3.08595
   D37       -0.00326  -0.00000   0.00000  -0.00002  -0.00002  -0.00327
   D38        3.14009  -0.00000   0.00000  -0.00002  -0.00002   3.14007
   D39        3.13869   0.00000   0.00000   0.00005   0.00005   3.13875
   D40       -0.00115   0.00000   0.00000   0.00005   0.00005  -0.00110
   D41        0.00389   0.00000   0.00000   0.00011   0.00011   0.00400
   D42       -3.13899   0.00000   0.00000   0.00006   0.00006  -3.13893
   D43       -3.13947   0.00000   0.00000   0.00011   0.00011  -3.13936
   D44        0.00084   0.00000   0.00000   0.00006   0.00006   0.00090
   D45        3.13947  -0.00000   0.00000  -0.00009  -0.00009   3.13938
   D46        0.00031  -0.00000   0.00000  -0.00008  -0.00008   0.00023
   D47       -0.00086  -0.00000   0.00000  -0.00005  -0.00005  -0.00091
   D48       -3.14002  -0.00000   0.00000  -0.00004  -0.00004  -3.14006
   D49       -0.00521   0.00000   0.00000  -0.00003  -0.00003  -0.00524
   D50        3.08408   0.00000   0.00000  -0.00043  -0.00043   3.08364
   D51        3.13871  -0.00000   0.00000  -0.00003  -0.00003   3.13868
   D52       -0.05520   0.00000   0.00000  -0.00042  -0.00042  -0.05562
   D53       -0.06575   0.00000   0.00000  -0.00019  -0.00019  -0.06594
   D54       -1.67125  -0.00001   0.00000  -0.00010  -0.00010  -1.67134
   D55        3.01831   0.00001   0.00000   0.00010   0.00010   3.01841
   D56        1.41544  -0.00000   0.00000  -0.00021  -0.00021   1.41524
   D57        3.12718   0.00000   0.00000   0.00020   0.00020   3.12737
   D58        1.52168  -0.00001   0.00000   0.00030   0.00030   1.52197
   D59       -0.07195   0.00001   0.00000   0.00049   0.00049  -0.07146
   D60       -1.67482  -0.00000   0.00000   0.00018   0.00018  -1.67463
   D61        0.06339  -0.00000   0.00000  -0.00017  -0.00017   0.06322
   D62        1.67065   0.00001   0.00000   0.00019   0.00019   1.67084
   D63       -3.01867   0.00000   0.00000   0.00005   0.00005  -3.01862
   D64       -1.41640  -0.00000   0.00000  -0.00006  -0.00006  -1.41646
   D65       -3.12352  -0.00000   0.00000   0.00037   0.00037  -3.12314
   D66       -1.51626   0.00001   0.00000   0.00073   0.00073  -1.51552
   D67        0.07761   0.00000   0.00000   0.00059   0.00059   0.07820
   D68        1.67988  -0.00000   0.00000   0.00048   0.00048   1.68036
         Item               Value     Threshold  Converged?
 Maximum Force            0.000096     0.000450     YES
 RMS     Force            0.000014     0.000300     YES
 Maximum Displacement     0.002635     0.001800     NO 
 RMS     Displacement     0.000589     0.001200     YES
 Predicted change in Energy=-5.538989D-08
                           ----------------------------
                           ! Non-Optimized Parameters !
                           ! (Angstroms and Degrees)  !
 --------------------------                            --------------------------
 ! Name  Definition              Value          Derivative Info.                !
 --------------------------------------------------------------------------------
 ! R1    R(1,2)                  1.3993         -DE/DX =    0.0                 !
 ! R2    R(1,6)                  1.482          -DE/DX =    0.0                 !
 ! R3    R(1,20)                 1.3584         -DE/DX =    0.0                 !
 ! R4    R(2,3)                  1.3927         -DE/DX =    0.0                 !
 ! R5    R(2,11)                 1.0876         -DE/DX =    0.0                 !
 ! R6    R(3,4)                  1.3945         -DE/DX =    0.0                 !
 ! R7    R(3,12)                 1.0905         -DE/DX =    0.0                 !
 ! R8    R(4,5)                  1.3912         -DE/DX =    0.0                 !
 ! R9    R(4,13)                 1.0895         -DE/DX =    0.0                 !
 ! R10   R(5,14)                 1.0893         -DE/DX =    0.0                 !
 ! R11   R(5,20)                 1.3451         -DE/DX =    0.0                 !
 ! R12   R(6,7)                  1.3992         -DE/DX =    0.0                 !
 ! R13   R(6,19)                 1.3583         -DE/DX =    0.0                 !
 ! R14   R(7,8)                  1.3927         -DE/DX =    0.0                 !
 ! R15   R(7,15)                 1.0874         -DE/DX =    0.0                 !
 ! R16   R(8,9)                  1.3945         -DE/DX =    0.0                 !
 ! R17   R(8,16)                 1.0905         -DE/DX =    0.0                 !
 ! R18   R(9,10)                 1.3912         -DE/DX =    0.0                 !
 ! R19   R(9,17)                 1.0895         -DE/DX =    0.0                 !
 ! R20   R(10,18)                1.0894         -DE/DX =    0.0                 !
 ! R21   R(10,19)                1.3451         -DE/DX =    0.0                 !
 ! R22   R(19,21)                2.2964         -DE/DX =    0.0001              !
 ! R23   R(20,21)                2.2977         -DE/DX =    0.0001              !
 ! R24   R(21,22)                1.9022         -DE/DX =    0.0                 !
 ! R25   R(21,23)                1.9084         -DE/DX =    0.0                 !
 ! R26   R(21,24)                1.9087         -DE/DX =    0.0                 !
 ! R27   R(21,28)                2.6056         -DE/DX =    0.0001              !
 ! R28   R(22,25)                1.1635         -DE/DX =    0.0                 !
 ! R29   R(23,26)                1.1616         -DE/DX =    0.0                 !
 ! R30   R(24,27)                1.1616         -DE/DX =    0.0                 !
 ! A1    A(2,1,6)              122.6877         -DE/DX =    0.0                 !
 ! A2    A(2,1,20)             120.7471         -DE/DX =    0.0                 !
 ! A3    A(6,1,20)             116.5639         -DE/DX =    0.0                 !
 ! A4    A(1,2,3)              119.6641         -DE/DX =    0.0                 !
 ! A5    A(1,2,11)             120.5769         -DE/DX =    0.0                 !
 ! A6    A(3,2,11)             119.759          -DE/DX =    0.0                 !
 ! A7    A(2,3,4)              119.0615         -DE/DX =    0.0                 !
 ! A8    A(2,3,12)             120.103          -DE/DX =    0.0                 !
 ! A9    A(4,3,12)             120.8354         -DE/DX =    0.0                 !
 ! A10   A(3,4,5)              118.4694         -DE/DX =    0.0                 !
 ! A11   A(3,4,13)             121.7367         -DE/DX =    0.0                 !
 ! A12   A(5,4,13)             119.7939         -DE/DX =    0.0                 !
 ! A13   A(4,5,14)             121.1514         -DE/DX =    0.0                 !
 ! A14   A(4,5,20)             122.6602         -DE/DX =    0.0                 !
 ! A15   A(14,5,20)            116.1884         -DE/DX =    0.0                 !
 ! A16   A(1,6,7)              122.674          -DE/DX =    0.0                 !
 ! A17   A(1,6,19)             116.5823         -DE/DX =    0.0                 !
 ! A18   A(7,6,19)             120.7426         -DE/DX =    0.0                 !
 ! A19   A(6,7,8)              119.6803         -DE/DX =    0.0                 !
 ! A20   A(6,7,15)             120.531          -DE/DX =    0.0                 !
 ! A21   A(8,7,15)             119.7888         -DE/DX =    0.0                 !
 ! A22   A(7,8,9)              119.0491         -DE/DX =    0.0                 !
 ! A23   A(7,8,16)             120.109          -DE/DX =    0.0                 !
 ! A24   A(9,8,16)             120.8418         -DE/DX =    0.0                 !
 ! A25   A(8,9,10)             118.4699         -DE/DX =    0.0                 !
 ! A26   A(8,9,17)             121.724          -DE/DX =    0.0                 !
 ! A27   A(10,9,17)            119.806          -DE/DX =    0.0                 !
 ! A28   A(9,10,18)            121.1504         -DE/DX =    0.0                 !
 ! A29   A(9,10,19)            122.6642         -DE/DX =    0.0                 !
 ! A30   A(18,10,19)           116.1852         -DE/DX =    0.0                 !
 ! A31   A(6,19,10)            119.3927         -DE/DX =    0.0                 !
 ! A32   A(6,19,21)            117.3917         -DE/DX =    0.0                 !
 ! A33   A(10,19,21)           123.1502         -DE/DX =    0.0                 !
 ! A34   A(1,20,5)             119.3972         -DE/DX =    0.0                 !
 ! A35   A(1,20,21)            117.3656         -DE/DX =    0.0                 !
 ! A36   A(5,20,21)            123.1882         -DE/DX =    0.0                 !
 ! A37   A(19,21,20)            71.904          -DE/DX =    0.0                 !
 ! A38   A(19,21,22)            92.8648         -DE/DX =    0.0                 !
 ! A39   A(19,21,23)            99.2339         -DE/DX =    0.0                 !
 ! A40   A(19,21,28)            82.8757         -DE/DX =    0.0                 !
 ! A41   A(20,21,22)            92.7724         -DE/DX =    0.0                 !
 ! A42   A(20,21,24)            99.331          -DE/DX =    0.0                 !
 ! A43   A(20,21,28)            82.9384         -DE/DX =    0.0                 !
 ! A44   A(22,21,23)            90.8189         -DE/DX =    0.0                 !
 ! A45   A(22,21,24)            90.8453         -DE/DX =    0.0                 !
 ! A46   A(23,21,24)            89.3109         -DE/DX =    0.0                 !
 ! A47   A(23,21,28)            92.9582         -DE/DX =    0.0                 !
 ! A48   A(24,21,28)            92.903          -DE/DX =    0.0                 !
 ! A49   L(19,21,24,20,-1)     171.2349         -DE/DX =    0.0                 !
 ! A50   L(20,21,23,19,-1)     171.1379         -DE/DX =    0.0                 !
 ! A51   L(22,21,28,19,-1)     175.7405         -DE/DX =    0.0                 !
 ! A52   L(21,22,25,13,-1)     179.7461         -DE/DX =    0.0                 !
 ! A53   L(21,23,26,9,-1)      178.0492         -DE/DX =    0.0                 !
 ! A54   L(21,24,27,4,-1)      178.0817         -DE/DX =    0.0                 !
 ! A55   L(19,21,24,20,-2)     176.5765         -DE/DX =    0.0                 !
 ! A56   L(20,21,23,19,-2)     183.2796         -DE/DX =    0.0                 !
 ! A57   L(22,21,28,19,-2)     183.152          -DE/DX =    0.0                 !
 ! A58   L(21,22,25,13,-2)     180.4372         -DE/DX =    0.0                 !
 ! A59   L(21,23,26,9,-2)      180.3715         -DE/DX =    0.0                 !
 ! A60   L(21,24,27,4,-2)      179.5932         -DE/DX =    0.0                 !
 ! D1    D(6,1,2,3)           -179.4887         -DE/DX =    0.0                 !
 ! D2    D(6,1,2,11)             0.5197         -DE/DX =    0.0                 !
 ! D3    D(20,1,2,3)             0.0638         -DE/DX =    0.0                 !
 ! D4    D(20,1,2,11)         -179.9278         -DE/DX =    0.0                 !
 ! D5    D(2,1,6,7)             -0.329          -DE/DX =    0.0                 !
 ! D6    D(2,1,6,19)           179.2893         -DE/DX =    0.0                 !
 ! D7    D(20,1,6,7)          -179.899          -DE/DX =    0.0                 !
 ! D8    D(20,1,6,19)           -0.2807         -DE/DX =    0.0                 !
 ! D9    D(2,1,20,5)            -0.2507         -DE/DX =    0.0                 !
 ! D10   D(2,1,20,21)          177.2852         -DE/DX =    0.0                 !
 ! D11   D(6,1,20,5)           179.3282         -DE/DX =    0.0                 !
 ! D12   D(6,1,20,21)           -3.1359         -DE/DX =    0.0                 !
 ! D13   D(1,2,3,4)              0.1586         -DE/DX =    0.0                 !
 ! D14   D(1,2,3,12)          -179.9434         -DE/DX =    0.0                 !
 ! D15   D(11,2,3,4)          -179.8497         -DE/DX =    0.0                 !
 ! D16   D(11,2,3,12)            0.0483         -DE/DX =    0.0                 !
 ! D17   D(2,3,4,5)             -0.1918         -DE/DX =    0.0                 !
 ! D18   D(2,3,4,13)           179.8721         -DE/DX =    0.0                 !
 ! D19   D(12,3,4,5)           179.911          -DE/DX =    0.0                 !
 ! D20   D(12,3,4,13)           -0.0251         -DE/DX =    0.0                 !
 ! D21   D(3,4,5,14)          -179.8793         -DE/DX =    0.0                 !
 ! D22   D(3,4,5,20)             0.0051         -DE/DX =    0.0                 !
 ! D23   D(13,4,5,14)            0.0581         -DE/DX =    0.0                 !
 ! D24   D(13,4,5,20)          179.9425         -DE/DX =    0.0                 !
 ! D25   D(4,5,20,1)             0.2181         -DE/DX =    0.0                 !
 ! D26   D(4,5,20,21)         -177.167          -DE/DX =    0.0                 !
 ! D27   D(14,5,20,1)         -179.8921         -DE/DX =    0.0                 !
 ! D28   D(14,5,20,21)           2.7228         -DE/DX =    0.0                 !
 ! D29   D(1,6,7,8)            179.5043         -DE/DX =    0.0                 !
 ! D30   D(1,6,7,15)            -0.5204         -DE/DX =    0.0                 !
 ! D31   D(19,6,7,8)            -0.0986         -DE/DX =    0.0                 !
 ! D32   D(19,6,7,15)          179.8767         -DE/DX =    0.0                 !
 ! D33   D(1,6,19,10)         -179.2859         -DE/DX =    0.0                 !
 ! D34   D(1,6,19,21)            3.5617         -DE/DX =    0.0                 !
 ! D35   D(7,6,19,10)            0.3403         -DE/DX =    0.0                 !
 ! D36   D(7,6,19,21)         -176.8121         -DE/DX =    0.0                 !
 ! D37   D(6,7,8,9)             -0.1876         -DE/DX =    0.0                 !
 ! D38   D(6,7,8,16)           179.9126         -DE/DX =    0.0                 !
 ! D39   D(15,7,8,9)           179.837          -DE/DX =    0.0                 !
 ! D40   D(15,7,8,16)           -0.0629         -DE/DX =    0.0                 !
 ! D41   D(7,8,9,10)             0.2289         -DE/DX =    0.0                 !
 ! D42   D(7,8,9,17)          -179.8474         -DE/DX =    0.0                 !
 ! D43   D(16,8,9,10)         -179.8719         -DE/DX =    0.0                 !
 ! D44   D(16,8,9,17)            0.0517         -DE/DX =    0.0                 !
 ! D45   D(8,9,10,18)          179.8733         -DE/DX =    0.0                 !
 ! D46   D(8,9,10,19)            0.0132         -DE/DX =    0.0                 !
 ! D47   D(17,9,10,18)          -0.0519         -DE/DX =    0.0                 !
 ! D48   D(17,9,10,19)        -179.9119         -DE/DX =    0.0                 !
 ! D49   D(9,10,19,6)           -0.3003         -DE/DX =    0.0                 !
 ! D50   D(9,10,19,21)         176.6797         -DE/DX =    0.0                 !
 ! D51   D(18,10,19,6)         179.8332         -DE/DX =    0.0                 !
 ! D52   D(18,10,19,21)         -3.1868         -DE/DX =    0.0                 !
 ! D53   D(6,19,21,20)          -3.7782         -DE/DX =    0.0                 !
 ! D54   D(6,19,21,22)         -95.7609         -DE/DX =    0.0                 !
 ! D55   D(6,19,21,23)         172.9422         -DE/DX =    0.0                 !
 ! D56   D(6,19,21,28)          81.0871         -DE/DX =    0.0                 !
 ! D57   D(10,19,21,20)        179.1853         -DE/DX =    0.0                 !
 ! D58   D(10,19,21,22)         87.2026         -DE/DX =    0.0                 !
 ! D59   D(10,19,21,23)         -4.0944         -DE/DX =    0.0                 !
 ! D60   D(10,19,21,28)        -95.9495         -DE/DX =    0.0                 !
 ! D61   D(1,20,21,19)           3.6223         -DE/DX =    0.0                 !
 ! D62   D(1,20,21,22)          95.7322         -DE/DX =    0.0                 !
 ! D63   D(1,20,21,24)        -172.9542         -DE/DX =    0.0                 !
 ! D64   D(1,20,21,28)         -81.157          -DE/DX =    0.0                 !
 ! D65   D(5,20,21,19)        -178.943          -DE/DX =    0.0                 !
 ! D66   D(5,20,21,22)         -86.833          -DE/DX =    0.0                 !
 ! D67   D(5,20,21,24)           4.4805         -DE/DX =    0.0                 !
 ! D68   D(5,20,21,28)          96.2778         -DE/DX =    0.0                 !
 --------------------------------------------------------------------------------
 GradGradGradGradGradGradGradGradGradGradGradGradGradGradGradGradGradGrad

 Leave Link  103 at Mon Nov 17 10:58:33 2025, MaxMem=  2684354560 cpu:               4.0 elap:               0.2
 (Enter /home/programes/qq/gaussian/g16.A03/g16/l9999.exe)

 ----------------------------------------------------------------------

 Electric dipole moment (input orientation):
 (Debye = 10**-18 statcoulomb cm , SI units = C m)
                  (au)            (Debye)         (10**-30 SI)
   Tot        0.558391D+01      0.141929D+02      0.473424D+02
   x          0.455256D+01      0.115715D+02      0.385982D+02
   y         -0.274483D+01     -0.697666D+01     -0.232716D+02
   z          0.170884D+01      0.434344D+01      0.144882D+02

 Dipole polarizability, Alpha (input orientation).
 (esu units = cm**3 , SI units = C**2 m**2 J**-1)
 Alpha(0;0):
               (au)            (10**-24 esu)      (10**-40 SI)
   iso        0.295922D+03      0.438511D+02      0.487909D+02
   aniso      0.161608D+03      0.239478D+02      0.266456D+02
   xx         0.336467D+03      0.498593D+02      0.554760D+02
   yx         0.214696D+02      0.318147D+01      0.353986D+01
   yy         0.359034D+03      0.532033D+02      0.591967D+02
   zx        -0.621127D+01     -0.920415D+00     -0.102410D+01
   zy         0.449281D+01      0.665765D+00      0.740764D+00
   zz         0.192264D+03      0.284906D+02      0.317000D+02

 ----------------------------------------------------------------------

 Dipole orientation:
     6         -1.99782008         -0.83757067         -3.78475678
     6         -0.53411663         -0.05347273         -1.72683884
     6          0.75509275          2.23805680         -1.84324269
     6          0.55234668          3.71177652         -4.01837374
     6         -0.93183682          2.82521871         -5.99899543
     6         -3.43708401         -3.23982151         -3.78907117
     6         -3.43217273         -4.91048695         -1.73968968
     6         -4.84401323         -7.12819691         -1.86290905
     6         -6.24552619         -7.63374127         -4.03647875
     6         -6.16956617         -5.89711813         -6.00874758
     1         -0.39484618         -1.21782478         -0.03889428
     1          1.90109670          2.86143343         -0.24806745
     1          1.52206232          5.51924864         -4.19616775
     1         -1.14497282          3.90733834         -7.73714545
     1         -2.33496080         -4.49105865         -0.05356882
     1         -4.84764720         -8.44095876         -0.27443058
     1         -7.38214553         -9.34065062         -4.21905805
     1         -7.22935338         -6.21099713         -7.74547612
     7         -4.80119356         -3.75768485         -5.90085742
     7         -2.17412555          0.61000352         -5.89725184
    75         -4.48737709         -0.97171255         -9.21352710
     6         -7.44779084          0.81258101         -8.22710782
     6         -6.35595265         -2.80693640        -11.69279023
     6         -3.73899736          1.53469417        -11.69694334
     8         -9.25404918          1.90153936         -7.60613267
     8         -7.49298263         -3.98452354        -13.15536462
     8         -3.22939411          3.08679956        -13.16314859
    17         -0.34221409         -3.46887750        -10.12172496

 Electric dipole moment (dipole orientation):
 (Debye = 10**-18 statcoulomb cm , SI units = C m)
                  (au)            (Debye)         (10**-30 SI)
   Tot        0.558391D+01      0.141929D+02      0.473424D+02
   x          0.000000D+00      0.000000D+00      0.000000D+00
   y          0.000000D+00      0.000000D+00      0.000000D+00
   z          0.558391D+01      0.141929D+02      0.473424D+02

 Dipole polarizability, Alpha (dipole orientation).
 (esu units = cm**3 , SI units = C**2 m**2 J**-1)
 Alpha(0;0):
               (au)            (10**-24 esu)      (10**-40 SI)
   iso        0.295922D+03      0.438511D+02      0.487909D+02
   aniso      0.161608D+03      0.239478D+02      0.266456D+02
   xx         0.251934D+03      0.373327D+02      0.415382D+02
   yx         0.717966D+02      0.106392D+02      0.118377D+02
   yy         0.329077D+03      0.487641D+02      0.542574D+02
   zx         0.381826D+02      0.565808D+01      0.629546D+01
   zy        -0.227436D+02     -0.337026D+01     -0.374992D+01
   zz         0.306755D+03      0.454564D+02      0.505771D+02

 ----------------------------------------------------------------------
 1\1\GINC-MAGINET226\Freq\RB3LYP\Gen\C13H8Cl1N2O3Re1\SOLE\17-Nov-2025\0
 \\#P Geom=AllCheck Guess=TCheck SCRF=Check GenChk RB3LYP/ChkBas Freq\\
 Title Card Required\\0,1\C,-2.2880266509,0.2988652842,0.0311475714\C,-
 0.8924967331,0.3393964159,-0.0631217962\C,-0.2356121312,1.5672969524,-
 0.0421086541\C,-0.9874220774,2.7357501852,0.0764625776\C,-2.371562948,
 2.6275987672,0.1654333467\C,-3.0539644551,-0.9697512511,0.0265230483\C
 ,-2.439795453,-2.2225567073,-0.078289034\C,-3.2199410535,-3.3762027767
 ,-0.0659977548\C,-4.6039749221,-3.2564189475,0.0551692196\C,-5.1531498
 563,-1.9820942702,0.1547353178\H,-0.3171354464,-0.5792141707,-0.152730
 5196\H,0.8516207263,1.6072938805,-0.1160557831\H,-0.5186464222,3.71897
 82436,0.0994615959\H,-3.0011318228,3.5118097425,0.2573895377\H,-1.3591
 21573,-2.3020972057,-0.1695088857\H,-2.7487260257,-4.35615048,-0.14866
 46735\H,-5.2552692791,-4.1296382501,0.0719772943\H,-6.2287935947,-1.83
 77918561,0.2490688572\N,-4.4036237695,-0.865277818,0.1383537565\N,-3.0
 101881008,1.4440431517,0.1416537733\Re,-5.2988952352,1.248895156,0.191
 1892607\C,-5.3528335234,1.2810997004,2.0923045513\C,-7.1521006114,0.79
 88986006,0.1184802738\C,-5.7688714708,3.0973576167,0.1181086182\O,-5.3
 774445578,1.2959013272,3.2554192347\O,-8.2697872937,0.4868504537,0.065
 8669455\O,-6.0169925226,4.2308828804,0.0645410065\Cl,-5.0191131966,1.0
 812853751,-2.3938386862\\Version=ES64L-G16RevA.03\HF=-1375.0680542\RMS
 D=1.962e-09\RMSF=2.582e-05\ZeroPoint=0.1897106\Thermal=0.208053\Dipole
 =4.5525645,-2.7448289,1.7088404\DipoleDeriv=0.4291912,0.4451393,0.0261
 386,-0.0364919,0.3549841,-0.002803,-0.0008343,-0.0319616,0.1134643,-0.
 4293041,-0.4755699,-0.0142638,-0.276033,-0.2500716,0.0051111,0.0023175
 ,0.0287909,-0.0849183,0.2693743,0.0425941,-0.021807,0.2101374,0.379629
 2,0.015015,-0.0112311,0.0203492,-0.0341053,-0.0750015,0.5081187,0.0307
 897,-0.0481756,-0.1759067,-0.0013041,-0.0074177,-0.0399215,-0.0941509,
 0.051875,-0.5152855,-0.0289533,0.0959155,0.054117,0.0191747,0.0022216,
 0.0383716,0.0352069,0.2021721,-0.1559663,0.0104322,0.3267526,0.5800226
 ,-0.0174949,0.0301706,0.0184685,0.1135461,0.0210324,-0.0399859,-0.0114
 587,-0.2362062,-0.7013112,0.0056604,-0.0290353,-0.0183328,-0.0843836,0
 .2502359,0.2030762,-0.0223666,0.0328102,0.4009005,0.0157466,-0.0229768
 ,0.0056231,-0.0337371,-0.3408752,-0.1865003,0.0137388,0.3653706,0.0913
 781,-0.0249637,0.0362856,0.0285935,-0.0944209,0.2308694,0.1908958,-0.0
 251649,-0.4202826,-0.1185787,0.0142532,-0.0364066,-0.0201359,0.0358889
 ,0.1038462,0.0623812,0.0042138,0.0723616,0.0013737,-0.0113868,0.005834
 6,-0.008563,0.134619,-0.0524763,-0.0222099,0.0111243,-0.0025457,0.1159
 644,-0.0004392,0.0132711,0.0002676,0.1281129,0.0754959,-0.0450561,0.00
 03626,-0.0609218,-0.0111317,-0.0052647,0.003346,-0.0074798,0.1402082,0
 .0786201,0.119014,0.0098408,0.0225151,0.0325481,-0.007555,0.0089352,-0
 .0069137,0.1309007,-0.0389183,0.0050021,0.0129208,-0.0049869,0.1338311
 ,0.0017155,0.0127005,-0.0031274,0.1329577,0.0896694,0.07112,0.0061586,
 0.0518699,-0.0252163,-0.0108597,0.0064049,-0.0142364,0.1277545,0.04898
 34,-0.075799,0.0043209,-0.0575831,0.0125429,0.0013569,0.0077504,-0.000
 7868,0.1397446,-0.0137172,-0.0265403,0.011094,0.0668282,0.1263824,-0.0
 048749,0.0085935,-0.005762,0.130938,-0.2155216,0.1718823,-0.0107435,0.
 1442261,-0.4563142,0.0281851,0.0103134,-0.0339004,-0.0164248,-0.536052
 ,-0.0231744,-0.0336619,0.0030231,-0.1378345,-0.0040895,0.031086,0.0069
 811,-0.017798,-0.9587985,-0.339406,-0.2894026,-0.3386171,-1.3184328,0.
 1758309,-0.1330856,0.08014,-0.8009058,0.4623941,-0.0301879,-0.2116542,
 -0.03349,0.4269031,0.1300029,0.1969753,-0.1198299,3.860405,3.7023351,1
 .1935368,0.5570651,0.7887449,0.6741004,0.1417905,0.0784084,0.0637127,0
 .4778692,0.5152116,-0.9067874,0.134463,-0.4922481,3.8605339,-0.5598663
 ,-0.0225825,-0.0981795,0.4771599,-0.2588379,0.0052974,0.1065336,0.0053
 292,-0.2531702,-0.0640984,-0.0644784,0.0377464,-3.0258601,-2.8107121,-
 0.768259,-0.333887,-0.7049632,-0.4672203,-0.0935335,-0.0887496,-0.0354
 52,-0.2601383,-0.3712643,0.5907581,-0.0741879,0.5229675,-2.9075366,0.3
 393424,-0.0109344,0.0967615,-0.2604449,-0.429827,0.001912,0.1383546,0.
 0036933,-0.4224869,-0.0846514,-0.0268824,0.0187766,-1.3714881\Polar=33
 6.467457,21.469624,359.0337968,-6.211266,4.4928072,192.2639832\Quadrup
 ole=-37.363234,35.5280905,1.8351435,33.2055684,-16.5647867,3.8274798\P
 G=C01 [X(C13H8Cl1N2O3Re1)]\NImag=0\\0.72447558,-0.00018472,0.64556909,
 -0.03813852,0.02381945,0.17902127,-0.31987503,-0.02998305,0.01539061,0
 .68829264,0.02443934,-0.12575054,-0.00489516,-0.02891661,0.75121262,0.
 01874886,-0.00104045,-0.07246145,-0.04015077,0.03513904,0.14008576,-0.
 02232545,-0.03525556,0.00010737,-0.18088679,-0.12886033,0.00112286,0.7
 6021343,-0.08102566,0.03001383,0.00696109,-0.06354152,-0.30525586,-0.0
 0855070,0.00361031,0.67899821,-0.00235579,0.00366932,0.00757017,0.0046
 1063,-0.00423025,-0.06401886,-0.04322963,0.02951838,0.14808985,-0.0546
 8659,0.03734673,0.00533507,0.06655066,0.02421858,-0.00277355,-0.195921
 42,0.06967212,0.01326535,0.68994138,0.02258535,-0.01083967,-0.00163298
 ,-0.01391935,-0.05580252,-0.00249497,0.13377209,-0.28644883,-0.0219499
 4,0.03553842,0.75444119,0.00444191,-0.00265322,-0.00900789,-0.00481471
 ,-0.00512664,0.00674870,0.01675944,-0.01763018,-0.06641465,-0.03672268
 ,0.03274272,0.13633956,0.06700393,-0.02403315,-0.00548581,-0.04887433,
 -0.02378686,0.00162108,-0.03282708,0.07485384,0.00694723,-0.34582932,-
 0.04345693,0.01679549,0.73619973,0.03611388,-0.09075776,-0.00796103,-0
 .03903481,-0.01995165,0.00200485,0.03057072,0.04683205,-0.00002239,0.0
 2645559,-0.13349089,-0.00529181,-0.05106737,0.73435358,-0.00217727,-0.
 00347463,0.00463780,0.00074950,0.00082290,-0.00710423,0.00450625,-0.00
 297916,0.00732788,0.02046414,-0.00051872,-0.06921553,-0.04189971,0.036
 00283,0.15674121,-0.12112066,-0.06048723,0.00094514,-0.01933078,-0.031
 07210,0.00015910,-0.00462695,0.00474338,0.00106605,-0.00052350,-0.0007
 9597,-0.00007716,0.00463085,0.00870208,0.00100892,0.66347525,-0.053362
 24,-0.18100154,-0.00191921,-0.01652446,0.00255872,0.00111237,0.0027140
 1,0.00431499,-0.00023871,-0.00207345,-0.00135745,0.00007365,0.00297964
 ,0.00070991,-0.00065904,-0.03267220,0.70714689,0.00171709,-0.00082490,
 -0.06918022,0.00106912,0.00206389,0.00559014,0.00087804,-0.00060782,0.
 00624404,-0.00024624,0.00007199,-0.00055905,0.00072843,-0.00077372,0.0
 0781223,-0.03873285,0.02639624,0.17939039,0.01742854,-0.01170617,-0.00
 139405,-0.00223958,-0.00208010,0.00009532,0.00008480,0.00205031,0.0001
 0700,0.00103595,-0.00095860,-0.00011325,0.00007754,-0.00129168,-0.0000
 7673,-0.16569562,0.10566248,0.01235869,0.76186448,0.00285824,-0.034215
 56,-0.00224621,0.00071037,-0.00274978,-0.00010105,0.00139738,0.0005779
 9,-0.00002711,0.00235859,-0.00109606,-0.00022054,-0.00310573,-0.003749
 92,-0.00003612,0.05121173,-0.27994577,-0.01300080,0.01031854,0.6776135
 3,-0.00087767,-0.00093337,0.00552071,0.00016235,-0.00003586,0.00004427
 ,0.00004023,-0.00009574,-0.00034961,0.00004438,0.00000978,-0.00004998,
 -0.00018366,-0.00010967,0.00006634,0.01009436,-0.01792353,-0.07271157,
 -0.05013810,0.02352344,0.14061355,-0.00070872,0.00679505,0.00103711,-0
 .00094504,0.00150916,0.00011284,0.00000730,-0.00140704,-0.00007164,-0.
 00172284,0.00070614,0.00015782,0.00191106,0.00190433,-0.00004626,0.066
 56678,-0.03417945,-0.00639910,-0.19867759,-0.07311826,0.00756732,0.693
 44136,0.00476066,0.00038813,-0.00052007,0.00085192,0.00162250,0.000020
 98,-0.00062443,-0.00106291,-0.00004001,-0.00133793,0.00092170,0.000143
 66,0.00215712,0.00115263,-0.00005043,0.01160298,-0.05886582,-0.0039288
 2,-0.13856015,-0.28707621,0.00124227,-0.03097995,0.74491749,0.00075346
 ,-0.00086069,0.00623259,0.00009218,-0.00004983,-0.00034820,-0.00000575
 ,0.00005081,0.00033571,0.00008409,-0.00001587,0.00001578,-0.00009587,-
 0.00007122,-0.00061010,-0.00431322,-0.00017681,0.00752965,0.00489877,-
 0.00392778,-0.06406739,-0.04716338,0.02946808,0.14875929,0.00000879,-0
 .00052015,-0.00020741,-0.00120088,-0.00213474,-0.00000421,0.00060416,0
 .00192276,0.00008245,0.00197270,-0.00149876,-0.00021782,-0.00268793,-0
 .00166510,0.00009371,-0.04504383,0.02764855,0.00416756,-0.03348872,-0.
 06661277,0.00045413,-0.35067024,0.05215766,0.02635022,0.71084815,-0.00
 179236,-0.00188867,0.00019283,0.00117255,0.00114800,-0.00002932,-0.000
 10940,-0.00140424,-0.00008317,-0.00096706,0.00067168,0.00010808,0.0006
 5253,0.00068296,0.00001675,0.04236955,-0.02039878,-0.00409737,-0.02849
 417,0.04412326,0.00394615,-0.01188628,-0.13166307,-0.00196947,0.047001
 61,0.73342999,-0.00012099,0.00001626,-0.00055420,0.00016129,0.00021919
 ,-0.00005027,-0.00005669,-0.00022094,0.00001210,-0.00020989,0.00015229
 ,0.00005690,0.00027262,0.00015638,0.00012977,0.00477211,-0.00283700,-0
 .00910760,0.00207373,0.00701851,0.00682125,0.02368289,-0.00718196,-0.0
 6657003,-0.04633098,0.02184891,0.13680331,-0.00326186,0.00452891,0.001
 04953,-0.00109245,-0.00190495,0.00000058,-0.00035685,0.00070124,0.0000
 1645,0.00036260,-0.00004803,-0.00000662,0.00053461,-0.00046121,-0.0000
 8414,-0.06153376,-0.03160197,0.00419030,-0.00034808,-0.01345389,-0.001
 12129,-0.01392972,0.04050463,0.00361411,-0.17243021,0.11751402,0.01356
 214,0.77655332,-0.00120460,0.00861136,-0.00034042,-0.00372309,-0.00256
 407,0.00018557,0.00096043,0.00340999,0.00016605,0.00226635,-0.00237377
 ,-0.00029983,-0.00876956,-0.00434288,0.00010796,-0.09180054,0.03766461
 ,0.00881586,0.00179375,-0.06847615,-0.00282434,0.08476459,0.02801037,-
 0.00605441,0.04754974,-0.30649975,-0.01428814,-0.02906577,0.69364773,0
 .00108021,-0.00059988,0.00779844,-0.00002207,0.00008363,0.00006952,0.0
 0004290,0.00008310,-0.00060838,0.00004200,-0.00011074,0.00012756,-0.00
 017394,0.00000263,-0.00002276,0.00133134,0.00380747,0.00477253,-0.0003
 5824,-0.00149399,-0.00706795,0.00542120,-0.00247163,0.00724918,0.01045
 464,-0.01980866,-0.06942251,-0.05225391,0.02422739,0.15735055,-0.00794
 550,0.02653428,0.00213009,-0.14047073,0.13160941,0.01423999,0.01166657
 ,-0.01488068,-0.00126923,-0.00077156,-0.00329057,0.00041281,-0.0006748
 2,-0.00137729,-0.00007197,0.00043007,0.00060854,-0.00022545,-0.0012725
 4,0.00038348,0.00016047,0.00049206,-0.00037266,-0.00008313,0.00009727,
 0.00011765,-0.00000159,0.00012010,0.00000347,0.00000076,0.14263376,-0.
 00131670,0.00452710,0.00026026,0.13160159,-0.26401825,-0.02129388,0.01
 613621,-0.01814627,-0.00234604,-0.00369964,-0.00291783,-0.00031403,-0.
 00081261,-0.00019540,0.00008984,0.00038255,-0.00112136,0.00007606,-0.0
 0224272,-0.00151627,0.00012387,-0.00010917,-0.00000356,0.00003450,-0.0
 0002710,-0.00000207,0.00000599,0.00001978,-0.00011393,-0.00001652,-0.1
 3732368,0.28290203,0.00044498,-0.00165646,0.00119178,0.01434916,-0.021
 23679,-0.04007090,0.00035188,-0.00022765,0.00466526,0.00036866,-0.0003
 4152,0.00767943,-0.00000514,0.00019536,-0.00074873,-0.00021950,0.00002
 877,-0.00292847,-0.00002246,-0.00020809,0.00022684,-0.00004719,0.00006
 801,-0.00041244,-0.00003095,0.00001151,0.00003790,-0.00000404,-0.00004
 940,0.00019191,-0.01565648,0.02335355,0.02715650,0.00124386,-0.0025098
 1,0.00039811,-0.00913796,0.00214237,0.00112966,-0.34460113,-0.01056260
 ,0.02057221,-0.01067471,-0.00361989,0.00096911,0.00040992,0.00311957,0
 .00073854,-0.00026883,0.00068556,0.00003481,-0.00004199,-0.00014412,0.
 00000263,0.00007372,0.00006427,0.00000040,-0.00010483,0.00001499,0.000
 00819,-0.00002267,-0.00006487,0.00000073,0.00082679,0.00020053,-0.0003
 4335,0.36166607,-0.00207109,-0.00486686,-0.00057212,-0.02813350,0.0027
 8580,0.00181171,-0.01004943,-0.05863132,-0.00016781,0.02679484,0.00571
 457,-0.00190294,0.00263959,-0.00452704,-0.00091099,-0.00097315,0.00085
 492,0.00011832,-0.00001208,-0.00000761,-0.00000082,0.00001661,-0.00002
 935,-0.00000525,0.00000497,-0.00002134,-0.00000039,-0.00010161,0.00009
 138,0.00001188,0.00032416,0.00125224,0.00025850,0.01128275,0.05713395,
 0.00033172,-0.00053197,0.00845406,-0.00046864,-0.00023530,0.00545483,0
 .02059860,-0.00015868,-0.04460715,0.00270228,0.00021048,0.00580978,0.0
 0065256,-0.00098983,0.00817709,-0.00002931,0.00001977,-0.00025579,-0.0
 0000031,0.00000429,0.00006644,0.00000293,-0.00000725,0.00005193,0.0000
 0255,0.00000035,-0.00002165,-0.00000293,-0.00000222,0.00003651,-0.0003
 4534,0.00027305,-0.00419924,-0.02285332,0.00090885,0.02891060,-0.00103
 107,0.00135312,0.00011992,-0.00143664,0.00326713,0.00080167,0.01171881
 ,0.01714012,0.00043316,-0.11186739,-0.11337731,-0.00126992,-0.00657795
 ,-0.02864121,-0.00101648,0.00012228,-0.00012356,-0.00010713,-0.0000617
 2,0.00004487,0.00001068,0.00001228,-0.00005521,-0.00000686,0.00003355,
 -0.00002632,-0.00000434,0.00005941,0.00004996,-0.00000709,0.00045061,0
 .00084297,0.00000470,0.00084855,-0.00067794,-0.00037844,0.11297939,0.0
 0101365,0.00007504,-0.00003371,0.00349992,-0.00228611,-0.00079819,-0.0
 1333493,-0.01615617,-0.00020784,-0.11419933,-0.29447100,-0.00657591,0.
 00259242,0.00192748,-0.00014539,-0.00001981,0.00015557,0.00008668,0.00
 001258,-0.00010464,-0.00000843,0.00001028,0.00004227,0.00000347,-0.000
 04190,-0.00000076,0.00000466,-0.00000611,-0.00002338,0.00000151,-0.000
 71475,-0.00073713,0.00001637,-0.00017494,0.00118005,0.00030634,0.12101
 291,0.30795259,0.00012677,-0.00006688,-0.00052477,0.00083145,-0.000763
 59,0.00728013,-0.00130771,-0.00233277,0.00385511,-0.00126252,-0.006628
 32,-0.03799658,0.00062966,0.00202635,0.00152206,-0.00012648,0.00005526
 ,-0.00128757,0.00000282,-0.00000029,0.00006435,-0.00001526,0.00000491,
 -0.00005314,-0.00000020,-0.00001097,-0.00001418,-0.00000050,0.00001304
 ,-0.00003849,-0.00008198,-0.00010072,-0.00005930,-0.00034941,0.0003393
 0,-0.00393557,0.00081128,0.00751152,0.02637335,0.00016456,-0.00394065,
 0.00039684,-0.00035823,-0.00085279,-0.00005477,-0.00526630,-0.00178097
 ,0.00072388,-0.01060598,0.02469124,0.00252857,-0.16067781,0.14342847,0
 .01618380,0.00090955,-0.00088344,-0.00004303,-0.00019364,-0.00013035,-
 0.00001129,0.00004120,-0.00005411,-0.00001400,0.00000274,0.00001419,-0
 .00000703,-0.00005307,-0.00024621,0.00000345,0.00013519,0.00011457,-0.
 00009223,-0.00056109,0.00129219,0.00008645,0.00083320,-0.00012452,-0.0
 0028358,0.16673708,-0.00367017,-0.00125198,-0.00030147,-0.00002696,0.0
 0008473,0.00003265,-0.00141249,0.00080638,-0.00024363,-0.00415981,0.00
 647474,0.00024210,0.13712834,-0.23823170,-0.02022071,0.00140838,-0.000
 60570,-0.00015615,-0.00040650,-0.00023922,0.00003464,0.00011182,-0.000
 05414,-0.00000751,-0.00005547,0.00000735,0.00000664,0.00001099,-0.0003
 1645,-0.00000629,0.00017052,0.00000879,0.00006348,-0.00029424,0.000263
 52,0.00007065,0.00023309,0.00048547,0.00019785,-0.14156415,0.26078035,
 0.00042915,-0.00039113,0.00900384,-0.00010317,0.00009147,-0.00055711,0
 .00078035,-0.00015701,0.00711671,0.00106603,-0.00176558,0.00687886,0.0
 1564591,-0.02059296,-0.04349340,0.00010899,-0.00001590,0.00069417,-0.0
 0003294,-0.00000588,-0.00015082,0.00000067,0.00000688,-0.00008582,-0.0
 0001198,0.00000409,-0.00002078,-0.00000077,-0.00001699,-0.00001124,-0.
 00009765,0.00006473,-0.00135926,-0.00002044,-0.00003701,-0.00061182,-0
 .00028357,0.00022721,-0.00339284,-0.01724062,0.02262120,0.02883040,-0.
 00119636,-0.00047669,-0.00018120,-0.00063477,-0.00195602,-0.00008597,0
 .00027169,-0.00019139,-0.00006641,-0.00001280,-0.00007685,-0.00000495,
 -0.00007154,-0.00007829,0.00001401,-0.00860809,-0.00166234,0.00075530,
 -0.34620857,0.02314739,0.02593964,-0.01221211,0.00361376,0.00154478,0.
 00042814,-0.00307614,0.00045357,0.00060296,-0.00013624,-0.00011537,0.0
 0042062,-0.00234925,-0.00001945,0.00000117,0.00001720,-0.00000052,0.00
 002046,-0.00002564,0.00000567,0.00000281,0.00001760,0.00000231,0.36608
 822,-0.00024542,0.00049702,0.00018963,0.00064456,-0.00209346,-0.000272
 00,-0.00045019,0.00017382,0.00006095,0.00005195,0.00010770,-0.00000372
 ,-0.00009881,0.00007934,0.00000486,0.02621859,0.00516759,-0.00200683,0
 .02321987,-0.05866229,-0.00284497,-0.02751669,0.00568449,0.00226892,-0
 .00265785,-0.00412065,-0.00031564,-0.00070172,-0.00147825,0.00001456,-
 0.00191247,-0.00200460,0.00009110,0.00004198,0.00002817,0.00000152,-0.
 00003905,0.00005674,0.00000281,0.00000461,0.00003631,0.00000127,-0.019
 64468,0.05999561,-0.00015544,0.00019825,-0.00293221,0.00012538,0.00003
 588,0.00024190,-0.00007053,0.00002759,-0.00041480,-0.00001164,0.000011
 91,0.00003948,0.00002594,0.00001495,0.00019303,0.00188376,0.00044819,0
 .00120046,0.02591518,-0.00298283,-0.04025067,0.00020209,-0.00019603,0.
 00467536,0.00046136,-0.00026012,0.00767943,-0.00017613,-0.00009197,-0.
 00074824,-0.00003655,0.00002404,0.00087545,-0.00000134,0.00000168,-0.0
 0004178,0.00000284,-0.00000032,0.00008953,0.00000263,-0.00000074,0.000
 02191,-0.02843880,0.00322678,0.02731262,0.00073126,-0.00044478,-0.0000
 9238,0.00004781,0.00003483,0.00000357,-0.00004013,-0.00004280,0.000004
 24,-0.00004697,0.00003410,0.00000379,0.00013424,-0.00001894,-0.0000084
 8,-0.00164891,-0.00360034,0.00066911,0.01105624,-0.01774789,-0.0012428
 4,-0.11225695,0.11216456,0.01071059,-0.00737232,0.02844261,0.00236085,
 -0.00582771,-0.00065320,0.00116096,-0.00000197,0.00001600,-0.00000180,
 0.00000161,-0.00000349,-0.00000012,-0.00000295,-0.00000053,-0.00000094
 ,-0.00001649,-0.00002351,0.00000219,0.00095437,0.00045049,-0.00040420,
 0.11382437,0.00121147,-0.00014392,-0.00008668,-0.00009340,-0.00009828,
 0.00000057,0.00000320,0.00008344,0.00000207,0.00004494,-0.00007809,-0.
 00000631,0.00001937,-0.00006761,-0.00000602,-0.00403830,-0.00197188,-0
 .00016580,0.01261058,-0.01719731,-0.00204132,0.11157630,-0.29063728,-0
 .02026368,-0.00189819,0.00243654,0.00000055,-0.00018244,0.00171568,-0.
 00028409,0.00004231,0.00002930,0.00000058,-0.00001459,-0.00000780,0.00
 000048,-0.00000403,-0.00000739,0.00000002,-0.00001582,-0.00003574,-0.0
 0000274,0.00028242,0.00107879,0.00022133,-0.11883655,0.30445683,-0.000
 02032,0.00001798,-0.00025735,-0.00000885,-0.00000528,0.00006712,0.0000
 0815,0.00000203,0.00005210,0.00000255,-0.00000419,-0.00002187,-0.00000
 208,0.00000188,0.00003671,0.00058580,-0.00012012,0.00845205,0.00006577
 ,0.00037853,0.00545535,0.01071735,-0.02027586,-0.04499810,0.00106605,-
 0.00257780,0.00578424,0.00119958,-0.00015351,0.00816906,-0.00000020,-0
 .00000039,-0.00004101,-0.00000079,-0.00000030,0.00000092,-0.00000081,0
 .00000039,-0.00001252,0.00000592,-0.00000222,0.00003133,-0.00040809,0.
 00020827,-0.00420349,-0.01246107,0.02218038,0.02932506,0.00021145,0.00
 003087,-0.00012917,-0.00012134,-0.00002285,0.00001408,0.00005468,0.000
 03539,-0.00000572,0.00003769,-0.00004415,-0.00000608,-0.00002708,-0.00
 005180,-0.00000478,-0.00114782,0.00095957,0.00009639,-0.00490254,0.001
 66235,0.00110508,-0.01168798,-0.02561225,0.00020513,-0.16094411,-0.139
 99008,0.00424393,0.01089229,0.01179085,-0.00024602,0.00008128,0.000000
 67,0.00000039,-0.00000499,-0.00000151,-0.00000085,0.00000471,-0.000006
 56,0.00000288,-0.00000255,-0.00000667,0.00000013,-0.00053958,-0.001231
 74,-0.00002033,0.00143642,0.00014080,-0.00045988,0.16574270,-0.0000765
 0,0.00006891,0.00006444,0.00001483,-0.00004711,-0.00000520,-0.00003302
 ,-0.00000020,0.00000448,-0.00002576,-0.00000222,0.00000159,0.00000632,
 0.00005851,0.00000671,0.00129844,0.00018553,-0.00008227,0.00143932,0.0
 0118008,-0.00039110,0.00486708,0.00723881,-0.00027057,-0.13917849,-0.2
 4578893,0.00269476,-0.01945448,-0.01541840,0.00085802,-0.00001012,0.00
 000180,-0.00000317,-0.00000493,-0.00000580,0.00000057,-0.00000592,-0.0
 0000173,-0.00000187,0.00000604,-0.00000240,-0.00000002,0.00032450,0.00
 024430,-0.00000909,-0.00032571,0.00058203,0.00023272,0.14869271,0.2554
 7711,-0.00010864,0.00009298,-0.00128622,-0.00000039,-0.00000844,0.0000
 6399,-0.00001227,0.00001595,-0.00005288,0.00001281,0.00000379,-0.00001
 442,-0.00001469,-0.00000738,-0.00003831,0.00013086,-0.00007940,-0.0005
 3022,0.00109134,-0.00043003,0.00727304,0.00149506,0.00229495,0.0038717
 0,0.00428074,0.00268995,-0.03797708,-0.00161971,-0.00162620,0.00151028
 ,-0.00000179,-0.00000593,0.00008961,-0.00000043,0.00000075,-0.00001250
 ,0.00000259,-0.00000183,0.00003984,0.00000182,0.00000052,0.00001000,0.
 00005563,0.00012456,-0.00005815,-0.00046098,0.00019590,-0.00392527,-0.
 00525188,-0.00257222,0.02635381,-0.00049192,0.00066871,0.00012064,-0.0
 0000556,-0.00030706,-0.00003472,-0.00005717,0.00005847,-0.00000058,0.0
 0002340,-0.00004410,-0.00000868,-0.00016107,-0.00004938,0.00000612,0.0
 0219115,-0.00260456,0.00044793,0.00035127,0.00034924,-0.00005729,0.000
 80436,0.00177405,0.00057490,-0.00564155,-0.00158766,0.00094263,-0.3369
 4981,0.04401240,0.02612285,0.00002127,0.00002549,0.00000199,-0.0000152
 9,-0.00002276,0.00000440,-0.00000206,-0.00000607,0.00000037,-0.0000126
 1,-0.00001028,0.00000071,-0.00008266,0.00005874,-0.00009988,-0.0003248
 6,-0.00017118,-0.00002304,0.00054631,0.00005678,-0.00030898,0.35712829
 ,-0.00162510,0.00079700,0.00010641,-0.00003432,-0.00042675,-0.00000716
 ,-0.00010677,0.00004563,0.00001506,0.00002561,-0.00001441,0.00000347,-
 0.00030379,-0.00020410,-0.00000240,-0.00287218,-0.00327320,-0.00029581
 ,-0.00048189,-0.00062689,0.00003544,0.00141417,-0.00524032,-0.00062606
 ,0.02725144,0.00160194,-0.00243335,0.05028402,-0.06164728,-0.00504633,
 0.00001350,0.00001944,-0.00000169,-0.00001552,-0.00003703,-0.00000450,
 0.00000601,-0.00000295,-0.00000179,-0.00004437,-0.00004093,-0.00000515
 ,0.00000115,0.00022411,0.00006375,0.00141225,0.00003079,-0.00010829,-0
 .00026382,0.00078268,0.00020090,-0.04122246,0.07020877,0.00006047,-0.0
 0009018,0.00069385,-0.00001205,0.00003029,-0.00015044,-0.00000509,-0.0
 0000012,-0.00008572,-0.00000684,0.00000670,-0.00002096,0.00001160,0.00
 000772,-0.00001066,0.00053953,-0.00028560,0.00899447,-0.00014126,0.000
 06071,-0.00055346,0.00050798,-0.00071723,0.00710735,0.00227153,-0.0001
 7454,0.00686084,0.02623447,-0.00438859,-0.04377551,-0.00000045,-0.0000
 0206,0.00002229,0.00000291,-0.00000090,0.00003134,-0.00000012,-0.00000
 029,0.00001001,0.00000569,0.00000183,-0.00001127,-0.00010432,0.0000698
 5,-0.00135809,0.00003139,0.00004133,-0.00061194,-0.00033317,0.00017594
 ,-0.00339160,-0.02874703,0.00501431,0.02901610,-0.01509337,-0.02888826
 ,0.00109821,0.00653265,-0.00046738,-0.00025425,-0.00154576,-0.00329189
 ,-0.00007838,-0.00079232,0.00152694,0.00015336,0.01813241,0.00912420,-
 0.00014210,-0.27087125,-0.00861299,0.01571120,-0.03448994,0.08386649,0
 .00776938,-0.06117586,-0.03198928,0.00289139,0.06643560,-0.04755499,-0
 .00576325,-0.19684671,-0.09795453,0.00777338,0.00023328,0.00024782,-0.
 00001959,-0.00010225,-0.00039178,-0.00005878,-0.00003558,-0.00002985,0
 .00001596,0.00072009,0.00057850,0.00000615,0.00067504,0.00373743,0.000
 80030,-0.00054572,-0.00037036,-0.00022850,0.00022484,0.00281747,0.0007
 0378,-0.01797725,-0.03491086,-0.00038446,0.65799014,-0.09937184,0.0230
 2787,0.00647878,-0.00009264,-0.00511177,-0.00043692,-0.00236910,-0.000
 61818,0.00007788,-0.00136113,0.00017481,0.00007107,-0.04403701,-0.0194
 8351,0.00064833,-0.00993829,-0.09140462,-0.00222847,0.03611898,0.02878
 135,-0.00254283,-0.03424067,-0.01068215,0.00274503,0.01155286,-0.07376
 539,-0.00489183,-0.11851339,-0.22758904,0.00170925,-0.00011975,0.00019
 906,0.00007800,-0.00021453,-0.00045322,0.00001471,-0.00007824,-0.00005
 574,-0.00004081,-0.00173562,-0.00171514,-0.00005040,0.00239207,-0.0057
 8055,-0.00080045,-0.00044230,0.00016741,0.00017569,0.00402556,-0.00485
 587,-0.00088892,-0.00215793,0.00266652,0.00025583,-0.03824042,0.847356
 06,-0.00018326,0.00194114,-0.00058119,-0.00038770,-0.00029164,0.001758
 51,0.00007451,0.00023353,0.00047847,0.00008734,-0.00013905,-0.00008739
 ,-0.00117154,-0.00040623,-0.00049661,0.01760493,-0.00169575,-0.0739329
 3,0.00509550,-0.00659427,0.01482188,0.00290579,0.00226814,-0.00877115,
 -0.00303595,0.00016360,0.01702009,0.00591505,-0.00033610,-0.06675555,-
 0.00003109,-0.00000925,-0.00011645,-0.00002102,0.00002368,-0.00023652,
 -0.00000080,-0.00000478,0.00008361,-0.00001584,-0.00005306,0.00005400,
 0.00066152,-0.00081291,0.00769705,-0.00020498,0.00016847,-0.00267901,0
 .00079286,-0.00073321,0.00799986,0.00124149,0.00295906,-0.00189432,-0.
 03804125,0.01555305,0.13095351,-0.12270957,0.06809431,0.00896498,-0.03
 452293,0.03613414,0.00560535,0.00566705,0.00097983,-0.00098158,-0.0284
 7722,-0.03845317,0.00121440,-0.13185900,-0.08423624,0.00119391,0.06807
 322,-0.05611352,-0.00522451,-0.00235005,-0.00477950,0.00022400,0.00151
 548,-0.00075617,-0.00011934,-0.00010061,-0.00100337,0.00000459,0.00313
 377,-0.05248313,-0.00081969,-0.00689192,-0.00161791,0.00095994,0.00034
 664,0.00003152,-0.00023967,-0.00658720,0.00044672,0.00100517,0.0134520
 1,0.01437896,-0.00029765,0.00013756,-0.00015021,-0.00007299,-0.0001268
 5,-0.00022665,-0.00004055,-0.00000727,-0.00006346,0.00004224,-0.000713
 61,-0.00251579,0.00003955,0.15927522,-0.38707141,-0.00972357,0.8414561
 9,0.06944480,-0.23931513,-0.01298282,0.08388798,0.02875348,-0.00506320
 ,0.00326542,-0.07750538,-0.00399508,-0.09757809,0.02114011,0.00671613,
 -0.06364762,-0.29276895,-0.00864524,0.01479567,-0.05979355,-0.00408943
 ,-0.00515100,0.00376045,0.00047240,-0.00167925,-0.00367366,-0.00003620
 ,0.00188860,-0.00051301,-0.00017480,0.00119811,-0.00452762,-0.00020162
 ,-0.00027080,0.00180757,-0.00035475,0.00010290,-0.00072260,0.00012314,
 -0.00076630,0.00194865,-0.00023735,-0.01839083,-0.02881898,-0.00003108
 ,0.00021519,0.00027362,0.00000180,-0.00040536,-0.00042841,0.00004298,-
 0.00001469,-0.00008492,0.00000946,-0.00017824,-0.00028673,0.00002257,0
 .01663060,-0.03621782,-0.00145399,0.05728848,0.66742694,0.00930091,-0.
 01463728,-0.07385852,0.00803932,-0.00120501,0.01489657,-0.00056811,-0.
 00379389,-0.00880849,-0.00216774,0.00240567,0.01707263,0.00208810,-0.0
 0647132,-0.06688940,-0.00159273,-0.00106565,-0.00063088,0.00003401,0.0
 0044833,0.00176616,-0.00017502,-0.00020554,0.00047505,0.00017595,-0.00
 001208,-0.00008830,-0.00018198,0.00116989,-0.00049168,0.00092111,-0.00
 023524,0.00770308,-0.00021836,0.00010947,-0.00268487,0.00091798,-0.000
 37519,0.00800685,-0.00198459,-0.00245550,-0.00199323,-0.00000645,0.000
 03226,-0.00011411,-0.00003378,0.00000537,-0.00023674,0.00000363,0.0000
 0117,0.00008388,0.00003672,0.00003458,0.00005585,-0.00299194,0.0086893
 7,0.00117914,-0.02886810,0.02813722,0.13089047,-0.13283216,0.05416848,
 0.00850016,-0.00050679,-0.00218331,-0.00050986,-0.00247884,0.00171400,
 0.00028727,0.00303421,0.00166478,-0.00055352,-0.09310155,-0.05358612,0
 .00096603,-0.10028279,0.09889730,0.00773368,-0.00252392,0.00126451,0.0
 0023871,-0.00154606,0.00066426,0.00007618,-0.00077267,-0.00149775,-0.0
 0017206,0.00128375,0.08610747,0.00088035,0.00066984,-0.00006372,-0.000
 03922,0.00009594,0.00007776,0.00002935,0.00074018,0.00009491,-0.000029
 50,-0.00328004,-0.00114113,0.00005926,-0.00011714,0.00042439,0.0001541
 1,0.00000366,-0.00006131,0.00001945,0.00018000,-0.00036143,-0.00008529
 ,0.00097901,0.00278242,-0.00001134,-0.29990178,0.63419921,0.01654376,-
 0.68786819,-0.05612470,0.01617205,1.62188821,0.08114343,-0.01931915,-0
 .00399735,0.00232071,-0.00300816,-0.00054143,0.00016449,-0.00029015,0.
 00007339,0.00050471,-0.00068557,-0.00013420,0.03569998,0.01816074,-0.0
 0019393,0.07159649,-0.05224081,-0.00569881,-0.00324425,-0.00099408,0.0
 0070472,0.00220726,-0.00123751,-0.00030580,-0.00034717,0.00311335,0.00
 057561,-0.00381042,-0.07643420,-0.00100190,0.00084431,0.00007116,-0.00
 018857,-0.00001182,0.00001235,-0.00000467,-0.00006620,0.00003997,0.000
 07442,0.00052377,0.00183272,0.00007780,-0.00048444,0.00086316,0.000134
 65,0.00002997,0.00010476,-0.00002255,-0.00019755,0.00059893,-0.0000047
 8,0.00114154,-0.00247464,-0.00010784,0.14707548,-0.37902265,-0.0106624
 0,0.43181867,0.00550944,-0.00905172,-0.74389376,0.83305159,0.04916776,
 -0.01358994,-0.00257498,0.00198641,-0.00046475,0.00315313,0.00046304,-
 0.00069476,-0.00049876,0.00047194,0.00064726,0.00345410,0.03367948,0.0
 1388123,0.00147898,0.03513114,-0.03726434,-0.00267810,0.00134572,-0.00
 156461,0.00315814,0.00083110,-0.00007358,-0.00049732,-0.00035918,-0.00
 075925,0.00345926,0.00343810,-0.03655555,0.00139012,0.00029542,-0.0000
 6363,0.00016689,0.00005184,0.00003614,-0.00053130,0.00024351,0.0001014
 4,-0.00007184,0.00059350,0.00152966,-0.00134833,0.00020416,-0.00023919
 ,0.00015863,-0.00000962,-0.00005724,-0.00053364,0.00002130,-0.00026364
 ,-0.00007456,-0.00106513,-0.00125368,-0.00135744,0.11434581,-0.2689968
 0,-0.03940043,0.29257588,0.02452489,-0.03891103,-0.54414560,0.32743118
 ,0.61506276,0.00000724,-0.00070204,0.00012248,0.00004167,0.00006998,-0
 .00031607,0.00010882,-0.00022860,0.00001201,-0.00034751,0.00024780,-0.
 00023578,0.00079249,0.00044578,-0.00001741,0.00043224,0.00051276,0.000
 28393,-0.00006311,-0.00024699,-0.00017099,0.00028499,0.00008285,-0.000
 00645,-0.00034913,0.00023391,-0.00001617,-0.00003655,-0.00047192,-0.00
 014393,0.00001237,0.00000569,-0.00002087,0.00001221,-0.00000367,0.0000
 3141,0.00002605,-0.00000487,0.00002988,0.00005949,0.00003052,0.0000805
 7,0.00000280,-0.00000291,-0.00001123,-0.00000266,-0.00000699,0.0000082
 1,-0.00000228,-0.00000123,0.00002185,-0.00003675,-0.00007239,-0.000036
 69,-0.00027741,0.00252844,0.00271463,-0.00453792,-0.00007917,0.0068204
 3,-0.08466687,-0.00064752,0.03328398,0.13144016,0.00028718,0.00035459,
 -0.00025836,-0.00019681,-0.00016170,0.00002573,-0.00001024,0.00021225,
 0.00001530,0.00023784,-0.00010080,-0.00010506,-0.00005507,-0.00005689,
 0.00019788,-0.00047384,-0.00005038,0.00002353,0.00000690,-0.00004721,0
 .00026554,-0.00014158,0.00003384,-0.00001895,0.00023664,-0.00010231,0.
 00026072,0.00008412,0.00071326,-0.00011068,0.00000394,0.00000360,0.000
 00127,0.00000035,-0.00000856,0.00000705,0.00001311,-0.00000539,-0.0000
 0910,-0.00002942,-0.00005980,0.00008378,-0.00000232,0.00001623,0.00001
 741,-0.00001307,0.00000743,-0.00003086,-0.00001888,0.00002482,-0.00002
 035,-0.00004573,-0.00000745,-0.00013823,0.00215739,-0.00316150,-0.0062
 3240,0.00031968,0.00102485,0.00050451,-0.00060685,-0.08548610,-0.02002
 865,-0.00125549,0.13015099,0.00213116,-0.00152347,0.00029591,-0.000947
 73,-0.00027852,0.00012846,-0.00083533,0.00075027,0.00001715,0.00038791
 ,-0.00039848,0.00010129,0.00018137,0.00135998,0.00052744,0.00234620,-0
 .00114008,0.00029941,-0.00020090,0.00097093,0.00011689,-0.00105793,0.0
 0038520,0.00001406,0.00050751,-0.00015883,0.00010080,-0.00115067,-0.00
 085734,0.00050107,-0.00023754,0.00009615,0.00004775,-0.00013719,0.0000
 0730,-0.00000069,-0.00026905,-0.00012309,0.00004123,0.00083854,0.00026
 869,-0.00004985,-0.00021310,0.00017625,0.00005964,-0.00006952,0.000115
 95,0.00000150,-0.00000988,0.00029524,0.00004621,0.00011361,-0.00086296
 ,-0.00004956,0.00664136,-0.01720267,-0.00430635,0.01840353,0.00217772,
 -0.00429341,0.01806494,-0.01090076,-0.15212457,-0.03280058,0.01977644,
 1.12655825,-0.00399175,0.00040939,-0.00012797,0.00087205,0.00113952,0.
 00028637,0.00103784,-0.00085485,-0.00014300,-0.00061184,-0.00117130,0.
 00024999,-0.00320965,0.00035515,0.00003703,-0.00332995,0.00205547,0.00
 001736,0.00027109,-0.00096649,0.00002267,0.00075891,0.00008376,-0.0000
 4000,-0.00110209,-0.00057606,0.00014516,0.00316574,0.00180709,-0.00024
 919,0.00000535,-0.00010994,-0.00000230,0.00011009,-0.00003288,-0.00004
 279,-0.00005639,0.00011331,-0.00000086,-0.00106605,-0.00112998,-0.0001
 0763,0.00017278,-0.00018481,-0.00002575,0.00001052,-0.00009649,-0.0000
 2102,0.00009002,-0.00036955,-0.00004933,0.00058093,-0.00040384,0.00025
 028,-0.00927137,0.01368330,0.00031943,-0.03766590,-0.00554495,-0.00118
 524,-0.13198797,-0.00495562,0.02171399,-0.00150757,-0.00130733,-0.0596
 4835,1.06747326,-0.00380802,-0.00242124,-0.00008684,-0.00002286,0.0012
 0799,0.00025548,0.00030747,-0.00014613,-0.00005281,0.00004800,0.000225
 05,0.00022253,0.00281226,0.00098466,-0.00009456,-0.00034721,0.00100747
 ,-0.00013380,0.00001572,-0.00048099,0.00003680,0.00046791,0.00007981,-
 0.00001972,-0.00059136,0.00020441,0.00014626,0.00169352,-0.00087446,-0
 .00012481,-0.00024393,-0.00007346,0.00004858,0.00001447,-0.00003597,-0
 .00003454,0.00011525,0.00004296,-0.00003597,0.00056694,-0.00017275,-0.
 00011943,0.00004979,-0.00006700,-0.00001183,-0.00002707,-0.00001123,-0
 .00001958,0.00000466,-0.00005786,-0.00001131,0.00117046,-0.00184687,0.
 00018209,-0.00018534,0.00610034,-0.00005412,-0.01127506,0.01528366,-0.
 00047329,0.01599844,-0.09093714,0.00818407,-0.00125460,0.00213477,-0.0
 1499787,0.24932811,0.20158759,-0.00062327,-0.00086856,-0.00001929,-0.0
 0019827,0.00045744,-0.00116180,0.00009702,-0.00003897,0.00021024,-0.00
 022742,-0.00019500,-0.00138062,-0.00022981,0.00095461,-0.00042354,-0.0
 0020563,-0.00024716,0.00057812,0.00012365,0.00007288,-0.00006049,-0.00
 002156,-0.00006485,-0.00001076,0.00010807,-0.00004203,-0.00002321,-0.0
 0001841,0.00019855,-0.00006334,-0.00012200,-0.00000687,-0.00011564,0.0
 0000580,-0.00001402,0.00020329,-0.00008374,-0.00000611,0.00004331,0.00
 011136,-0.00017200,0.00054741,0.00001575,-0.00003505,0.00000714,0.0000
 1387,0.00000234,0.00000388,0.00000554,-0.00002052,-0.00002237,0.000077
 21,0.00015528,0.00030907,0.00002398,0.00062617,0.00077965,-0.00403372,
 -0.00027254,0.01573528,0.02768562,0.00819227,-0.08569375,-0.03079838,-
 0.00894521,-0.00777177,0.03386022,0.00873315,0.12979521,-0.00065144,0.
 00109167,0.00013787,0.00007902,-0.00009668,-0.00002729,0.00001110,0.00
 007470,-0.00000114,0.00041062,0.00017058,-0.00006114,-0.00141530,-0.00
 061918,0.00000124,-0.00136935,-0.00242219,-0.00000500,0.00067331,-0.00
 013806,-0.00008557,0.00034571,-0.00005953,-0.00002032,0.00050704,0.000
 63891,-0.00006634,-0.00120925,0.00389923,0.00014310,0.00003792,-0.0000
 1763,-0.00000031,0.00004785,-0.00001241,0.00000762,0.00012831,0.000022
 26,-0.00001235,-0.00154690,-0.00010664,-0.00001896,0.00009562,-0.00020
 272,-0.00005074,0.00000270,-0.00004200,0.00000863,-0.00007455,0.000105
 64,0.00003378,-0.00012069,0.00104419,0.00004079,0.01072651,0.01428646,
 -0.00013833,-0.00280851,0.00317577,0.00019201,-0.10465915,0.03048574,0
 .00289068,0.00239598,0.00075440,-0.01477868,0.01860133,-0.02812430,0.0
 0242825,0.18521759,0.00349175,-0.00168231,0.00002094,-0.00106182,-0.00
 027660,-0.00003300,-0.00032122,0.00082430,0.00004747,0.00021834,-0.001
 28641,-0.00019913,-0.00062614,0.00369102,0.00021784,0.00177577,-0.0050
 6381,0.00016291,0.00104309,0.00141585,-0.00038186,-0.00122925,0.000545
 28,0.00015391,-0.00058615,-0.00088521,-0.00033789,0.00133209,-0.001085
 06,-0.00003994,-0.00024102,0.00005737,0.00002031,-0.00008147,-0.000043
 12,0.00002693,-0.00035370,-0.00008759,0.00004474,-0.00170251,0.0004174
 2,-0.00025606,-0.00007788,-0.00015113,-0.00001684,-0.00008668,0.000068
 58,0.00005672,0.00010989,0.00005851,0.00002003,-0.00066858,-0.00106318
 ,0.00017727,0.02000137,-0.03309368,0.00125138,0.01716804,-0.00034631,-
 0.00022214,0.00946076,-0.11808212,-0.02291080,0.00078111,-0.00160490,0
 .05971410,-0.05320771,-0.02465335,-0.00327171,-0.21823257,1.08374866,0
 .00011868,0.00027621,0.00058155,-0.00000472,-0.00013703,-0.00006229,0.
 00004067,0.00004341,-0.00001027,0.00007789,-0.00005463,-0.00002139,-0.
 00016890,-0.00014771,0.00000041,0.00048049,0.00095952,-0.00001307,-0.0
 0050019,-0.00002901,-0.00116468,0.00008095,-0.00007225,0.00020985,0.00
 007171,0.00030885,-0.00138112,-0.00096078,-0.00023296,-0.00042774,0.00
 003722,0.00000287,0.00000702,0.00000286,-0.00001182,0.00000426,0.00001
 993,0.00000365,-0.00002135,-0.00012810,-0.00011725,0.00026631,-0.00005
 163,0.00011257,-0.00011402,0.00001539,0.00000021,0.00020385,-0.0000337
 7,0.00007804,0.00004412,0.00020610,-0.00002191,0.00054783,-0.00162155,
 0.00367046,0.01576351,-0.00054747,-0.00029321,0.00079272,0.00574215,-0
 .02830804,-0.08577279,-0.00655933,0.03136889,-0.00766515,0.00393364,-0
 .00068462,0.00361722,0.00865782,-0.03454135,0.12957239,-0.00027198,0.0
 0028821,-0.00007549,0.00001312,-0.00001937,0.00007807,-0.00002457,0.00
 003553,-0.00000488,0.00007571,-0.00004178,0.00008147,-0.00033068,-0.00
 021507,-0.00011803,-0.00025722,0.00008304,-0.00008106,0.00000275,0.000
 05755,0.00003379,-0.00006767,-0.00001486,0.00000446,0.00007370,-0.0000
 5619,0.00003405,0.00000098,0.00028492,0.00000563,0.00000047,-0.0000013
 7,0.00000632,-0.00000218,0.00000113,-0.00001312,-0.00000274,0.00000097
 ,-0.00000670,-0.00000205,0.00000521,-0.00003430,-0.00000134,0.00000245
 ,0.00000307,-0.00000160,0.00000128,-0.00000678,-0.00000113,0.00000460,
 -0.00000525,0.00000002,0.00000577,-0.00001034,-0.00044738,0.00078825,-
 0.00054858,-0.00042985,-0.00013516,-0.00143825,0.03136393,-0.00115858,
 -0.00572048,-0.05474025,0.00000547,0.02192379,0.00115892,0.00037370,0.
 00588161,-0.00047122,0.00005351,0.00106498,0.02753383,0.00007270,-0.00
 006244,0.00005338,0.00006369,0.00002325,0.00000312,0.00000777,-0.00005
 722,-0.00000775,-0.00005539,0.00002267,0.00000418,0.00010721,0.0000396
 1,-0.00006670,0.00029533,-0.00007637,0.00004101,-0.00002509,0.00003336
 ,-0.00006996,0.00001354,-0.00001387,0.00000767,-0.00004291,0.00002543,
 -0.00007430,-0.00004089,-0.00029651,0.00013168,0.00000302,-0.00000056,
 -0.00000010,0.00000096,-0.00000036,0.00000080,0.00000383,0.00000161,0.
 00000248,0.00000495,0.00000607,-0.00000666,-0.00000200,0.00000084,-0.0
 0000556,0.00000143,-0.00000101,0.00001130,0.00000164,0.00000022,0.0000
 0474,0.00000622,0.00000234,0.00003228,-0.00014399,-0.00007747,0.001340
 68,0.00079434,-0.00010380,-0.00014038,-0.00115294,0.03014547,0.0034428
 4,0.00000618,-0.05474171,-0.01318368,0.00091605,-0.00025025,0.00191717
 ,-0.00048914,0.00137674,-0.00609201,-0.00002051,0.02752167,0.00833727,
 -0.00177849,-0.00050637,0.00073109,0.00006057,-0.00017612,0.00051458,-
 0.00042908,-0.00002419,-0.00003391,0.00033797,-0.00015950,0.00649279,0
 .00203726,-0.00019561,0.00547117,-0.00656976,-0.00052286,0.00028730,-0
 .00067612,-0.00016892,0.00062217,-0.00025074,-0.00002221,-0.00030373,-
 0.00012802,-0.00016051,0.00128937,-0.00671093,-0.00020418,0.00017630,-
 0.00005756,-0.00004256,0.00009356,-0.00000364,0.00001805,0.00019256,0.
 00007864,-0.00003054,-0.00029299,0.00008712,0.00004352,0.00014412,-0.0
 0013579,-0.00005124,0.00004554,-0.00007981,0.00001681,0.00001586,-0.00
 020653,-0.00003319,-0.00019919,0.00020181,0.00003499,0.01890208,-0.043
 17191,0.00180969,0.04719403,0.00345083,0.00186987,-0.10511610,0.063267
 13,-0.04732519,0.02207518,-0.01329016,-0.94155060,0.03305058,0.0084869
 6,0.00463192,0.00800469,-0.03313862,0.00456034,-0.02140203,0.01286266,
 1.02734752,-0.00773869,-0.00003018,0.00043568,-0.00102639,0.00014343,-
 0.00006859,-0.00058168,0.00040303,0.00007086,-0.00029278,-0.00001044,-
 0.00012621,-0.00538386,-0.00081066,0.00016372,-0.00473984,0.00539528,0
 .00049984,-0.00009144,0.00096038,-0.00002548,-0.00065306,-0.00010436,0
 .00003340,0.00112762,0.00045459,-0.00012949,-0.00284519,0.00575138,0.0
 0025182,-0.00028788,0.00007039,0.00001719,-0.00011629,0.00001817,0.000
 03044,-0.00024388,-0.00010877,0.00001717,0.00044443,0.00011553,0.00005
 144,-0.00012726,0.00009806,0.00001575,0.00001512,0.00009015,0.00001078
 ,-0.00005810,0.00026610,0.00003091,-0.00010061,0.00111764,-0.00013913,
 -0.01620803,0.04371002,0.00121881,-0.04528642,-0.00215064,0.00234960,0
 .00982326,-0.09286192,-0.05700778,0.00191245,0.00048286,0.03313790,-0.
 89059318,-0.23128748,-0.03623126,-0.00753652,0.03074868,-0.00251970,-0
 .00014792,-0.00048815,-0.02671933,0.96697046,-0.00114747,0.00056387,0.
 00010760,-0.00021016,-0.00021592,-0.00006980,-0.00017765,0.00007331,0.
 00002636,-0.00015942,-0.00017230,-0.00008048,-0.00262601,-0.00033652,0
 .00009024,-0.00122627,0.00139392,0.00013563,-0.00004914,0.00030725,-0.
 00000507,-0.00024019,-0.00003871,0.00001116,0.00032957,0.00009765,-0.0
 0006279,-0.00098334,0.00199184,0.00021017,-0.00001241,0.00003422,-0.00
 001115,-0.00003184,0.00001584,0.00001483,-0.00012050,-0.00003466,0.000
 01624,-0.00012108,0.00003080,0.00004390,-0.00003641,0.00003929,0.00000
 699,0.00000851,0.00002513,0.00000703,-0.00002043,0.00007787,0.00001154
 ,-0.00026704,0.00038966,-0.00014159,-0.00450016,0.01019730,0.00028723,
 -0.01157752,-0.00621726,0.00071543,-0.01183145,0.00645733,-0.01584533,
 0.00069882,-0.00036331,0.00922310,-0.22932235,-0.11880642,-0.00944492,
 0.00391750,0.01255768,-0.00044072,-0.00005170,-0.00002851,-0.00731407,
 0.25980156,0.09914623,-0.00016524,0.00025623,-0.00002095,0.00001940,-0
 .00012144,0.00037713,-0.00003835,0.00002122,-0.00007161,0.00004757,0.0
 0004806,0.00044081,-0.00018257,-0.00029716,0.00007410,-0.00018377,0.00
 029282,-0.00018043,-0.00002936,0.00000876,0.00001088,-0.00001164,0.000
 00677,0.00000907,0.00002180,0.00002708,-0.00002618,-0.00009696,0.00020
 426,0.00006217,0.00002522,0.00000385,0.00004264,-0.00000558,0.00000534
 ,-0.00006576,0.00001556,-0.00000216,-0.00000597,-0.00003104,0.00004677
 ,-0.00016942,-0.00000708,0.00001067,-0.00000624,-0.00000131,0.00000130
 ,-0.00000081,-0.00000278,0.00001160,0.00000912,0.00001951,0.00001142,-
 0.00018006,-0.00072211,0.00186346,0.00004484,-0.00139353,-0.00007648,-
 0.00494907,-0.00818191,-0.00607222,0.02770919,0.00598038,0.00175114,0.
 00381576,-0.03703909,-0.00984196,-0.05641901,-0.00064318,0.00137532,-0
 .00068306,-0.00098481,-0.00034840,-0.00201226,0.04427998,0.01199004,0.
 02974288,-0.00166514,0.00039504,0.00010592,-0.00015779,-0.00008315,-0.
 00000602,-0.00003221,0.00008921,0.00000687,-0.00000033,-0.00026868,-0.
 00000573,-0.00104445,-0.00003022,-0.00006772,-0.00076579,0.00255840,0.
 00012442,-0.00036710,0.00014279,0.00002652,-0.00016542,0.00004253,0.00
 000952,-0.00013025,-0.00007051,0.00000890,-0.00003650,0.00020562,-0.00
 001350,-0.00001970,0.00001717,-0.00000012,-0.00001850,-0.00000867,-0.0
 0000155,-0.00005472,-0.00001711,0.00000355,0.00000766,-0.00032939,0.00
 008911,-0.00006378,0.00011084,0.00002121,-0.00000691,0.00002551,0.0000
 0194,0.00001544,0.00001662,-0.00000644,0.00011764,-0.00028402,-0.00000
 906,-0.00909168,0.00757006,0.00048642,-0.01185841,-0.00215345,0.000298
 25,0.05054638,0.00976259,-0.01270650,-0.00035148,-0.00048363,0.0074028
 5,-0.00622615,0.00459426,-0.00080170,-0.09765230,0.19134631,-0.0088173
 8,0.00016903,0.00011598,-0.00606491,0.00533212,0.00036343,0.00031939,0
 .07457988,0.00697111,-0.00166960,-0.00046669,0.00092124,0.00036692,0.0
 0002184,0.00022797,-0.00065269,-0.00003822,-0.00014436,0.00122224,0.00
 014563,0.00668907,0.00018457,-0.00030187,0.00367730,-0.00643154,-0.000
 48208,0.00048763,-0.00088425,0.00010080,0.00062862,-0.00033715,-0.0000
 7430,0.00008354,-0.00034271,0.00014896,0.00207251,-0.00567039,-0.00017
 278,0.00014045,-0.00005798,-0.00001030,0.00007495,0.00005662,-0.000011
 65,0.00027136,0.00006873,-0.00002932,0.00106740,0.00036803,0.00019174,
 0.00020369,-0.00020153,-0.00001773,0.00007330,-0.00009126,-0.00003567,
 0.00002175,-0.00029207,-0.00002703,-0.00003417,0.00032257,-0.00008327,
 0.01686098,-0.04219345,-0.00247765,0.04619931,0.00574400,-0.00115048,-
 0.07122936,-0.03425887,0.05777551,-0.00072235,0.00182670,-0.03359832,0
 .03142372,0.01128536,0.00246747,0.18938552,-0.91180642,0.03715101,-0.0
 0032216,-0.00034467,0.02700773,-0.02552355,-0.00803199,-0.00123937,-0.
 21348397,0.99147116,-0.00034405,0.00002989,-0.00018140,-0.00002359,0.0
 0001978,0.00001101,-0.00001069,0.00000961,0.00000893,-0.00001031,-0.00
 003729,-0.00002641,-0.00023358,-0.00000043,0.00006151,-0.00030496,0.00
 002988,-0.00002042,0.00011715,0.00003866,0.00037784,-0.00003829,0.0000
 2515,-0.00007147,-0.00002163,-0.00006888,0.00044062,0.00017574,0.00029
 806,0.00007521,-0.00001240,0.00000111,-0.00000636,-0.00000162,0.000000
 23,-0.00000087,-0.00001183,-0.00000283,0.00000878,0.00001962,-0.000004
 42,-0.00017260,0.00000799,-0.00002419,0.00004245,-0.00000742,0.0000030
 0,-0.00006580,0.00000934,-0.00001271,-0.00000603,-0.00005657,0.0000073
 3,-0.00016857,-0.00059585,0.00129315,-0.00495365,-0.00201074,-0.000234
 81,0.00004565,0.00157951,0.01007571,0.02768812,0.00125038,-0.00610125,
 0.00382716,-0.00152824,-0.00008478,-0.00068457,-0.00884849,0.03810277,
 -0.05644330,-0.00015257,0.00103372,-0.00202561,0.00125400,0.00030245,0
 .00016631,0.01032734,-0.04555702,0.02978214,0.00632208,-0.00254231,-0.
 00056372,0.00039438,0.00003643,0.00026668,0.00012609,-0.00027622,0.000
 00233,-0.00025982,0.00013846,0.00045608,0.00492663,0.00301481,-0.00039
 584,0.00433355,-0.00432389,-0.00041886,0.00017019,-0.00028982,0.000017
 85,0.00016404,-0.00000411,0.00002471,-0.00010009,0.00006122,0.00015219
 ,0.00007088,-0.00467361,-0.00031238,0.00000180,0.00001001,0.00001978,-
 0.00001172,-0.00000492,-0.00004462,-0.00001749,-0.00000426,-0.00000463
 ,0.00013279,0.00014794,-0.00007330,0.00000176,-0.00002469,-0.00003809,
 0.00000471,0.00000998,-0.00001817,0.00000349,-0.00000583,0.00002264,-0
 .00005016,-0.00020105,-0.00005485,0.01372789,-0.03087093,-0.00215811,0
 .03174428,0.00237672,-0.00593778,-0.07408247,0.03636011,0.02827951,0.0
 0939055,0.00005040,0.00027578,-0.00368897,-0.00039373,0.00315720,0.000
 23457,0.00094597,0.00136306,-0.00319268,0.00004617,0.00649196,-0.00156
 639,-0.00040686,-0.00100849,-0.00105954,0.00397848,-0.00052825,0.01227
 965,-0.00349167,0.00069257,0.00004631,-0.00017400,0.00005453,0.0001233
 6,-0.00002269,0.00000936,-0.00002593,-0.00002125,0.00002137,0.00006920
 ,-0.00191102,-0.00069223,0.00009978,-0.00336117,0.00244247,0.00058075,
 -0.00007623,0.00027708,-0.00028700,-0.00026504,-0.00002161,0.00001057,
 0.00023018,-0.00014565,-0.00043667,0.00038628,0.00387537,0.00034855,-0
 .00002891,-0.00000499,0.00005427,-0.00000048,0.00000859,-0.00000318,-0
 .00001825,-0.00000250,-0.00002920,-0.00009754,-0.00005773,0.00003994,0
 .00001181,-0.00000767,-0.00004171,0.00000415,-0.00000949,0.00004071,0.
 00000629,-0.00002263,0.00001779,0.00005511,0.00010129,0.00005171,-0.00
 709258,0.01661102,0.00576686,-0.02133087,-0.00134865,-0.00075856,0.036
 21515,-0.03548986,-0.01692847,0.00005691,0.00945468,-0.00009126,-0.001
 08071,0.00069102,-0.00013181,0.00151046,-0.00355022,-0.00279118,0.0000
 4517,-0.00314454,-0.00393747,0.00374892,0.00084644,0.00006311,-0.00014
 355,0.00034968,0.00085811,-0.00315446,0.00906233,-0.05191995,0.0152037
 8,0.00294502,-0.00117523,0.00006145,0.00019051,-0.00024575,0.00020048,
 -0.00001835,-0.00078729,-0.00036138,0.00021137,-0.03592497,-0.01550317
 ,0.00046232,-0.03787429,0.03901415,0.00298155,-0.00060416,0.00101969,0
 .00019161,-0.00029800,0.00012125,-0.00001844,-0.00004592,0.00086235,0.
 00021112,-0.00300658,0.03944226,0.00033347,-0.00012453,0.00004227,-0.0
 0000399,-0.00005852,-0.00000513,-0.00001360,-0.00013624,-0.00005582,0.
 00002650,-0.00130292,-0.00146285,-0.00007065,-0.00010110,0.00009348,-0
 .00000102,-0.00002204,0.00005385,-0.00001244,-0.00001223,0.00014687,0.
 00002735,0.00068390,0.00186224,-0.00006437,-0.12593432,0.29730180,0.00
 376775,-0.32305445,-0.02753654,0.00337655,0.55411179,-0.33340991,-0.22
 748527,-0.00158146,0.00099007,-0.01868803,0.00632404,0.00058594,-0.002
 61156,0.00221136,-0.00604331,-0.00239116,0.00148543,-0.00089423,-0.045
 12106,0.03909769,0.01021597,0.00228595,0.00926841,-0.03923698,0.002291
 31,-0.02897269,0.01729143,0.27719756\\-0.00001530,-0.00001837,0.000003
 28,0.00000184,0.00000822,-0.00001019,0.00000080,-0.00002241,-0.0000021
 2,-0.00001489,0.00001380,0.00000034,-0.00000421,0.00000529,0.00000115,
 0.00000711,0.00002654,-0.00000113,-0.00000524,-0.00000576,-0.00000637,
 0.00001886,0.00001061,-0.00000614,-0.00001881,0.00000612,-0.00000443,-
 0.00000540,0.00000412,0.00000081,0.00000022,-0.00000659,-0.00000389,-0
 .00000024,-0.00000004,-0.00000251,0.00000005,-0.00000062,0.00000139,0.
 00000146,-0.00000189,0.00000769,0.00000580,0.00000254,-0.00000484,-0.0
 0000052,0.00000062,-0.00000759,0.00000001,0.00000037,-0.00000645,0.000
 00154,0.00000054,-0.00000007,-0.00002361,0.00006336,0.00000739,-0.0000
 8529,-0.00001274,0.00001036,0.00014759,-0.00006884,-0.00004942,0.00002
 439,-0.00003332,-0.00000211,-0.00000016,0.00004288,-0.00001383,-0.0000
 3105,-0.00002399,0.00003996,-0.00000049,0.00000601,-0.00000526,-0.0000
 0125,-0.00001485,0.00000793,0.00000941,0.00001480,-0.00001065,-0.00001
 262,0.00000358,0.00005672\\\@


 YOU WILL NEVER "FIND" TIME FOR ANYTHING.
 IF YOU WANT TIME, YOU MUST MAKE IT.

                        -- CHARLES BIXTON
 Job cpu time:       0 days  1 hours 45 minutes  4.8 seconds.
 Elapsed time:       0 days  0 hours  3 minutes 20.9 seconds.
 File lengths (MBytes):  RWF=    555 Int=      0 D2E=      0 Chk=     21 Scr=      2
 Normal termination of Gaussian 16 at Mon Nov 17 10:58:33 2025.
