 Set GAUSS_PDEF to "48".
 Set GAUSS_WDEF to "maginet239".
 Entering Gaussian System, Link 0=g16
 Initial command:
 /home/programes/qq/gaussian/g16.A03/g16/l1.exe "/scratch/108209/Gau-4939.inp" -scrdir="/scratch/108209/"
 Default linda workers: maginet239
 Default is to use  48 SMP processors on each worker.
 Entering Link 1 = /home/programes/qq/gaussian/g16.A03/g16/l1.exe PID=      4940.
  
 Copyright (c) 1988,1990,1992,1993,1995,1998,2003,2009,2016,
            Gaussian, Inc.  All Rights Reserved.
  
 This is part of the Gaussian(R) 16 program.  It is based on
 the Gaussian(R) 09 system (copyright 2009, Gaussian, Inc.),
 the Gaussian(R) 03 system (copyright 2003, Gaussian, Inc.),
 the Gaussian(R) 98 system (copyright 1998, Gaussian, Inc.),
 the Gaussian(R) 94 system (copyright 1995, Gaussian, Inc.),
 the Gaussian 92(TM) system (copyright 1992, Gaussian, Inc.),
 the Gaussian 90(TM) system (copyright 1990, Gaussian, Inc.),
 the Gaussian 88(TM) system (copyright 1988, Gaussian, Inc.),
 the Gaussian 86(TM) system (copyright 1986, Carnegie Mellon
 University), and the Gaussian 82(TM) system (copyright 1983,
 Carnegie Mellon University). Gaussian is a federally registered
 trademark of Gaussian, Inc.
  
 This software contains proprietary and confidential information,
 including trade secrets, belonging to Gaussian, Inc.
  
 This software is provided under written license and may be
 used, copied, transmitted, or stored only in accord with that
 written license.
  
 The following legend is applicable only to US Government
 contracts under FAR:
  
                    RESTRICTED RIGHTS LEGEND
  
 Use, reproduction and disclosure by the US Government is
 subject to restrictions as set forth in subparagraphs (a)
 and (c) of the Commercial Computer Software - Restricted
 Rights clause in FAR 52.227-19.
  
 Gaussian, Inc.
 340 Quinnipiac St., Bldg. 40, Wallingford CT 06492
  
  
 ---------------------------------------------------------------
 Warning -- This program may not be used in any manner that
 competes with the business of Gaussian, Inc. or will provide
 assistance to any competitor of Gaussian, Inc.  The licensee
 of this program is prohibited from giving any competitor of
 Gaussian, Inc. access to this program.  By using this program,
 the user acknowledges that Gaussian, Inc. is engaged in the
 business of creating and licensing software in the field of
 computational chemistry and represents and warrants to the
 licensee that it is not a competitor of Gaussian, Inc. and that
 it will not use this program in any manner prohibited above.
 ---------------------------------------------------------------
  

 Cite this work as:
 Gaussian 16, Revision A.03,
 M. J. Frisch, G. W. Trucks, H. B. Schlegel, G. E. Scuseria, 
 M. A. Robb, J. R. Cheeseman, G. Scalmani, V. Barone, 
 G. A. Petersson, H. Nakatsuji, X. Li, M. Caricato, A. V. Marenich, 
 J. Bloino, B. G. Janesko, R. Gomperts, B. Mennucci, H. P. Hratchian, 
 J. V. Ortiz, A. F. Izmaylov, J. L. Sonnenberg, D. Williams-Young, 
 F. Ding, F. Lipparini, F. Egidi, J. Goings, B. Peng, A. Petrone, 
 T. Henderson, D. Ranasinghe, V. G. Zakrzewski, J. Gao, N. Rega, 
 G. Zheng, W. Liang, M. Hada, M. Ehara, K. Toyota, R. Fukuda, 
 J. Hasegawa, M. Ishida, T. Nakajima, Y. Honda, O. Kitao, H. Nakai, 
 T. Vreven, K. Throssell, J. A. Montgomery, Jr., J. E. Peralta, 
 F. Ogliaro, M. J. Bearpark, J. J. Heyd, E. N. Brothers, K. N. Kudin, 
 V. N. Staroverov, T. A. Keith, R. Kobayashi, J. Normand, 
 K. Raghavachari, A. P. Rendell, J. C. Burant, S. S. Iyengar, 
 J. Tomasi, M. Cossi, J. M. Millam, M. Klene, C. Adamo, R. Cammi, 
 J. W. Ochterski, R. L. Martin, K. Morokuma, O. Farkas, 
 J. B. Foresman, and D. J. Fox, Gaussian, Inc., Wallingford CT, 2016.
 
 ******************************************
 Gaussian 16:  ES64L-G16RevA.03 25-Dec-2016
                24-Mar-2026 
 ******************************************
 %mem=20GB
 %chk=re-bpy-co3-cl-1e_eq.chk
 SetLPE:    new flags="-opt 'Tsnet.Node.lindarsharg: ssh'  -nodelist 'maginet239' -env GAUSS_MDEF=2684354560 -env GAUSS_EXEDIR="/home/programes/qq/gaussian/g16.A03/g16/bsd:/home/programes/qq/gaussian/g16.A03/g16""
 Will use up to    1 processors via Linda.
 ----------------------------------------------------------------------
 #p b3lyp/gen EmpiricalDispersion=GD3BJ pseudo=read scrf=(solvent=n,n-D
 iMethylFormamide,pcm,read) nosymm pop=(Orbitals=20) geom=checkpoint gu
 ess=read
 ----------------------------------------------------------------------
 1/29=2,38=1,40=2,172=1/1;
 2/12=2,15=1,40=1/2;
 3/5=7,11=2,14=-4,16=1,17=8,25=1,30=1,70=2203,72=148,74=-5,116=-2,124=41/1,2,3;
 4/5=1/1;
 5/5=2,38=6,53=148/2;
 6/7=2,8=2,9=2,10=2,28=1,96=20/1;
 99/5=1,9=1/99;
 Leave Link    1 at Tue Mar 24 18:23:02 2026, MaxMem=  2684354560 cpu:               1.5 elap:               0.0
 (Enter /home/programes/qq/gaussian/g16.A03/g16/l101.exe)
 -------------------
 Title Card Required
 -------------------
 Structure from the checkpoint file:  "re-bpy-co3-cl-1e_eq.chk"
 Charge =  0 Multiplicity = 1
 Redundant internal coordinates found in file.  (old form).
 C,0,-2.3019429894,0.2767422714,0.0311456761
 C,0,-0.8841385197,0.3563913625,-0.0587353974
 C,0,-0.2449661486,1.5749019965,-0.0350603258
 C,0,-1.0194881994,2.7608767505,0.0843827832
 C,0,-2.3919654674,2.6370888112,0.1682837387
 C,0,-3.0402627347,-0.9464644159,0.0274555576
 C,0,-2.4505356238,-2.237100024,-0.0776735288
 C,0,-3.2308465113,-3.3706322784,-0.0664350917
 C,0,-4.6408307153,-3.239313288,0.0570331927
 C,0,-5.1702138296,-1.9682471536,0.1571383273
 H,0,-0.3018028089,-0.5603845933,-0.1460439671
 H,0,0.8430796732,1.6268761099,-0.1047753861
 H,0,-0.5583458281,3.7478288906,0.1091608084
 H,0,-3.0255421154,3.52051744,0.2609333488
 H,0,-1.3684249741,-2.3239017357,-0.1698125447
 H,0,-2.7702397191,-4.3566458197,-0.1501693855
 H,0,-5.2995052495,-4.1072188279,0.0717733187
 H,0,-6.2469404842,-1.8203380191,0.2531415487
 N,0,-4.4261722096,-0.8353867527,0.1412164442
 N,0,-3.0474803592,1.4509478378,0.1405814185
 Re,0,-5.242016177,1.2139359864,0.2301035949
 C,0,-5.3220984926,1.2701318163,2.1102910587
 C,0,-7.0984755337,0.7469218498,0.1325968806
 C,0,-5.696069131,3.0734782425,0.1256631349
 O,0,-5.3620287547,1.2982300009,3.2777583968
 O,0,-8.2168547838,0.425824472,0.0659456823
 O,0,-5.9334724561,4.2123734282,0.0555405535
 Cl,0,-5.045419857,1.0675756419,-2.5484698375
 Recover connectivity data from disk.
 ITRead=  0  0  0  0  0  0  0  0  0  0  0  0  0  0  0  0  0  0  0  0
 ITRead=  0  0  0  0  0  0  0  0
 MicOpt= -1 -1 -1 -1 -1 -1 -1 -1 -1 -1 -1 -1 -1 -1 -1 -1 -1 -1 -1 -1
 MicOpt= -1 -1 -1 -1 -1 -1 -1 -1
                           ----------------------------
                           !    Current Parameters    !
                           ! (Angstroms and Degrees)  !
 --------------------------                            --------------------------
 ! Name  Definition              Value                                          !
 --------------------------------------------------------------------------------
 ! R1    R(1,2)                  1.4229                                         !
 ! R2    R(1,6)                  1.4288                                         !
 ! R3    R(1,20)                 1.3952                                         !
 ! R4    R(2,3)                  1.3762                                         !
 ! R5    R(2,11)                 1.0896                                         !
 ! R6    R(3,4)                  1.4215                                         !
 ! R7    R(3,12)                 1.0915                                         !
 ! R8    R(4,5)                  1.3806                                         !
 ! R9    R(4,13)                 1.0897                                         !
 ! R10   R(5,14)                 1.0911                                         !
 ! R11   R(5,20)                 1.3555                                         !
 ! R12   R(6,7)                  1.4229                                         !
 ! R13   R(6,19)                 1.395                                          !
 ! R14   R(7,8)                  1.3762                                         !
 ! R15   R(7,15)                 1.0895                                         !
 ! R16   R(8,9)                  1.4215                                         !
 ! R17   R(8,16)                 1.0915                                         !
 ! R18   R(9,10)                 1.3805                                         !
 ! R19   R(9,17)                 1.0896                                         !
 ! R20   R(10,18)                1.0911                                         !
 ! R21   R(10,19)                1.3554                                         !
 ! R22   R(19,21)                2.2075                                         !
 ! R23   R(20,21)                2.2091                                         !
 ! R24   R(21,22)                1.8827                                         !
 ! R25   R(21,23)                1.9168                                         !
 ! R26   R(21,24)                1.917                                          !
 ! R27   R(21,28)                2.7894                                         !
 ! R28   R(22,25)                1.1685                                         !
 ! R29   R(23,26)                1.1655                                         !
 ! R30   R(24,27)                1.1655                                         !
 ! A1    A(2,1,6)              124.2407                                         !
 ! A2    A(2,1,20)             119.3602                                         !
 ! A3    A(6,1,20)             116.3974                                         !
 ! A4    A(1,2,3)              120.7487                                         !
 ! A5    A(1,2,11)             119.3739                                         !
 ! A6    A(3,2,11)             119.8773                                         !
 ! A7    A(2,3,4)              119.1504                                         !
 ! A8    A(2,3,12)             120.2677                                         !
 ! A9    A(4,3,12)             120.5818                                         !
 ! A10   A(3,4,5)              118.1612                                         !
 ! A11   A(3,4,13)             121.8029                                         !
 ! A12   A(5,4,13)             120.0358                                         !
 ! A13   A(4,5,14)             120.6528                                         !
 ! A14   A(4,5,20)             123.9153                                         !
 ! A15   A(14,5,20)            115.4317                                         !
 ! A16   A(1,6,7)              124.2343                                         !
 ! A17   A(1,6,19)             116.4238                                         !
 ! A18   A(7,6,19)             119.3414                                         !
 ! A19   A(6,7,8)              120.7649                                         !
 ! A20   A(6,7,15)             119.3518                                         !
 ! A21   A(8,7,15)             119.8832                                         !
 ! A22   A(7,8,9)              119.1466                                         !
 ! A23   A(7,8,16)             120.276                                          !
 ! A24   A(9,8,16)             120.5774                                         !
 ! A25   A(8,9,10)             118.1462                                         !
 ! A26   A(8,9,17)             121.8162                                         !
 ! A27   A(10,9,17)            120.0374                                         !
 ! A28   A(9,10,18)            120.6382                                         !
 ! A29   A(9,10,19)            123.9292                                         !
 ! A30   A(18,10,19)           115.4323                                         !
 ! A31   A(6,19,10)            118.6697                                         !
 ! A32   A(6,19,21)            116.3828                                         !
 ! A33   A(10,19,21)           124.9278                                         !
 ! A34   A(1,20,5)             118.662                                          !
 ! A35   A(1,20,21)            116.3415                                         !
 ! A36   A(5,20,21)            124.9917                                         !
 ! A37   A(19,21,20)            74.3853                                         !
 ! A38   A(19,21,22)            94.7978                                         !
 ! A39   A(19,21,23)            97.4528                                         !
 ! A40   A(19,21,28)            83.404                                          !
 ! A41   A(20,21,22)            94.5611                                         !
 ! A42   A(20,21,24)            97.4125                                         !
 ! A43   A(20,21,28)            83.987                                          !
 ! A44   A(22,21,23)            90.967                                          !
 ! A45   A(22,21,24)            90.8812                                         !
 ! A46   A(23,21,24)            90.2389                                         !
 ! A47   A(23,21,28)            90.2753                                         !
 ! A48   A(24,21,28)            90.7633                                         !
 ! A49   L(19,21,24,20,-1)     171.7978                                         !
 ! A50   L(20,21,23,19,-1)     171.8382                                         !
 ! A51   L(22,21,28,19,-1)     178.2018                                         !
 ! A52   L(21,22,25,13,-1)     179.7363                                         !
 ! A53   L(21,23,26,9,-1)      178.093                                          !
 ! A54   L(21,24,27,4,-1)      178.0484                                         !
 ! A55   L(19,21,24,20,-2)     174.797                                          !
 ! A56   L(20,21,23,19,-2)     185.0134                                         !
 ! A57   L(22,21,28,19,-2)     181.0208                                         !
 ! A58   L(21,22,25,13,-2)     180.5604                                         !
 ! A59   L(21,23,26,9,-2)      180.3129                                         !
 ! A60   L(21,24,27,4,-2)      179.7129                                         !
 ! D1    D(6,1,2,3)           -179.3402                                         !
 ! D2    D(6,1,2,11)             0.5907                                         !
 ! D3    D(20,1,2,3)             0.1803                                         !
 ! D4    D(20,1,2,11)         -179.8888                                         !
 ! D5    D(2,1,6,7)             -0.5428                                         !
 ! D6    D(2,1,6,19)           179.1848                                         !
 ! D7    D(20,1,6,7)           179.9238                                         !
 ! D8    D(20,1,6,19)           -0.3486                                         !
 ! D9    D(2,1,20,5)            -0.504                                          !
 ! D10   D(2,1,20,21)          178.7371                                         !
 ! D11   D(6,1,20,5)           179.0534                                         !
 ! D12   D(6,1,20,21)           -1.7055                                         !
 ! D13   D(1,2,3,4)              0.1657                                         !
 ! D14   D(1,2,3,12)          -179.9853                                         !
 ! D15   D(11,2,3,4)          -179.7649                                         !
 ! D16   D(11,2,3,12)            0.0841                                         !
 ! D17   D(2,3,4,5)             -0.185                                          !
 ! D18   D(2,3,4,13)           179.8954                                         !
 ! D19   D(12,3,4,5)           179.9665                                         !
 ! D20   D(12,3,4,13)            0.0469                                         !
 ! D21   D(3,4,5,14)          -179.9952                                         !
 ! D22   D(3,4,5,20)            -0.156                                          !
 ! D23   D(13,4,5,14)           -0.0741                                         !
 ! D24   D(13,4,5,20)          179.7651                                         !
 ! D25   D(4,5,20,1)             0.5032                                         !
 ! D26   D(4,5,20,21)         -178.6666                                         !
 ! D27   D(14,5,20,1)         -179.6499                                         !
 ! D28   D(14,5,20,21)           1.1802                                         !
 ! D29   D(1,6,7,8)            179.6356                                         !
 ! D30   D(1,6,7,15)            -0.4788                                         !
 ! D31   D(19,6,7,8)            -0.0845                                         !
 ! D32   D(19,6,7,15)          179.801                                          !
 ! D33   D(1,6,19,10)         -179.2979                                         !
 ! D34   D(1,6,19,21)            2.2377                                         !
 ! D35   D(7,6,19,10)            0.4438                                         !
 ! D36   D(7,6,19,21)         -178.0206                                         !
 ! D37   D(6,7,8,9)             -0.2332                                         !
 ! D38   D(6,7,8,16)           179.8417                                         !
 ! D39   D(15,7,8,9)           179.8819                                         !
 ! D40   D(15,7,8,16)           -0.0432                                         !
 ! D41   D(7,8,9,10)             0.1911                                         !
 ! D42   D(7,8,9,17)          -179.9357                                         !
 ! D43   D(16,8,9,10)         -179.8841                                         !
 ! D44   D(16,8,9,17)           -0.0108                                         !
 ! D45   D(8,9,10,18)          179.977                                          !
 ! D46   D(8,9,10,19)            0.1854                                         !
 ! D47   D(17,9,10,18)           0.1015                                         !
 ! D48   D(17,9,10,19)        -179.6902                                         !
 ! D49   D(9,10,19,6)           -0.5048                                         !
 ! D50   D(9,10,19,21)         177.8173                                         !
 ! D51   D(18,10,19,6)         179.6937                                         !
 ! D52   D(18,10,19,21)         -1.9843                                         !
 ! D53   D(6,19,21,20)          -2.3103                                         !
 ! D54   D(6,19,21,22)         -95.7157                                         !
 ! D55   D(6,19,21,23)         172.6763                                         !
 ! D56   D(6,19,21,28)          83.2635                                         !
 ! D57   D(10,19,21,20)        179.3331                                         !
 ! D58   D(10,19,21,22)         85.9277                                         !
 ! D59   D(10,19,21,23)         -5.6803                                         !
 ! D60   D(10,19,21,28)        -95.0931                                         !
 ! D61   D(1,20,21,19)           2.1231                                         !
 ! D62   D(1,20,21,22)          95.84                                           !
 ! D63   D(1,20,21,24)        -172.6738                                         !
 ! D64   D(1,20,21,28)         -82.685                                          !
 ! D65   D(5,20,21,19)        -178.6897                                         !
 ! D66   D(5,20,21,22)         -84.9729                                         !
 ! D67   D(5,20,21,24)           6.5134                                         !
 ! D68   D(5,20,21,28)          96.5022                                         !
 --------------------------------------------------------------------------------
 NAtoms=     28 NQM=       28 NQMF=       0 NMMI=      0 NMMIF=      0
                NMic=       0 NMicF=      0.
                    Isotopes and Nuclear Properties:
 (Nuclear quadrupole moments (NQMom) in fm**2, nuclear magnetic moments (NMagM)
  in nuclear magnetons)

  Atom         1           2           3           4           5           6           7           8           9          10
 IAtWgt=          12          12          12          12          12          12          12          12          12          12
 AtmWgt=  12.0000000  12.0000000  12.0000000  12.0000000  12.0000000  12.0000000  12.0000000  12.0000000  12.0000000  12.0000000
 NucSpn=           0           0           0           0           0           0           0           0           0           0
 AtZEff=   3.6000000   3.6000000   3.6000000   3.6000000   3.6000000   3.6000000   3.6000000   3.6000000   3.6000000   3.6000000
 NQMom=    0.0000000   0.0000000   0.0000000   0.0000000   0.0000000   0.0000000   0.0000000   0.0000000   0.0000000   0.0000000
 NMagM=    0.0000000   0.0000000   0.0000000   0.0000000   0.0000000   0.0000000   0.0000000   0.0000000   0.0000000   0.0000000
 AtZNuc=   6.0000000   6.0000000   6.0000000   6.0000000   6.0000000   6.0000000   6.0000000   6.0000000   6.0000000   6.0000000

  Atom        11          12          13          14          15          16          17          18          19          20
 IAtWgt=           1           1           1           1           1           1           1           1          14          14
 AtmWgt=   1.0078250   1.0078250   1.0078250   1.0078250   1.0078250   1.0078250   1.0078250   1.0078250  14.0030740  14.0030740
 NucSpn=           1           1           1           1           1           1           1           1           2           2
 AtZEff=   1.0000000   1.0000000   1.0000000   1.0000000   1.0000000   1.0000000   1.0000000   1.0000000   4.5500000   4.5500000
 NQMom=    0.0000000   0.0000000   0.0000000   0.0000000   0.0000000   0.0000000   0.0000000   0.0000000   2.0440000   2.0440000
 NMagM=    2.7928460   2.7928460   2.7928460   2.7928460   2.7928460   2.7928460   2.7928460   2.7928460   0.4037610   0.4037610
 AtZNuc=   1.0000000   1.0000000   1.0000000   1.0000000   1.0000000   1.0000000   1.0000000   1.0000000   7.0000000   7.0000000

  Atom        21          22          23          24          25          26          27          28
 IAtWgt=         187          12          12          12          16          16          16          35
 AtmWgt= 186.9560000  12.0000000  12.0000000  12.0000000  15.9949146  15.9949146  15.9949146  34.9688527
 NucSpn=           5           0           0           0           0           0           0           3
 AtZEff=1099.5000000   3.6000000   3.6000000   3.6000000   5.6000000   5.6000000   5.6000000  14.2400000
 NQMom=  207.0000000   0.0000000   0.0000000   0.0000000   0.0000000   0.0000000   0.0000000  -8.1650000
 NMagM=    3.2197000   0.0000000   0.0000000   0.0000000   0.0000000   0.0000000   0.0000000   0.8218740
 AtZNuc=  75.0000000   6.0000000   6.0000000   6.0000000   8.0000000   8.0000000   8.0000000  17.0000000
 Leave Link  101 at Tue Mar 24 18:23:02 2026, MaxMem=  2684354560 cpu:               5.3 elap:               0.1
 (Enter /home/programes/qq/gaussian/g16.A03/g16/l202.exe)
                          Input orientation:                          
 ---------------------------------------------------------------------
 Center     Atomic      Atomic             Coordinates (Angstroms)
 Number     Number       Type             X           Y           Z
 ---------------------------------------------------------------------
      1          6           0       -2.301943    0.276742    0.031146
      2          6           0       -0.884139    0.356391   -0.058735
      3          6           0       -0.244966    1.574902   -0.035060
      4          6           0       -1.019488    2.760877    0.084383
      5          6           0       -2.391965    2.637089    0.168284
      6          6           0       -3.040263   -0.946464    0.027456
      7          6           0       -2.450536   -2.237100   -0.077674
      8          6           0       -3.230847   -3.370632   -0.066435
      9          6           0       -4.640831   -3.239313    0.057033
     10          6           0       -5.170214   -1.968247    0.157138
     11          1           0       -0.301803   -0.560385   -0.146044
     12          1           0        0.843080    1.626876   -0.104775
     13          1           0       -0.558346    3.747829    0.109161
     14          1           0       -3.025542    3.520517    0.260933
     15          1           0       -1.368425   -2.323902   -0.169813
     16          1           0       -2.770240   -4.356646   -0.150169
     17          1           0       -5.299505   -4.107219    0.071773
     18          1           0       -6.246940   -1.820338    0.253142
     19          7           0       -4.426172   -0.835387    0.141216
     20          7           0       -3.047480    1.450948    0.140581
     21         75           0       -5.242016    1.213936    0.230104
     22          6           0       -5.322098    1.270132    2.110291
     23          6           0       -7.098476    0.746922    0.132597
     24          6           0       -5.696069    3.073478    0.125663
     25          8           0       -5.362029    1.298230    3.277758
     26          8           0       -8.216855    0.425824    0.065946
     27          8           0       -5.933472    4.212373    0.055541
     28         17           0       -5.045420    1.067576   -2.548470
 ---------------------------------------------------------------------
                    Distance matrix (angstroms):
                    1          2          3          4          5
     1  C    0.000000
     2  C    1.422882   0.000000
     3  C    2.433260   1.376179   0.000000
     4  C    2.796149   2.412541   1.421509   0.000000
     5  C    2.366040   2.743476   2.403996   1.380600   0.000000
     6  C    1.428763   2.520661   3.764954   4.222695   3.644444
     7  C    2.520580   3.029877   4.404283   5.201339   4.880742
     8  C    3.765066   4.404294   5.777091   6.519835   6.070546
     9  C    4.222998   5.201464   6.519875   7.008363   6.293002
    10  C    3.644562   4.880675   6.070330   6.292728   5.378467
    11  H    2.175486   1.089594   2.138924   3.405722   3.832939
    12  H    3.425274   2.144652   1.091515   2.188812   3.400089
    13  H    3.885185   3.411184   2.200140   1.089652   2.144621
    14  H    3.331437   3.833992   3.406558   2.152319   1.091077
    15  H    2.770413   2.725957   4.059678   5.103072   5.076748
    16  H    4.660522   5.077249   6.447753   7.333435   7.011193
    17  H    5.310946   6.279834   7.605674   8.092555   7.344984
    18  H    4.473258   5.796125   6.901769   6.952860   5.893784
    19  N    2.400270   3.742502   4.829394   4.953972   4.024527
    20  N    1.395192   2.432659   2.810747   2.414917   1.355506
    21  Re   3.092240   4.450832   5.017083   4.499334   3.186216
    22  C    3.798817   5.023454   5.520207   4.983882   3.771690
    23  C    4.820590   6.229535   6.905378   6.404094   5.072006
    24  C    4.398950   5.529127   5.655624   4.687199   3.333070
    25  O    4.576905   5.663104   6.102102   5.585216   4.503626
    26  O    5.916893   7.334105   8.054911   7.566696   6.231332
    27  O    5.355165   6.354324   6.270851   5.123955   3.877693
    28  Cl   3.847921   4.901104   5.442331   5.099736   4.109129
                    6          7          8          9         10
     6  C    0.000000
     7  C    1.422874   0.000000
     8  C    2.433460   1.376193   0.000000
     9  C    2.796399   2.412461   1.421459   0.000000
    10  C    2.365914   2.743003   2.403709   1.380535   0.000000
    11  H    2.770979   2.726372   4.059942   5.103436   5.076950
    12  H    4.660463   5.077297   6.447746   7.333434   7.010935
    13  H    5.310648   6.279702   7.605628   8.092562   7.344736
    14  H    4.473104   5.796158   6.901975   6.953132   5.893804
    15  H    2.175153   1.089490   2.138912   3.405595   3.832360
    16  H    3.425464   2.144747   1.091509   2.188716   3.399818
    17  H    3.885423   3.411203   2.200230   1.089646   2.144575
    18  H    3.331272   3.833513   3.406224   2.152101   1.091070
    19  N    1.395000   2.432253   2.810586   2.414959   1.355442
    20  N    2.400091   3.742416   4.829505   4.954220   4.024570
    21  Re   3.091297   4.449353   5.015078   4.496977   3.183829
    22  C    3.802404   5.033263   5.536078   5.001509   3.784835
    23  C    4.398602   5.527381   5.652647   4.683567   3.330306
    24  C    4.819014   6.227124   6.902230   6.400748   5.069172
    25  O    4.581890   5.677524   6.125671   5.610927   4.521608
    26  O    5.355536   6.353128   6.268244   5.120670   3.875812
    27  O    5.914817   7.331051   8.051152   7.562973   6.228399
    28  Cl   3.835675   4.874335   5.399154   5.049914   4.068428
                   11         12         13         14         15
    11  H    0.000000
    12  H    2.469123   0.000000
    13  H    4.323384   2.551118   0.000000
    14  H    4.923225   4.322714   2.482290   0.000000
    15  H    2.061126   4.528093   6.131881   6.090059   0.000000
    16  H    4.528222   6.990041   8.404894   7.892014   2.469315
    17  H    6.132251   8.404901   9.175062   7.961724   4.323422
    18  H    6.090279   7.891754   7.961490   6.237163   4.922640
    19  N    4.143497   5.821363   5.997247   4.577117   3.415001
    20  N    3.415605   3.902257   3.387099   2.073182   4.143074
    21  Re   5.262643   6.108278   5.326538   3.199066   5.261268
    22  C    5.800449   6.560732   5.730344   3.709249   5.809258
    23  C    6.926864   7.993683   7.195783   4.929309   6.508063
    24  C    6.509754   6.701211   5.181816   2.711062   6.924415
    25  O    6.386138   7.074808   6.254272   4.415763   6.399567
    26  O    7.979072   9.140792   8.348074   6.046889   7.383601
    27  O    7.384819   7.254802   5.395430   2.996149   7.975797
    28  Cl   5.560918   6.399913   5.863497   4.241412   5.538991
                   16         17         18         19         20
    16  H    0.000000
    17  H    2.551207   0.000000
    18  H    4.322380   2.482006   0.000000
    19  N    3.902087   3.387096   2.073126   0.000000
    20  N    5.821473   5.997463   4.577174   2.669853   0.000000
    21  Re   6.106199   5.323820   3.196439   2.207538   2.209112
    22  C    6.578928   5.750823   3.722276   3.018799   3.014355
    23  C    6.697760   5.177130   2.707483   3.105637   4.111724
    24  C    7.990201   7.191841   4.926373   4.110001   3.106099
    25  O    7.102512   6.284992   4.433604   3.907178   3.901581
    26  O    7.251506   5.390681   2.993468   3.995697   5.270567
    27  O    9.136545   8.343728   6.044081   5.268698   3.995204
    28  Cl   6.352202   5.805922   4.199134   3.352484   3.371903
                   21         22         23         24         25
    21  Re   0.000000
    22  C    1.882731   0.000000
    23  C    1.916781   2.709343   0.000000
    24  C    1.917021   2.707519   2.716552   0.000000
    25  O    3.051181   1.168488   3.634725   3.633014   0.000000
    26  O    3.081839   3.643050   1.165469   3.656227   4.384845
    27  O    3.082079   3.640407   3.656846   1.165487   4.381948
    28  Cl   2.789362   4.671363   3.392046   3.405580   5.839382
                   26         27         28
    26  O    0.000000
    27  O    4.421753   0.000000
    28  Cl   4.159929   4.178428   0.000000
 Symmetry turned off by external request.
 Stoichiometry    C13H8ClN2O3Re
 Framework group  C1[X(C13H8ClN2O3Re)]
 Deg. of freedom    78
 Full point group                 C1      NOp   1
 Rotational constants (GHZ):           0.3301618           0.2695264           0.2025689
 Leave Link  202 at Tue Mar 24 18:23:02 2026, MaxMem=  2684354560 cpu:               0.1 elap:               0.0
 (Enter /home/programes/qq/gaussian/g16.A03/g16/l301.exe)
 General basis read from cards:  (5D, 7F)
 Centers:      21
 lanl2dz
 F 1 1.00
     Exponent=  8.6900000000D-01 Coefficients=  1.0000000000D+00
 ****
 Centers:       1      2      3      4      5      6      7      8      9     10
 Centers:      22     23     24     25     26     27     19     20     11     12
 Centers:      13     14     15     16     17     18     28
 cc-pVDZ
 ****
 ======================================================================================================
                                       Pseudopotential Parameters
 ======================================================================================================
  Center     Atomic      Valence      Angular      Power
  Number     Number     Electrons     Momentum     of R      Exponent        Coefficient   SO-Coeffient
 ======================================================================================================
    1          6
                                   No pseudopotential on this center.
    2          6
                                   No pseudopotential on this center.
    3          6
                                   No pseudopotential on this center.
    4          6
                                   No pseudopotential on this center.
    5          6
                                   No pseudopotential on this center.
    6          6
                                   No pseudopotential on this center.
    7          6
                                   No pseudopotential on this center.
    8          6
                                   No pseudopotential on this center.
    9          6
                                   No pseudopotential on this center.
   10          6
                                   No pseudopotential on this center.
   11          1
                                   No pseudopotential on this center.
   12          1
                                   No pseudopotential on this center.
   13          1
                                   No pseudopotential on this center.
   14          1
                                   No pseudopotential on this center.
   15          1
                                   No pseudopotential on this center.
   16          1
                                   No pseudopotential on this center.
   17          1
                                   No pseudopotential on this center.
   18          1
                                   No pseudopotential on this center.
   19          7
                                   No pseudopotential on this center.
   20          7
                                   No pseudopotential on this center.
   21         75           15
                                      G and up 
                                                     1     1833.8143836       -0.14971040    0.00000000
                                                     2      414.0589456    -1669.25557810    0.00000000
                                                     2       59.0349540     -346.66611290    0.00000000
                                                     2       11.9177094      -96.66848920    0.00000000
                                                     2        3.6531764      -11.07385670    0.00000000
                                                     2        1.2764184       -0.57985520    0.00000000
                                      S - G
                                                     0      247.0023085        3.14971040    0.00000000
                                                     1      631.7195767       45.29699690    0.00000000
                                                     2      249.2800441     1116.42795850    0.00000000
                                                     2       84.2947315      793.64190650    0.00000000
                                                     2       23.0407912      318.20991930    0.00000000
                                                     2        4.2997111      586.31050250    0.00000000
                                                     2        4.0974390     -475.69041640    0.00000000
                                      P - G
                                                     0      193.6897726        2.14971040    0.00000000
                                                     1       56.9308394       64.22957360    0.00000000
                                                     2       18.7227602      218.85046070    0.00000000
                                                     2        3.7340020      344.41891680    0.00000000
                                                     2        3.5127483     -260.47272670    0.00000000
                                      D - G
                                                     0      126.2340824        3.14971040    0.00000000
                                                     1       80.7090826       46.57148680    0.00000000
                                                     2       42.5529714      304.38345950    0.00000000
                                                     2       13.4074494      157.15896520    0.00000000
                                                     2        3.6904228       48.57012110    0.00000000
                                      F - G
                                                     0      112.7786459        3.95696100    0.00000000
                                                     1       56.7815968       52.35867810    0.00000000
                                                     2       28.5831966      236.03408240    0.00000000
                                                     2        8.5734158      116.57872660    0.00000000
                                                     2        2.0892721       11.10505300    0.00000000
   22          6
                                   No pseudopotential on this center.
   23          6
                                   No pseudopotential on this center.
   24          6
                                   No pseudopotential on this center.
   25          8
                                   No pseudopotential on this center.
   26          8
                                   No pseudopotential on this center.
   27          8
                                   No pseudopotential on this center.
   28         17
                                   No pseudopotential on this center.
 ======================================================================================================
 Ernie: Thresh=  0.10000D-02 Tol=  0.10000D-05 Strict=F.
 Ernie:  47 primitive shells out of 504 were deleted.
   339 basis functions,   774 primitive gaussians,   363 cartesian basis functions
    78 alpha electrons       78 beta electrons
       nuclear repulsion energy      1750.4973875523 Hartrees.
 IExCor=  402 DFT=T Ex+Corr=B3LYP ExCW=0 ScaHFX=  0.200000
 ScaDFX=  0.800000  0.720000  1.000000  0.810000 ScalE2=  1.000000  1.000000
 IRadAn=      5 IRanWt=     -1 IRanGd=            0 ICorTp=0 IEmpDi=141
 NAtoms=   28 NActive=   28 NUniq=   28 SFac= 1.00D+00 NAtFMM=   60 NAOKFM=F Big=F
 Integral buffers will be    131072 words long.
 Raffenetti 2 integral format.
 Two-electron integral symmetry is turned off.
 R6Disp:  Grimme-D3(BJ) Dispersion energy=       -0.0843576497 Hartrees.
 Nuclear repulsion after empirical dispersion term =     1750.4130299026 Hartrees.
 Using the following non-standard input for PCM:
 NonEq=read
 --- end of non-standard input.
 ------------------------------------------------------------------------------
 Polarizable Continuum Model (PCM)
 =================================
 Model                : PCM.
 Atomic radii         : UFF (Universal Force Field).
 Polarization charges : Total charges.
 Charge compensation  : None.
 Solution method      : On-the-fly selection.
 Cavity type          : Scaled VdW (van der Waals Surface) (Alpha=1.100).
 Cavity algorithm     : GePol (No added spheres)
                        Default sphere list used, NSphG=   28.
                        Lebedev-Laikov grids with approx.  5.0 points / Ang**2.
                        Smoothing algorithm: York/Karplus (Gamma=1.0000).
                        Polarization charges: spherical gaussians, with
                                              point-specific exponents (IZeta= 3).
                        Self-potential: point-specific (ISelfS= 7).
                        Self-field    : sphere-specific E.n sum rule (ISelfD= 2).
 Solvent              : n,n-DiMethylFormamide, Eps=  37.219000 Eps(inf)=   2.046330
 ------------------------------------------------------------------------------
 GePol: Number of generator spheres                  =      28
 GePol: Total number of spheres                      =      28
 GePol: Number of exposed spheres                    =      27 ( 96.43%)
 GePol: Number of points                             =    2589
 GePol: Average weight of points                     =       0.13
 GePol: Minimum weight of points                     =   0.32D-11
 GePol: Maximum weight of points                     =    0.21616
 GePol: Number of points with low weight             =     123
 GePol: Fraction of low-weight points (<1% of avg)   =       4.75%
 GePol: Cavity surface area                          =    343.363 Ang**2
 GePol: Cavity volume                                =    379.187 Ang**3
 Leave Link  301 at Tue Mar 24 18:23:02 2026, MaxMem=  2684354560 cpu:               1.6 elap:               0.0
 (Enter /home/programes/qq/gaussian/g16.A03/g16/l302.exe)
 NPDir=0 NMtPBC=     1 NCelOv=     1 NCel=       1 NClECP=     1 NCelD=      1
         NCelK=      1 NCelE2=     1 NClLst=     1 CellRange=     0.0.
 One-electron integrals computed using PRISM.
   1 Symmetry operations used in ECPInt.
 ECPInt:  NShTT=   11175 NPrTT=  105620 LenC2=   10457 LenP2D=   51112.
 LDataN:  DoStor=T MaxTD1= 7 Len=  274
 NBasis=   339 RedAO= T EigKep=  3.82D-04  NBF=   339
 NBsUse=   339 1.00D-06 EigRej= -1.00D+00 NBFU=   339
 Precomputing XC quadrature grid using
 IXCGrd= 4 IRadAn=           5 IRanWt=          -1 IRanGd=           0 AccXCQ= 0.00D+00.
 Defaulting to unpruned grid for atomic number  75.
 Generated NRdTot=       0 NPtTot=           0 NUsed=           0 NTot=          32
 NSgBfM=   363   363   363   363   363 MxSgAt=    28 MxSgA2=    28.
 Leave Link  302 at Tue Mar 24 18:23:02 2026, MaxMem=  2684354560 cpu:              15.2 elap:               0.3
 (Enter /home/programes/qq/gaussian/g16.A03/g16/l303.exe)
 DipDrv:  MaxL=1.
 Leave Link  303 at Tue Mar 24 18:23:02 2026, MaxMem=  2684354560 cpu:               1.5 elap:               0.0
 (Enter /home/programes/qq/gaussian/g16.A03/g16/l401.exe)
 Initial guess from the checkpoint file:  "re-bpy-co3-cl-1e_eq.chk"
 B after Tr=     0.000000    0.000000    0.000000
         Rot=    1.000000    0.000000    0.000000    0.000000 Ang=   0.00 deg.
 Guess basis will be translated and rotated to current coordinates.
 JPrj=2 DoOrth=T DoCkMO=T.
 Initial guess <Sx>= 0.0000 <Sy>= 0.0000 <Sz>= 0.0000 <S**2>= 0.0101 S= 0.0100
 Leave Link  401 at Tue Mar 24 18:23:03 2026, MaxMem=  2684354560 cpu:              12.7 elap:               0.3
 (Enter /home/programes/qq/gaussian/g16.A03/g16/l502.exe)
 Two-electron integral symmetry not used.
 UHF open shell SCF:
 Using DIIS extrapolation, IDIIS=  1040.
 NGot=  2684354560 LenX=  2684070631 LenY=  2683938421
 Requested convergence on RMS density matrix=1.00D-08 within 128 cycles.
 Requested convergence on MAX density matrix=1.00D-06.
 Requested convergence on             energy=1.00D-06.
 No special actions if energy rises.
 Fock matrices will be formed incrementally for  20 cycles.

 Cycle   1  Pass 1  IDiag  1:
 FoFJK:  IHMeth= 1 ICntrl=       0 DoSepK=F KAlg= 0 I1Cent=           0 FoldK=F
 IRaf= 870000000 NMat=       1 IRICut=       1 DoRegI=T DoRafI=F ISym2E= 0 IDoP0=0 IntGTp=1.
 FoFCou: FMM=F IPFlag=           0 FMFlag=      100000 FMFlg1=           0
         NFxFlg=           0 DoJE=F BraDBF=F KetDBF=F FulRan=T
         wScrn=  0.000000 ICntrl=         0 IOpCl=  1 I1Cent=           0 NGrid=           0
         NMat0=    1 NMatS0=      1 NMatT0=    0 NMatD0=    1 NMtDS0=    0 NMtDT0=    0
 Symmetry not used in FoFCou.
 Defaulting to unpruned grid for atomic number  75.
 Defaulting to unpruned grid for atomic number  75.
 Defaulting to unpruned grid for atomic number  75.
 Defaulting to unpruned grid for atomic number  75.
 Defaulting to unpruned grid for atomic number  75.
 Defaulting to unpruned grid for atomic number  75.
 Defaulting to unpruned grid for atomic number  75.
 Defaulting to unpruned grid for atomic number  75.
 Defaulting to unpruned grid for atomic number  75.
 Defaulting to unpruned grid for atomic number  75.
 Defaulting to unpruned grid for atomic number  75.
 Defaulting to unpruned grid for atomic number  75.
 Defaulting to unpruned grid for atomic number  75.
 Defaulting to unpruned grid for atomic number  75.
 Defaulting to unpruned grid for atomic number  75.
 Defaulting to unpruned grid for atomic number  75.
 Defaulting to unpruned grid for atomic number  75.
 Defaulting to unpruned grid for atomic number  75.
 Defaulting to unpruned grid for atomic number  75.
 Defaulting to unpruned grid for atomic number  75.
 Defaulting to unpruned grid for atomic number  75.
 Defaulting to unpruned grid for atomic number  75.
 Defaulting to unpruned grid for atomic number  75.
 Defaulting to unpruned grid for atomic number  75.
 Defaulting to unpruned grid for atomic number  75.
 Defaulting to unpruned grid for atomic number  75.
 Defaulting to unpruned grid for atomic number  75.
 Defaulting to unpruned grid for atomic number  75.
 Defaulting to unpruned grid for atomic number  75.
 Defaulting to unpruned grid for atomic number  75.
 Defaulting to unpruned grid for atomic number  75.
 Defaulting to unpruned grid for atomic number  75.
 Defaulting to unpruned grid for atomic number  75.
 Defaulting to unpruned grid for atomic number  75.
 Defaulting to unpruned grid for atomic number  75.
 Defaulting to unpruned grid for atomic number  75.
 Defaulting to unpruned grid for atomic number  75.
 Defaulting to unpruned grid for atomic number  75.
 Defaulting to unpruned grid for atomic number  75.
 Defaulting to unpruned grid for atomic number  75.
 Defaulting to unpruned grid for atomic number  75.
 Defaulting to unpruned grid for atomic number  75.
 Defaulting to unpruned grid for atomic number  75.
 Defaulting to unpruned grid for atomic number  75.
 Defaulting to unpruned grid for atomic number  75.
 Defaulting to unpruned grid for atomic number  75.
 Defaulting to unpruned grid for atomic number  75.
 Defaulting to unpruned grid for atomic number  75.
 Inv3:  Mode=1 IEnd=    20108763.
 Iteration    1 A*A^-1 deviation from unit magnitude is 8.66D-15 for    758.
 Iteration    1 A*A^-1 deviation from orthogonality  is 3.44D-15 for   1615    744.
 Iteration    1 A^-1*A deviation from unit magnitude is 7.77D-15 for    580.
 Iteration    1 A^-1*A deviation from orthogonality  is 3.31D-15 for   1965    460.
 NEqPCM:  Using non-equilibrium solvation (IEInf=1, Eps=  37.2190, EpsInf=   2.0463)
 Inv3:  Mode=1 IEnd=    20108763.
 Iteration    1 A*A^-1 deviation from unit magnitude is 1.21D-14 for    935.
 Iteration    1 A*A^-1 deviation from orthogonality  is 3.83D-15 for   2195    227.
 Iteration    1 A^-1*A deviation from unit magnitude is 1.12D-14 for    935.
 Iteration    1 A^-1*A deviation from orthogonality  is 2.40D-15 for   2578   2490.
 E= -1375.01102564673    
 DIIS: error= 5.66D-03 at cycle   1 NSaved=   1.
 NSaved= 1 IEnMin= 1 EnMin= -1375.01102564673     IErMin= 1 ErrMin= 5.66D-03
 ErrMax= 5.66D-03  0.00D+00 EMaxC= 1.00D-01 BMatC= 6.24D-02 BMatP= 6.24D-02
 IDIUse=3 WtCom= 9.43D-01 WtEn= 5.66D-02
 Coeff-Com:  0.100D+01
 Coeff-En:   0.100D+01
 Coeff:      0.100D+01
 Gap=     0.097 Goal=   None    Shift=    0.000
 Gap=     0.120 Goal=   None    Shift=    0.000
 GapD=    0.097 DampG=0.500 DampE=1.000 DampFc=0.5000 IDamp=-1.
 Damping current iteration by 5.00D-01
 RMSDP=1.28D-03 MaxDP=4.53D-02              OVMax= 1.10D-01

 Cycle   2  Pass 1  IDiag  1:
 RMSU=  6.37D-04    CP:  1.00D+00
 E= -1375.01207623926     Delta-E=       -0.001050592529 Rises=F Damp=T
 DIIS: error= 5.00D-03 at cycle   2 NSaved=   2.
 NSaved= 2 IEnMin= 2 EnMin= -1375.01207623926     IErMin= 2 ErrMin= 5.00D-03
 ErrMax= 5.00D-03  0.00D+00 EMaxC= 1.00D-01 BMatC= 3.00D-02 BMatP= 6.24D-02
 IDIUse=3 WtCom= 9.50D-01 WtEn= 5.00D-02
 Coeff-Com:  0.383D+00 0.617D+00
 Coeff-En:   0.479D+00 0.521D+00
 Coeff:      0.388D+00 0.612D+00
 Gap=     0.108 Goal=   None    Shift=    0.000
 Gap=     0.112 Goal=   None    Shift=    0.000
 RMSDP=4.72D-04 MaxDP=3.12D-02 DE=-1.05D-03 OVMax= 7.94D-02

 Cycle   3  Pass 1  IDiag  1:
 RMSU=  4.65D-04    CP:  9.99D-01  8.88D-01
 E= -1375.02405943830     Delta-E=       -0.011983199041 Rises=F Damp=F
 DIIS: error= 6.96D-03 at cycle   3 NSaved=   3.
 NSaved= 3 IEnMin= 3 EnMin= -1375.02405943830     IErMin= 2 ErrMin= 5.00D-03
 ErrMax= 6.96D-03  0.00D+00 EMaxC= 1.00D-01 BMatC= 3.57D-02 BMatP= 3.00D-02
 IDIUse=3 WtCom= 1.07D-01 WtEn= 8.93D-01
 EnCoef did     1 forward-backward iterations
 Coeff-Com:  0.184D+00 0.467D+00 0.348D+00
 Coeff-En:   0.605D-02 0.192D+00 0.802D+00
 Coeff:      0.251D-01 0.221D+00 0.754D+00
 Gap=     0.137 Goal=   None    Shift=    0.000
 Gap=     0.139 Goal=   None    Shift=    0.000
 RMSDP=7.37D-04 MaxDP=6.33D-02 DE=-1.20D-02 OVMax= 6.79D-02

 Cycle   4  Pass 1  IDiag  1:
 RMSU=  3.89D-04    CP:  1.00D+00  1.08D+00 -3.16D-01
 E= -1374.99896860378     Delta-E=        0.025090834521 Rises=F Damp=F
 DIIS: error= 1.57D-02 at cycle   4 NSaved=   4.
 NSaved= 4 IEnMin= 3 EnMin= -1375.02405943830     IErMin= 2 ErrMin= 5.00D-03
 ErrMax= 1.57D-02  0.00D+00 EMaxC= 1.00D-01 BMatC= 1.45D-01 BMatP= 3.00D-02
 IDIUse=2 WtCom= 0.00D+00 WtEn= 1.00D+00
 Coeff-En:   0.000D+00 0.000D+00 0.720D+00 0.280D+00
 Coeff:      0.000D+00 0.000D+00 0.720D+00 0.280D+00
 Gap=     0.127 Goal=   None    Shift=    0.000
 Gap=     0.128 Goal=   None    Shift=    0.000
 RMSDP=4.03D-04 MaxDP=3.64D-02 DE= 2.51D-02 OVMax= 3.94D-02

 Cycle   5  Pass 1  IDiag  1:
 RMSU=  9.26D-05    CP:  1.00D+00  9.06D-01  3.31D-01  4.28D-01
 E= -1375.03085045547     Delta-E=       -0.031881851687 Rises=F Damp=F
 DIIS: error= 2.53D-03 at cycle   5 NSaved=   5.
 NSaved= 5 IEnMin= 5 EnMin= -1375.03085045547     IErMin= 5 ErrMin= 2.53D-03
 ErrMax= 2.53D-03  0.00D+00 EMaxC= 1.00D-01 BMatC= 7.02D-03 BMatP= 3.00D-02
 IDIUse=3 WtCom= 9.75D-01 WtEn= 2.53D-02
 Coeff-Com:  0.323D-01-0.964D-02 0.411D+00 0.119D+00 0.447D+00
 Coeff-En:   0.000D+00 0.000D+00 0.229D+00 0.000D+00 0.771D+00
 Coeff:      0.315D-01-0.940D-02 0.407D+00 0.116D+00 0.455D+00
 Gap=     0.121 Goal=   None    Shift=    0.000
 Gap=     0.122 Goal=   None    Shift=    0.000
 RMSDP=1.21D-04 MaxDP=7.30D-03 DE=-3.19D-02 OVMax= 9.53D-03

 Cycle   6  Pass 1  IDiag  1:
 RMSU=  2.52D-05    CP:  1.00D+00  8.87D-01  5.56D-01  3.40D-01  5.53D-01
 E= -1375.03256880208     Delta-E=       -0.001718346617 Rises=F Damp=F
 DIIS: error= 1.93D-04 at cycle   6 NSaved=   6.
 NSaved= 6 IEnMin= 6 EnMin= -1375.03256880208     IErMin= 6 ErrMin= 1.93D-04
 ErrMax= 1.93D-04  0.00D+00 EMaxC= 1.00D-01 BMatC= 6.16D-05 BMatP= 7.02D-03
 IDIUse=3 WtCom= 9.98D-01 WtEn= 1.93D-03
 Coeff-Com: -0.869D-02-0.310D-01 0.982D-01 0.176D-01 0.221D+00 0.703D+00
 Coeff-En:   0.000D+00 0.000D+00 0.000D+00 0.000D+00 0.000D+00 0.100D+01
 Coeff:     -0.867D-02-0.309D-01 0.980D-01 0.175D-01 0.220D+00 0.704D+00
 Gap=     0.121 Goal=   None    Shift=    0.000
 Gap=     0.122 Goal=   None    Shift=    0.000
 RMSDP=1.63D-05 MaxDP=1.25D-03 DE=-1.72D-03 OVMax= 1.83D-03

 Cycle   7  Pass 1  IDiag  1:
 RMSU=  1.27D-05    CP:  1.00D+00  8.92D-01  5.47D-01  3.54D-01  6.29D-01
                    CP:  9.93D-01
 E= -1375.03258901346     Delta-E=       -0.000020211376 Rises=F Damp=F
 DIIS: error= 1.02D-04 at cycle   7 NSaved=   7.
 NSaved= 7 IEnMin= 7 EnMin= -1375.03258901346     IErMin= 7 ErrMin= 1.02D-04
 ErrMax= 1.02D-04  0.00D+00 EMaxC= 1.00D-01 BMatC= 1.80D-05 BMatP= 6.16D-05
 IDIUse=3 WtCom= 9.99D-01 WtEn= 1.02D-03
 Coeff-Com: -0.115D-01-0.136D-01-0.191D-01-0.123D-01 0.442D-01 0.429D+00
 Coeff-Com:  0.583D+00
 Coeff-En:   0.000D+00 0.000D+00 0.000D+00 0.000D+00 0.000D+00 0.000D+00
 Coeff-En:   0.100D+01
 Coeff:     -0.115D-01-0.136D-01-0.191D-01-0.122D-01 0.441D-01 0.429D+00
 Coeff:      0.583D+00
 Gap=     0.122 Goal=   None    Shift=    0.000
 Gap=     0.122 Goal=   None    Shift=    0.000
 RMSDP=8.07D-06 MaxDP=6.01D-04 DE=-2.02D-05 OVMax= 1.14D-03

 Cycle   8  Pass 1  IDiag  1:
 RMSU=  6.55D-06    CP:  1.00D+00  8.93D-01  5.51D-01  3.54D-01  6.59D-01
                    CP:  1.13D+00  9.94D-01
 E= -1375.03259503942     Delta-E=       -0.000006025958 Rises=F Damp=F
 DIIS: error= 5.03D-05 at cycle   8 NSaved=   8.
 NSaved= 8 IEnMin= 8 EnMin= -1375.03259503942     IErMin= 8 ErrMin= 5.03D-05
 ErrMax= 5.03D-05  0.00D+00 EMaxC= 1.00D-01 BMatC= 4.11D-06 BMatP= 1.80D-05
 IDIUse=1 WtCom= 1.00D+00 WtEn= 0.00D+00
 Coeff-Com: -0.455D-02 0.144D-02-0.414D-01-0.114D-01-0.462D-01 0.189D-01
 Coeff-Com:  0.345D+00 0.738D+00
 Coeff:     -0.455D-02 0.144D-02-0.414D-01-0.114D-01-0.462D-01 0.189D-01
 Coeff:      0.345D+00 0.738D+00
 Gap=     0.121 Goal=   None    Shift=    0.000
 Gap=     0.122 Goal=   None    Shift=    0.000
 RMSDP=5.62D-06 MaxDP=4.12D-04 DE=-6.03D-06 OVMax= 8.04D-04

 Cycle   9  Pass 1  IDiag  1:
 RMSU=  3.58D-06    CP:  1.00D+00  8.94D-01  5.52D-01  3.55D-01  6.65D-01
                    CP:  1.26D+00  1.19D+00  9.51D-01
 E= -1375.03259723414     Delta-E=       -0.000002194720 Rises=F Damp=F
 DIIS: error= 2.83D-05 at cycle   9 NSaved=   9.
 NSaved= 9 IEnMin= 9 EnMin= -1375.03259723414     IErMin= 9 ErrMin= 2.83D-05
 ErrMax= 2.83D-05  0.00D+00 EMaxC= 1.00D-01 BMatC= 1.07D-06 BMatP= 4.11D-06
 IDIUse=1 WtCom= 1.00D+00 WtEn= 0.00D+00
 Coeff-Com:  0.473D-03 0.405D-02-0.190D-01-0.304D-02-0.392D-01-0.108D+00
 Coeff-Com:  0.475D-01 0.427D+00 0.690D+00
 Coeff:      0.473D-03 0.405D-02-0.190D-01-0.304D-02-0.392D-01-0.108D+00
 Coeff:      0.475D-01 0.427D+00 0.690D+00
 Gap=     0.122 Goal=   None    Shift=    0.000
 Gap=     0.122 Goal=   None    Shift=    0.000
 RMSDP=3.09D-06 MaxDP=2.44D-04 DE=-2.19D-06 OVMax= 4.11D-04

 Cycle  10  Pass 1  IDiag  1:
 RMSU=  1.87D-06    CP:  1.00D+00  8.95D-01  5.52D-01  3.56D-01  6.73D-01
                    CP:  1.28D+00  1.32D+00  1.17D+00  1.14D+00
 E= -1375.03259789464     Delta-E=       -0.000000660500 Rises=F Damp=F
 DIIS: error= 1.39D-05 at cycle  10 NSaved=  10.
 NSaved=10 IEnMin=10 EnMin= -1375.03259789464     IErMin=10 ErrMin= 1.39D-05
 ErrMax= 1.39D-05  0.00D+00 EMaxC= 1.00D-01 BMatC= 2.06D-07 BMatP= 1.07D-06
 IDIUse=1 WtCom= 1.00D+00 WtEn= 0.00D+00
 Coeff-Com:  0.135D-02 0.271D-03 0.304D-02 0.192D-02-0.353D-02-0.509D-01
 Coeff-Com: -0.665D-01-0.129D-02 0.297D+00 0.819D+00
 Coeff:      0.135D-02 0.271D-03 0.304D-02 0.192D-02-0.353D-02-0.509D-01
 Coeff:     -0.665D-01-0.129D-02 0.297D+00 0.819D+00
 Gap=     0.122 Goal=   None    Shift=    0.000
 Gap=     0.122 Goal=   None    Shift=    0.000
 RMSDP=1.81D-06 MaxDP=1.26D-04 DE=-6.60D-07 OVMax= 2.37D-04

 Cycle  11  Pass 1  IDiag  1:
 RMSU=  9.86D-07    CP:  1.00D+00  8.94D-01  5.52D-01  3.57D-01  6.74D-01
                    CP:  1.30D+00  1.37D+00  1.30D+00  1.38D+00  1.13D+00
 E= -1375.03259808022     Delta-E=       -0.000000185585 Rises=F Damp=F
 DIIS: error= 7.10D-06 at cycle  11 NSaved=  11.
 NSaved=11 IEnMin=11 EnMin= -1375.03259808022     IErMin=11 ErrMin= 7.10D-06
 ErrMax= 7.10D-06  0.00D+00 EMaxC= 1.00D-01 BMatC= 6.15D-08 BMatP= 2.06D-07
 IDIUse=1 WtCom= 1.00D+00 WtEn= 0.00D+00
 Coeff-Com:  0.632D-03-0.548D-03 0.528D-02 0.143D-02 0.631D-02-0.193D-02
 Coeff-Com: -0.431D-01-0.974D-01-0.158D-01 0.406D+00 0.739D+00
 Coeff:      0.632D-03-0.548D-03 0.528D-02 0.143D-02 0.631D-02-0.193D-02
 Coeff:     -0.431D-01-0.974D-01-0.158D-01 0.406D+00 0.739D+00
 Gap=     0.122 Goal=   None    Shift=    0.000
 Gap=     0.122 Goal=   None    Shift=    0.000
 RMSDP=9.67D-07 MaxDP=5.93D-05 DE=-1.86D-07 OVMax= 1.31D-04

 Cycle  12  Pass 1  IDiag  1:
 RMSU=  5.10D-07    CP:  1.00D+00  8.94D-01  5.52D-01  3.57D-01  6.75D-01
                    CP:  1.31D+00  1.39D+00  1.33D+00  1.52D+00  1.35D+00
                    CP:  1.11D+00
 E= -1375.03259813107     Delta-E=       -0.000000050843 Rises=F Damp=F
 DIIS: error= 4.49D-06 at cycle  12 NSaved=  12.
 NSaved=12 IEnMin=12 EnMin= -1375.03259813107     IErMin=12 ErrMin= 4.49D-06
 ErrMax= 4.49D-06  0.00D+00 EMaxC= 1.00D-01 BMatC= 2.95D-08 BMatP= 6.15D-08
 IDIUse=1 WtCom= 1.00D+00 WtEn= 0.00D+00
 Coeff-Com: -0.582D-05-0.337D-03 0.265D-02 0.337D-03 0.559D-02 0.159D-01
 Coeff-Com: -0.817D-02-0.682D-01-0.111D+00 0.958D-02 0.487D+00 0.667D+00
 Coeff:     -0.582D-05-0.337D-03 0.265D-02 0.337D-03 0.559D-02 0.159D-01
 Coeff:     -0.817D-02-0.682D-01-0.111D+00 0.958D-02 0.487D+00 0.667D+00
 Gap=     0.122 Goal=   None    Shift=    0.000
 Gap=     0.122 Goal=   None    Shift=    0.000
 RMSDP=5.87D-07 MaxDP=4.15D-05 DE=-5.08D-08 OVMax= 7.61D-05

 Cycle  13  Pass 1  IDiag  1:
 RMSU=  2.83D-07    CP:  1.00D+00  8.94D-01  5.52D-01  3.57D-01  6.75D-01
                    CP:  1.31D+00  1.40D+00  1.36D+00  1.60D+00  1.49D+00
                    CP:  1.39D+00  9.44D-01
 E= -1375.03259814986     Delta-E=       -0.000000018792 Rises=F Damp=F
 DIIS: error= 2.48D-06 at cycle  13 NSaved=  13.
 NSaved=13 IEnMin=13 EnMin= -1375.03259814986     IErMin=13 ErrMin= 2.48D-06
 ErrMax= 2.48D-06  0.00D+00 EMaxC= 1.00D-01 BMatC= 7.63D-09 BMatP= 2.95D-08
 IDIUse=1 WtCom= 1.00D+00 WtEn= 0.00D+00
 Coeff-Com: -0.294D-03 0.976D-05-0.466D-03-0.372D-03 0.106D-02 0.111D-01
 Coeff-Com:  0.114D-01-0.420D-02-0.603D-01-0.149D+00-0.109D-01 0.413D+00
 Coeff-Com:  0.789D+00
 Coeff:     -0.294D-03 0.976D-05-0.466D-03-0.372D-03 0.106D-02 0.111D-01
 Coeff:      0.114D-01-0.420D-02-0.603D-01-0.149D+00-0.109D-01 0.413D+00
 Coeff:      0.789D+00
 Gap=     0.122 Goal=   None    Shift=    0.000
 Gap=     0.122 Goal=   None    Shift=    0.000
 RMSDP=3.42D-07 MaxDP=2.71D-05 DE=-1.88D-08 OVMax= 5.01D-05

 Cycle  14  Pass 1  IDiag  1:
 RMSU=  1.34D-07    CP:  1.00D+00  8.94D-01  5.52D-01  3.57D-01  6.75D-01
                    CP:  1.31D+00  1.41D+00  1.37D+00  1.64D+00  1.57D+00
                    CP:  1.54D+00  1.20D+00  1.03D+00
 E= -1375.03259815465     Delta-E=       -0.000000004789 Rises=F Damp=F
 DIIS: error= 6.20D-07 at cycle  14 NSaved=  14.
 NSaved=14 IEnMin=14 EnMin= -1375.03259815465     IErMin=14 ErrMin= 6.20D-07
 ErrMax= 6.20D-07  0.00D+00 EMaxC= 1.00D-01 BMatC= 9.68D-10 BMatP= 7.63D-09
 IDIUse=1 WtCom= 1.00D+00 WtEn= 0.00D+00
 Coeff-Com: -0.141D-03 0.416D-04-0.551D-03-0.221D-03-0.213D-03 0.332D-02
 Coeff-Com:  0.645D-02 0.680D-02-0.147D-01-0.736D-01-0.656D-01 0.116D+00
 Coeff-Com:  0.379D+00 0.644D+00
 Coeff:     -0.141D-03 0.416D-04-0.551D-03-0.221D-03-0.213D-03 0.332D-02
 Coeff:      0.645D-02 0.680D-02-0.147D-01-0.736D-01-0.656D-01 0.116D+00
 Coeff:      0.379D+00 0.644D+00
 Gap=     0.122 Goal=   None    Shift=    0.000
 Gap=     0.122 Goal=   None    Shift=    0.000
 RMSDP=8.61D-08 MaxDP=5.12D-06 DE=-4.79D-09 OVMax= 1.00D-05

 Cycle  15  Pass 1  IDiag  1:
 RMSU=  5.76D-08    CP:  1.00D+00  8.94D-01  5.52D-01  3.57D-01  6.75D-01
                    CP:  1.31D+00  1.41D+00  1.37D+00  1.65D+00  1.58D+00
                    CP:  1.56D+00  1.29D+00  1.11D+00  9.79D-01
 E= -1375.03259815501     Delta-E=       -0.000000000360 Rises=F Damp=F
 DIIS: error= 4.20D-07 at cycle  15 NSaved=  15.
 NSaved=15 IEnMin=15 EnMin= -1375.03259815501     IErMin=15 ErrMin= 4.20D-07
 ErrMax= 4.20D-07  0.00D+00 EMaxC= 1.00D-01 BMatC= 2.94D-10 BMatP= 9.68D-10
 IDIUse=1 WtCom= 1.00D+00 WtEn= 0.00D+00
 Coeff-Com: -0.743D-05 0.929D-05-0.200D-03-0.336D-04-0.409D-03-0.981D-03
 Coeff-Com:  0.833D-03 0.520D-02 0.743D-02-0.438D-02-0.348D-01-0.414D-01
 Coeff-Com:  0.195D-01 0.380D+00 0.669D+00
 Coeff:     -0.743D-05 0.929D-05-0.200D-03-0.336D-04-0.409D-03-0.981D-03
 Coeff:      0.833D-03 0.520D-02 0.743D-02-0.438D-02-0.348D-01-0.414D-01
 Coeff:      0.195D-01 0.380D+00 0.669D+00
 Gap=     0.122 Goal=   None    Shift=    0.000
 Gap=     0.122 Goal=   None    Shift=    0.000
 RMSDP=4.05D-08 MaxDP=2.18D-06 DE=-3.60D-10 OVMax= 3.75D-06

 Cycle  16  Pass 1  IDiag  1:
 RMSU=  2.44D-08    CP:  1.00D+00  8.94D-01  5.52D-01  3.57D-01  6.75D-01
                    CP:  1.32D+00  1.41D+00  1.37D+00  1.65D+00  1.58D+00
                    CP:  1.57D+00  1.29D+00  1.18D+00  1.11D+00  8.71D-01
 E= -1375.03259815507     Delta-E=       -0.000000000065 Rises=F Damp=F
 DIIS: error= 1.77D-07 at cycle  16 NSaved=  16.
 NSaved=16 IEnMin=16 EnMin= -1375.03259815507     IErMin=16 ErrMin= 1.77D-07
 ErrMax= 1.77D-07  0.00D+00 EMaxC= 1.00D-01 BMatC= 5.57D-11 BMatP= 2.94D-10
 IDIUse=1 WtCom= 1.00D+00 WtEn= 0.00D+00
 Coeff-Com:  0.199D-04-0.274D-05-0.249D-04 0.175D-04-0.209D-03-0.120D-02
 Coeff-Com: -0.597D-03 0.195D-02 0.712D-02 0.104D-01-0.959D-02-0.451D-01
 Coeff-Com: -0.530D-01 0.113D+00 0.399D+00 0.578D+00
 Coeff:      0.199D-04-0.274D-05-0.249D-04 0.175D-04-0.209D-03-0.120D-02
 Coeff:     -0.597D-03 0.195D-02 0.712D-02 0.104D-01-0.959D-02-0.451D-01
 Coeff:     -0.530D-01 0.113D+00 0.399D+00 0.578D+00
 Gap=     0.122 Goal=   None    Shift=    0.000
 Gap=     0.122 Goal=   None    Shift=    0.000
 RMSDP=1.58D-08 MaxDP=9.66D-07 DE=-6.55D-11 OVMax= 1.66D-06

 Cycle  17  Pass 1  IDiag  1:
 RMSU=  9.64D-09    CP:  1.00D+00  8.94D-01  5.52D-01  3.57D-01  6.75D-01
                    CP:  1.32D+00  1.41D+00  1.37D+00  1.65D+00  1.58D+00
                    CP:  1.57D+00  1.30D+00  1.18D+00  1.17D+00  9.36D-01
                    CP:  7.42D-01
 E= -1375.03259815511     Delta-E=       -0.000000000035 Rises=F Damp=F
 DIIS: error= 5.82D-08 at cycle  17 NSaved=  17.
 NSaved=17 IEnMin=17 EnMin= -1375.03259815511     IErMin=17 ErrMin= 5.82D-08
 ErrMax= 5.82D-08  0.00D+00 EMaxC= 1.00D-01 BMatC= 6.46D-12 BMatP= 5.57D-11
 IDIUse=1 WtCom= 1.00D+00 WtEn= 0.00D+00
 Coeff-Com:  0.106D-04-0.300D-05 0.178D-04 0.141D-04-0.400D-04-0.446D-03
 Coeff-Com: -0.397D-03 0.189D-03 0.237D-02 0.578D-02 0.122D-03-0.163D-01
 Coeff-Com: -0.285D-01 0.224D-02 0.109D+00 0.301D+00 0.625D+00
 Coeff:      0.106D-04-0.300D-05 0.178D-04 0.141D-04-0.400D-04-0.446D-03
 Coeff:     -0.397D-03 0.189D-03 0.237D-02 0.578D-02 0.122D-03-0.163D-01
 Coeff:     -0.285D-01 0.224D-02 0.109D+00 0.301D+00 0.625D+00
 Gap=     0.122 Goal=   None    Shift=    0.000
 Gap=     0.122 Goal=   None    Shift=    0.000
 RMSDP=4.95D-09 MaxDP=3.85D-07 DE=-3.50D-11 OVMax= 5.18D-07

 Error on total polarization charges =  0.49980
 SCF Done:  E(UB3LYP) =  -1375.03259816     A.U. after   17 cycles
            NFock= 17  Conv=0.50D-08     -V/T= 2.0465
 <Sx>= 0.0000 <Sy>= 0.0000 <Sz>= 0.0000 <S**2>= 0.0000 S= 0.0000
 <L.S>= 0.000000000000E+00
 KE= 1.313878551432D+03 PE=-6.702879678282D+03 EE= 2.263555498792D+03
 Annihilation of the first spin contaminant:
 S**2 before annihilation     0.0000,   after     0.0000
 Leave Link  502 at Tue Mar 24 18:23:43 2026, MaxMem=  2684354560 cpu:            1804.3 elap:              40.2
 (Enter /home/programes/qq/gaussian/g16.A03/g16/l601.exe)
 Copying SCF densities to generalized density rwf, IOpCl= 1 IROHF=0.

 **********************************************************************

            Population analysis using the SCF density.

 **********************************************************************

 Alpha  occ. eigenvalues -- -101.51578 -19.25852 -19.25850 -19.25073 -14.45813
 Alpha  occ. eigenvalues --  -14.45800 -10.34522 -10.34520 -10.34198 -10.33223
 Alpha  occ. eigenvalues --  -10.33187 -10.31429 -10.31415 -10.29039 -10.29029
 Alpha  occ. eigenvalues --  -10.28824 -10.28811 -10.28280 -10.28271  -9.43045
 Alpha  occ. eigenvalues --   -7.18931  -7.18575  -7.18567  -3.28664  -1.88623
 Alpha  occ. eigenvalues --   -1.88131  -1.87983  -1.16669  -1.16626  -1.15925
 Alpha  occ. eigenvalues --   -1.05398  -1.02704  -0.89646  -0.89080  -0.88755
 Alpha  occ. eigenvalues --   -0.83056  -0.77502  -0.75334  -0.73459  -0.69805
 Alpha  occ. eigenvalues --   -0.69303  -0.64361  -0.62015  -0.61175  -0.60873
 Alpha  occ. eigenvalues --   -0.59025  -0.58536  -0.56724  -0.55052  -0.53300
 Alpha  occ. eigenvalues --   -0.52993  -0.51993  -0.51946  -0.51637  -0.51054
 Alpha  occ. eigenvalues --   -0.50254  -0.50132  -0.49698  -0.49280  -0.48695
 Alpha  occ. eigenvalues --   -0.48064  -0.47873  -0.47782  -0.47560  -0.45405
 Alpha  occ. eigenvalues --   -0.45283  -0.41374  -0.39710  -0.39024  -0.38425
 Alpha  occ. eigenvalues --   -0.38069  -0.33636  -0.32551  -0.31734  -0.31672
 Alpha  occ. eigenvalues --   -0.30117  -0.28905  -0.28662
 Alpha virt. eigenvalues --   -0.16507  -0.11600  -0.10955  -0.08751  -0.08720
 Alpha virt. eigenvalues --   -0.06115  -0.04902  -0.03991  -0.02665  -0.02587
 Alpha virt. eigenvalues --   -0.01453  -0.01033  -0.00352   0.00224   0.01614
 Alpha virt. eigenvalues --    0.02767   0.02991   0.03317   0.03459   0.05568
 Alpha virt. eigenvalues --    0.06702   0.06731   0.08126   0.09603   0.10432
 Alpha virt. eigenvalues --    0.13254   0.13725   0.15383   0.16681   0.17980
 Alpha virt. eigenvalues --    0.19573   0.20846   0.21319   0.22538   0.25156
 Alpha virt. eigenvalues --    0.27552   0.28125   0.28472   0.29361   0.29987
 Alpha virt. eigenvalues --    0.31153   0.33745   0.34825   0.35429   0.35985
 Alpha virt. eigenvalues --    0.36861   0.37151   0.38754   0.39970   0.40873
 Alpha virt. eigenvalues --    0.41076   0.41385   0.41687   0.41893   0.43100
 Alpha virt. eigenvalues --    0.44085   0.44894   0.45174   0.45181   0.46313
 Alpha virt. eigenvalues --    0.47079   0.47120   0.48184   0.49563   0.50253
 Alpha virt. eigenvalues --    0.51590   0.51612   0.52752   0.53647   0.55071
 Alpha virt. eigenvalues --    0.56441   0.56879   0.57115   0.57795   0.58675
 Alpha virt. eigenvalues --    0.58798   0.59281   0.60204   0.60273   0.60827
 Alpha virt. eigenvalues --    0.62573   0.62885   0.63470   0.63685   0.64484
 Alpha virt. eigenvalues --    0.65384   0.66548   0.67977   0.69215   0.70178
 Alpha virt. eigenvalues --    0.70513   0.74502   0.74792   0.76134   0.76629
 Alpha virt. eigenvalues --    0.77417   0.77821   0.78116   0.79588   0.80795
 Alpha virt. eigenvalues --    0.80847   0.81700   0.83167   0.83480   0.83894
 Alpha virt. eigenvalues --    0.84142   0.84441   0.85189   0.87286   0.88034
 Alpha virt. eigenvalues --    0.88621   0.89818   0.90237   0.90370   0.91201
 Alpha virt. eigenvalues --    0.93283   0.94267   0.94344   0.95067   0.97253
 Alpha virt. eigenvalues --    0.97543   0.99029   0.99259   0.99750   1.00524
 Alpha virt. eigenvalues --    1.00909   1.01944   1.02454   1.02866   1.03718
 Alpha virt. eigenvalues --    1.04094   1.04473   1.05382   1.07603   1.07850
 Alpha virt. eigenvalues --    1.08972   1.09048   1.09462   1.11238   1.15780
 Alpha virt. eigenvalues --    1.17192   1.17740   1.20727   1.23098   1.24199
 Alpha virt. eigenvalues --    1.27865   1.29451   1.30485   1.32935   1.33732
 Alpha virt. eigenvalues --    1.34707   1.36358   1.37094   1.37949   1.38287
 Alpha virt. eigenvalues --    1.39117   1.40347   1.40798   1.41793   1.42989
 Alpha virt. eigenvalues --    1.45700   1.47182   1.47735   1.48115   1.50694
 Alpha virt. eigenvalues --    1.52008   1.52917   1.53189   1.54540   1.54718
 Alpha virt. eigenvalues --    1.55723   1.56528   1.59134   1.59604   1.62156
 Alpha virt. eigenvalues --    1.62505   1.63229   1.63689   1.64338   1.64929
 Alpha virt. eigenvalues --    1.66160   1.67828   1.69550   1.70446   1.73307
 Alpha virt. eigenvalues --    1.73394   1.73703   1.74807   1.76047   1.76217
 Alpha virt. eigenvalues --    1.77602   1.78653   1.80349   1.81955   1.82503
 Alpha virt. eigenvalues --    1.83065   1.83785   1.85261   1.87620   1.87677
 Alpha virt. eigenvalues --    1.89501   1.91835   1.92452   1.93021   1.93371
 Alpha virt. eigenvalues --    1.94038   1.94435   1.96029   1.98527   1.98716
 Alpha virt. eigenvalues --    2.01947   2.02820   2.06915   2.08917   2.09606
 Alpha virt. eigenvalues --    2.16010   2.18347   2.21838   2.24152   2.25418
 Alpha virt. eigenvalues --    2.26245   2.28056   2.28280   2.29329   2.31281
 Alpha virt. eigenvalues --    2.31363   2.33917   2.35433   2.38848   2.40788
 Alpha virt. eigenvalues --    2.41716   2.43600   2.54917   2.55007   2.55412
 Alpha virt. eigenvalues --    2.55682   2.55884   2.56136   2.56419   2.57706
 Alpha virt. eigenvalues --    2.62661   2.63043   2.67100   2.68753   2.73632
 Alpha virt. eigenvalues --    2.76614   2.79010   2.83260   3.02064   3.02540
 Alpha virt. eigenvalues --    3.03032   3.03466   3.03923   3.03944   3.04714
 Alpha virt. eigenvalues --    3.35213   3.43632   3.44158   3.44488   3.47533
 Alpha virt. eigenvalues --   21.23269
  Beta  occ. eigenvalues -- -101.51578 -19.25852 -19.25850 -19.25073 -14.45813
  Beta  occ. eigenvalues --  -14.45800 -10.34522 -10.34520 -10.34198 -10.33223
  Beta  occ. eigenvalues --  -10.33187 -10.31429 -10.31415 -10.29039 -10.29029
  Beta  occ. eigenvalues --  -10.28824 -10.28811 -10.28280 -10.28271  -9.43045
  Beta  occ. eigenvalues --   -7.18931  -7.18575  -7.18567  -3.28664  -1.88623
  Beta  occ. eigenvalues --   -1.88131  -1.87983  -1.16669  -1.16626  -1.15925
  Beta  occ. eigenvalues --   -1.05398  -1.02704  -0.89646  -0.89080  -0.88755
  Beta  occ. eigenvalues --   -0.83056  -0.77502  -0.75334  -0.73459  -0.69805
  Beta  occ. eigenvalues --   -0.69303  -0.64361  -0.62015  -0.61175  -0.60873
  Beta  occ. eigenvalues --   -0.59025  -0.58536  -0.56724  -0.55052  -0.53300
  Beta  occ. eigenvalues --   -0.52993  -0.51993  -0.51946  -0.51637  -0.51054
  Beta  occ. eigenvalues --   -0.50254  -0.50132  -0.49698  -0.49280  -0.48695
  Beta  occ. eigenvalues --   -0.48064  -0.47873  -0.47782  -0.47560  -0.45405
  Beta  occ. eigenvalues --   -0.45283  -0.41374  -0.39710  -0.39024  -0.38425
  Beta  occ. eigenvalues --   -0.38069  -0.33636  -0.32551  -0.31734  -0.31672
  Beta  occ. eigenvalues --   -0.30117  -0.28905  -0.28662
  Beta virt. eigenvalues --   -0.16507  -0.11600  -0.10955  -0.08751  -0.08720
  Beta virt. eigenvalues --   -0.06115  -0.04902  -0.03991  -0.02665  -0.02587
  Beta virt. eigenvalues --   -0.01453  -0.01033  -0.00352   0.00224   0.01614
  Beta virt. eigenvalues --    0.02767   0.02991   0.03317   0.03459   0.05568
  Beta virt. eigenvalues --    0.06702   0.06731   0.08126   0.09603   0.10432
  Beta virt. eigenvalues --    0.13254   0.13725   0.15383   0.16681   0.17980
  Beta virt. eigenvalues --    0.19573   0.20846   0.21319   0.22538   0.25156
  Beta virt. eigenvalues --    0.27552   0.28125   0.28472   0.29361   0.29987
  Beta virt. eigenvalues --    0.31153   0.33745   0.34825   0.35429   0.35985
  Beta virt. eigenvalues --    0.36861   0.37151   0.38754   0.39970   0.40873
  Beta virt. eigenvalues --    0.41076   0.41385   0.41687   0.41893   0.43100
  Beta virt. eigenvalues --    0.44085   0.44894   0.45174   0.45181   0.46313
  Beta virt. eigenvalues --    0.47079   0.47120   0.48184   0.49563   0.50253
  Beta virt. eigenvalues --    0.51590   0.51612   0.52752   0.53647   0.55071
  Beta virt. eigenvalues --    0.56441   0.56879   0.57115   0.57795   0.58675
  Beta virt. eigenvalues --    0.58798   0.59281   0.60204   0.60273   0.60827
  Beta virt. eigenvalues --    0.62573   0.62885   0.63470   0.63685   0.64484
  Beta virt. eigenvalues --    0.65384   0.66548   0.67977   0.69215   0.70178
  Beta virt. eigenvalues --    0.70513   0.74502   0.74792   0.76134   0.76629
  Beta virt. eigenvalues --    0.77417   0.77821   0.78116   0.79588   0.80795
  Beta virt. eigenvalues --    0.80847   0.81700   0.83167   0.83480   0.83894
  Beta virt. eigenvalues --    0.84142   0.84441   0.85189   0.87286   0.88034
  Beta virt. eigenvalues --    0.88621   0.89818   0.90237   0.90370   0.91201
  Beta virt. eigenvalues --    0.93283   0.94267   0.94344   0.95067   0.97253
  Beta virt. eigenvalues --    0.97543   0.99029   0.99259   0.99750   1.00524
  Beta virt. eigenvalues --    1.00909   1.01944   1.02454   1.02866   1.03718
  Beta virt. eigenvalues --    1.04094   1.04473   1.05382   1.07603   1.07850
  Beta virt. eigenvalues --    1.08972   1.09048   1.09462   1.11238   1.15780
  Beta virt. eigenvalues --    1.17192   1.17740   1.20727   1.23098   1.24199
  Beta virt. eigenvalues --    1.27865   1.29451   1.30485   1.32935   1.33732
  Beta virt. eigenvalues --    1.34707   1.36358   1.37094   1.37949   1.38287
  Beta virt. eigenvalues --    1.39117   1.40347   1.40798   1.41793   1.42989
  Beta virt. eigenvalues --    1.45700   1.47182   1.47735   1.48115   1.50694
  Beta virt. eigenvalues --    1.52008   1.52917   1.53189   1.54540   1.54718
  Beta virt. eigenvalues --    1.55723   1.56528   1.59134   1.59604   1.62156
  Beta virt. eigenvalues --    1.62505   1.63229   1.63689   1.64338   1.64929
  Beta virt. eigenvalues --    1.66160   1.67828   1.69550   1.70446   1.73307
  Beta virt. eigenvalues --    1.73394   1.73703   1.74807   1.76047   1.76217
  Beta virt. eigenvalues --    1.77602   1.78653   1.80349   1.81955   1.82503
  Beta virt. eigenvalues --    1.83065   1.83785   1.85261   1.87620   1.87677
  Beta virt. eigenvalues --    1.89501   1.91835   1.92452   1.93021   1.93371
  Beta virt. eigenvalues --    1.94038   1.94435   1.96029   1.98527   1.98716
  Beta virt. eigenvalues --    2.01947   2.02820   2.06915   2.08917   2.09606
  Beta virt. eigenvalues --    2.16010   2.18347   2.21838   2.24152   2.25418
  Beta virt. eigenvalues --    2.26245   2.28056   2.28280   2.29329   2.31281
  Beta virt. eigenvalues --    2.31363   2.33917   2.35433   2.38848   2.40788
  Beta virt. eigenvalues --    2.41716   2.43600   2.54917   2.55007   2.55412
  Beta virt. eigenvalues --    2.55682   2.55884   2.56136   2.56419   2.57706
  Beta virt. eigenvalues --    2.62661   2.63043   2.67100   2.68753   2.73632
  Beta virt. eigenvalues --    2.76614   2.79010   2.83260   3.02064   3.02540
  Beta virt. eigenvalues --    3.03032   3.03466   3.03923   3.03944   3.04714
  Beta virt. eigenvalues --    3.35213   3.43632   3.44158   3.44488   3.47533
  Beta virt. eigenvalues --   21.23269
          Condensed to atoms (all electrons):
               1          2          3          4          5          6
     1  C    5.028208   0.491904  -0.003538  -0.050205  -0.053165   0.219847
     2  C    0.491904   4.801450   0.485932   0.006285  -0.059085  -0.083153
     3  C   -0.003538   0.485932   4.653717   0.466765  -0.015455   0.011037
     4  C   -0.050205   0.006285   0.466765   4.715115   0.537770   0.001089
     5  C   -0.053165  -0.059085  -0.015455   0.537770   4.620941   0.005942
     6  C    0.219847  -0.083153   0.011037   0.001089   0.005942   5.027179
     7  C   -0.083242  -0.007534   0.000441  -0.000071  -0.000028   0.491809
     8  C    0.011043   0.000439  -0.000044   0.000002   0.000002  -0.003478
     9  C    0.001082  -0.000071   0.000002  -0.000000  -0.000001  -0.050280
    10  C    0.005975  -0.000028   0.000002  -0.000001   0.000047  -0.052992
    11  H   -0.041406   0.410086  -0.040482   0.009014   0.000098  -0.023450
    12  H    0.009292  -0.034888   0.398155  -0.048501   0.008962  -0.000318
    13  H    0.000322   0.008913  -0.038691   0.405608  -0.040885   0.000021
    14  H    0.002355   0.001901   0.005501  -0.031322   0.384245  -0.000939
    15  H   -0.023494   0.002836   0.001198  -0.000035  -0.000012  -0.041314
    16  H   -0.000317   0.000025  -0.000001   0.000000  -0.000000   0.009295
    17  H    0.000021  -0.000001   0.000000   0.000000   0.000000   0.000324
    18  H   -0.000939   0.000013   0.000000  -0.000000   0.000003   0.002347
    19  N   -0.007179   0.004261  -0.000132  -0.000003  -0.000414   0.354808
    20  N    0.354653  -0.032733  -0.035126  -0.014649   0.470442  -0.007244
    21  Re  -0.063508  -0.000464   0.000724  -0.001692  -0.030094  -0.063354
    22  C   -0.001758   0.000022   0.000029  -0.000035  -0.002896  -0.001676
    23  C    0.001061   0.000003  -0.000001   0.000002   0.000180  -0.001127
    24  C   -0.001126   0.000003   0.000003   0.000210  -0.004526   0.001057
    25  O    0.000059  -0.000000  -0.000000   0.000001   0.000138   0.000058
    26  O   -0.000002  -0.000000   0.000000  -0.000000  -0.000000  -0.000006
    27  O   -0.000006   0.000000  -0.000000  -0.000003  -0.001089  -0.000002
    28  Cl   0.000669  -0.000261   0.000043  -0.000202   0.000233   0.000634
               7          8          9         10         11         12
     1  C   -0.083242   0.011043   0.001082   0.005975  -0.041406   0.009292
     2  C   -0.007534   0.000439  -0.000071  -0.000028   0.410086  -0.034888
     3  C    0.000441  -0.000044   0.000002   0.000002  -0.040482   0.398155
     4  C   -0.000071   0.000002  -0.000000  -0.000001   0.009014  -0.048501
     5  C   -0.000028   0.000002  -0.000001   0.000047   0.000098   0.008962
     6  C    0.491809  -0.003478  -0.050280  -0.052992  -0.023450  -0.000318
     7  C    4.801710   0.485808   0.006452  -0.059253   0.002831   0.000025
     8  C    0.485808   4.653780   0.466693  -0.015390   0.001195  -0.000000
     9  C    0.006452   0.466693   4.715190   0.537617  -0.000035   0.000000
    10  C   -0.059253  -0.015390   0.537617   4.620925  -0.000012  -0.000000
    11  H    0.002831   0.001195  -0.000035  -0.000012   0.678774  -0.014461
    12  H    0.000025  -0.000000   0.000000  -0.000000  -0.014461   0.662483
    13  H   -0.000001   0.000000  -0.000000   0.000000  -0.000183  -0.011206
    14  H    0.000013   0.000000  -0.000000   0.000003   0.000097  -0.000278
    15  H    0.410091  -0.040519   0.009012   0.000098  -0.005482   0.000064
    16  H   -0.034928   0.398154  -0.048505   0.008970   0.000064  -0.000000
    17  H    0.008909  -0.038693   0.405600  -0.040885  -0.000000  -0.000000
    18  H    0.001904   0.005503  -0.031338   0.384173  -0.000001   0.000000
    19  N   -0.032632  -0.035166  -0.014492   0.469949   0.000157   0.000001
    20  N    0.004269  -0.000132  -0.000003  -0.000428   0.004049  -0.000222
    21  Re  -0.000496   0.000749  -0.001746  -0.029947  -0.000616   0.000363
    22  C    0.000025   0.000027  -0.000030  -0.002797  -0.000003   0.000000
    23  C    0.000003   0.000003   0.000210  -0.004551   0.000001  -0.000000
    24  C    0.000002  -0.000001   0.000002   0.000182  -0.000001   0.000000
    25  O    0.000000  -0.000000   0.000001   0.000130   0.000000  -0.000000
    26  O    0.000000  -0.000000  -0.000003  -0.001102  -0.000000   0.000000
    27  O   -0.000000   0.000000  -0.000000  -0.000000   0.000000  -0.000000
    28  Cl  -0.000298   0.000052  -0.000247   0.000344  -0.000004  -0.000000
              13         14         15         16         17         18
     1  C    0.000322   0.002355  -0.023494  -0.000317   0.000021  -0.000939
     2  C    0.008913   0.001901   0.002836   0.000025  -0.000001   0.000013
     3  C   -0.038691   0.005501   0.001198  -0.000001   0.000000   0.000000
     4  C    0.405608  -0.031322  -0.000035   0.000000   0.000000  -0.000000
     5  C   -0.040885   0.384245  -0.000012  -0.000000   0.000000   0.000003
     6  C    0.000021  -0.000939  -0.041314   0.009295   0.000324   0.002347
     7  C   -0.000001   0.000013   0.410091  -0.034928   0.008909   0.001904
     8  C    0.000000   0.000000  -0.040519   0.398154  -0.038693   0.005503
     9  C   -0.000000  -0.000000   0.009012  -0.048505   0.405600  -0.031338
    10  C    0.000000   0.000003   0.000098   0.008970  -0.040885   0.384173
    11  H   -0.000183   0.000097  -0.005482   0.000064  -0.000000  -0.000001
    12  H   -0.011206  -0.000278   0.000064  -0.000000  -0.000000   0.000000
    13  H    0.652146  -0.009528  -0.000000  -0.000000  -0.000000  -0.000000
    14  H   -0.009528   0.641545  -0.000001   0.000000  -0.000000   0.000000
    15  H   -0.000000  -0.000001   0.678675  -0.014459  -0.000183   0.000098
    16  H   -0.000000   0.000000  -0.014459   0.662591  -0.011203  -0.000278
    17  H   -0.000000  -0.000000  -0.000183  -0.011203   0.652271  -0.009535
    18  H   -0.000000   0.000000   0.000098  -0.000278  -0.009535   0.641580
    19  N    0.000001  -0.000039   0.004056  -0.000222   0.004422  -0.032260
    20  N    0.004419  -0.032270   0.000157   0.000001   0.000001  -0.000039
    21  Re  -0.000254  -0.017528  -0.000618   0.000364  -0.000259  -0.017489
    22  C   -0.000006  -0.001152  -0.000003   0.000000  -0.000005  -0.001129
    23  C    0.000000   0.000195  -0.000001   0.000000  -0.000037   0.000191
    24  C   -0.000037   0.000195   0.000001  -0.000000   0.000000   0.000197
    25  O    0.000000  -0.000030   0.000000  -0.000000   0.000000  -0.000030
    26  O   -0.000000  -0.000001   0.000000  -0.000000  -0.000001   0.004578
    27  O   -0.000001   0.004550  -0.000000   0.000000  -0.000000  -0.000001
    28  Cl  -0.000003  -0.000598  -0.000004  -0.000000  -0.000004  -0.000618
              19         20         21         22         23         24
     1  C   -0.007179   0.354653  -0.063508  -0.001758   0.001061  -0.001126
     2  C    0.004261  -0.032733  -0.000464   0.000022   0.000003   0.000003
     3  C   -0.000132  -0.035126   0.000724   0.000029  -0.000001   0.000003
     4  C   -0.000003  -0.014649  -0.001692  -0.000035   0.000002   0.000210
     5  C   -0.000414   0.470442  -0.030094  -0.002896   0.000180  -0.004526
     6  C    0.354808  -0.007244  -0.063354  -0.001676  -0.001127   0.001057
     7  C   -0.032632   0.004269  -0.000496   0.000025   0.000003   0.000002
     8  C   -0.035166  -0.000132   0.000749   0.000027   0.000003  -0.000001
     9  C   -0.014492  -0.000003  -0.001746  -0.000030   0.000210   0.000002
    10  C    0.469949  -0.000428  -0.029947  -0.002797  -0.004551   0.000182
    11  H    0.000157   0.004049  -0.000616  -0.000003   0.000001  -0.000001
    12  H    0.000001  -0.000222   0.000363   0.000000  -0.000000   0.000000
    13  H    0.000001   0.004419  -0.000254  -0.000006   0.000000  -0.000037
    14  H   -0.000039  -0.032270  -0.017528  -0.001152   0.000195   0.000195
    15  H    0.004056   0.000157  -0.000618  -0.000003  -0.000001   0.000001
    16  H   -0.000222   0.000001   0.000364   0.000000   0.000000  -0.000000
    17  H    0.004422   0.000001  -0.000259  -0.000005  -0.000037   0.000000
    18  H   -0.032260  -0.000039  -0.017489  -0.001129   0.000191   0.000197
    19  N    6.487690  -0.017502   0.182601   0.001037   0.004856  -0.005895
    20  N   -0.017502   6.486707   0.182916   0.000941  -0.005886   0.004963
    21  Re   0.182601   0.182916  13.762923   0.133723   0.054994   0.055984
    22  C    0.001037   0.000941   0.133723   5.363054  -0.035141  -0.035249
    23  C    0.004856  -0.005886   0.054994  -0.035141   5.465376  -0.054830
    24  C   -0.005895   0.004963   0.055984  -0.035249  -0.054830   5.463709
    25  O   -0.000058  -0.000059  -0.011842   0.696918  -0.000758  -0.000757
    26  O   -0.000085   0.000004  -0.008886  -0.001077   0.698725  -0.000951
    27  O    0.000004  -0.000086  -0.008901  -0.001086  -0.000947   0.698679
    28  Cl  -0.007140  -0.006627   0.230270  -0.002861   0.005636   0.005737
              25         26         27         28
     1  C    0.000059  -0.000002  -0.000006   0.000669
     2  C   -0.000000  -0.000000   0.000000  -0.000261
     3  C   -0.000000   0.000000  -0.000000   0.000043
     4  C    0.000001  -0.000000  -0.000003  -0.000202
     5  C    0.000138  -0.000000  -0.001089   0.000233
     6  C    0.000058  -0.000006  -0.000002   0.000634
     7  C    0.000000   0.000000  -0.000000  -0.000298
     8  C   -0.000000  -0.000000   0.000000   0.000052
     9  C    0.000001  -0.000003  -0.000000  -0.000247
    10  C    0.000130  -0.001102  -0.000000   0.000344
    11  H    0.000000  -0.000000   0.000000  -0.000004
    12  H   -0.000000   0.000000  -0.000000  -0.000000
    13  H    0.000000  -0.000000  -0.000001  -0.000003
    14  H   -0.000030  -0.000001   0.004550  -0.000598
    15  H    0.000000   0.000000  -0.000000  -0.000004
    16  H   -0.000000  -0.000000   0.000000  -0.000000
    17  H    0.000000  -0.000001  -0.000000  -0.000004
    18  H   -0.000030   0.004578  -0.000001  -0.000618
    19  N   -0.000058  -0.000085   0.000004  -0.007140
    20  N   -0.000059   0.000004  -0.000086  -0.006627
    21  Re  -0.011842  -0.008886  -0.008901   0.230270
    22  C    0.696918  -0.001077  -0.001086  -0.002861
    23  C   -0.000758   0.698725  -0.000947   0.005636
    24  C   -0.000757  -0.000951   0.698679   0.005737
    25  O    7.427577   0.000031   0.000032   0.000003
    26  O    0.000031   7.400990   0.000025   0.000008
    27  O    0.000032   0.000025   7.401203   0.000013
    28  Cl   0.000003   0.000008   0.000013  17.313782
          Atomic-Atomic Spin Densities.
               1          2          3          4          5          6
     1  C    0.000001  -0.000000   0.000000  -0.000000  -0.000000  -0.000000
     2  C   -0.000000   0.000000   0.000000   0.000000  -0.000000  -0.000000
     3  C    0.000000   0.000000  -0.000000  -0.000000   0.000000   0.000000
     4  C   -0.000000   0.000000  -0.000000   0.000000  -0.000000  -0.000000
     5  C   -0.000000  -0.000000   0.000000  -0.000000   0.000000   0.000000
     6  C   -0.000000  -0.000000   0.000000  -0.000000   0.000000   0.000000
     7  C   -0.000000   0.000000   0.000000   0.000000  -0.000000  -0.000000
     8  C    0.000000   0.000000  -0.000000   0.000000  -0.000000   0.000000
     9  C    0.000000  -0.000000   0.000000   0.000000  -0.000000  -0.000000
    10  C    0.000000  -0.000000  -0.000000   0.000000   0.000000  -0.000000
    11  H   -0.000000   0.000000   0.000000  -0.000000  -0.000000   0.000000
    12  H    0.000000  -0.000000  -0.000000  -0.000000   0.000000  -0.000000
    13  H    0.000000  -0.000000   0.000000   0.000000   0.000000   0.000000
    14  H   -0.000000  -0.000000  -0.000000  -0.000000   0.000000   0.000000
    15  H    0.000000  -0.000000  -0.000000   0.000000   0.000000  -0.000000
    16  H   -0.000000   0.000000   0.000000   0.000000  -0.000000   0.000000
    17  H    0.000000   0.000000   0.000000  -0.000000   0.000000   0.000000
    18  H    0.000000  -0.000000   0.000000  -0.000000   0.000000  -0.000000
    19  N   -0.000000  -0.000000   0.000000  -0.000000   0.000000   0.000000
    20  N    0.000000  -0.000000  -0.000000   0.000000  -0.000000  -0.000000
    21  Re  -0.000000  -0.000000   0.000000  -0.000000  -0.000000  -0.000000
    22  C   -0.000000   0.000000  -0.000000   0.000000   0.000000  -0.000000
    23  C    0.000000   0.000000  -0.000000   0.000000   0.000000  -0.000000
    24  C   -0.000000  -0.000000   0.000000  -0.000000  -0.000000   0.000000
    25  O    0.000000  -0.000000   0.000000  -0.000000  -0.000000   0.000000
    26  O   -0.000000   0.000000   0.000000   0.000000  -0.000000  -0.000000
    27  O   -0.000000   0.000000  -0.000000  -0.000000   0.000000  -0.000000
    28  Cl   0.000000  -0.000000  -0.000000   0.000000   0.000000   0.000000
               7          8          9         10         11         12
     1  C   -0.000000   0.000000   0.000000   0.000000  -0.000000   0.000000
     2  C    0.000000   0.000000  -0.000000  -0.000000   0.000000  -0.000000
     3  C    0.000000  -0.000000   0.000000  -0.000000   0.000000  -0.000000
     4  C    0.000000   0.000000   0.000000   0.000000  -0.000000  -0.000000
     5  C   -0.000000  -0.000000  -0.000000   0.000000  -0.000000   0.000000
     6  C   -0.000000   0.000000  -0.000000  -0.000000   0.000000  -0.000000
     7  C    0.000000   0.000000   0.000000  -0.000000  -0.000000   0.000000
     8  C    0.000000  -0.000001  -0.000000   0.000000  -0.000000   0.000000
     9  C    0.000000  -0.000000   0.000001   0.000000  -0.000000   0.000000
    10  C   -0.000000   0.000000   0.000000   0.000000   0.000000  -0.000000
    11  H   -0.000000  -0.000000  -0.000000   0.000000  -0.000000   0.000000
    12  H    0.000000   0.000000   0.000000  -0.000000   0.000000   0.000000
    13  H    0.000000   0.000000  -0.000000   0.000000   0.000000  -0.000000
    14  H   -0.000000   0.000000  -0.000000   0.000000  -0.000000   0.000000
    15  H    0.000000   0.000000  -0.000000  -0.000000   0.000000  -0.000000
    16  H   -0.000000  -0.000000  -0.000000   0.000000  -0.000000  -0.000000
    17  H   -0.000000   0.000000   0.000000   0.000000  -0.000000   0.000000
    18  H   -0.000000  -0.000000  -0.000000   0.000000   0.000000  -0.000000
    19  N   -0.000000  -0.000000  -0.000000  -0.000000   0.000000   0.000000
    20  N   -0.000000   0.000000  -0.000000  -0.000000  -0.000000  -0.000000
    21  Re   0.000000   0.000000   0.000000  -0.000000   0.000000  -0.000000
    22  C    0.000000  -0.000000   0.000000   0.000000  -0.000000  -0.000000
    23  C   -0.000000   0.000000  -0.000000  -0.000000  -0.000000  -0.000000
    24  C   -0.000000  -0.000000   0.000000   0.000000  -0.000000   0.000000
    25  O   -0.000000   0.000000  -0.000000  -0.000000   0.000000   0.000000
    26  O    0.000000  -0.000000  -0.000000   0.000000   0.000000   0.000000
    27  O    0.000000   0.000000   0.000000  -0.000000   0.000000   0.000000
    28  Cl  -0.000000  -0.000000   0.000000   0.000000  -0.000000  -0.000000
              13         14         15         16         17         18
     1  C    0.000000  -0.000000   0.000000  -0.000000   0.000000   0.000000
     2  C   -0.000000  -0.000000  -0.000000   0.000000   0.000000  -0.000000
     3  C    0.000000  -0.000000  -0.000000   0.000000   0.000000   0.000000
     4  C    0.000000  -0.000000   0.000000   0.000000  -0.000000  -0.000000
     5  C    0.000000   0.000000   0.000000  -0.000000   0.000000   0.000000
     6  C    0.000000   0.000000  -0.000000   0.000000   0.000000  -0.000000
     7  C    0.000000  -0.000000   0.000000  -0.000000  -0.000000  -0.000000
     8  C    0.000000   0.000000   0.000000  -0.000000   0.000000  -0.000000
     9  C   -0.000000  -0.000000  -0.000000  -0.000000   0.000000  -0.000000
    10  C    0.000000   0.000000  -0.000000   0.000000   0.000000   0.000000
    11  H    0.000000  -0.000000   0.000000  -0.000000  -0.000000   0.000000
    12  H   -0.000000   0.000000  -0.000000  -0.000000   0.000000  -0.000000
    13  H   -0.000000   0.000000  -0.000000   0.000000   0.000000   0.000000
    14  H    0.000000  -0.000000   0.000000  -0.000000   0.000000   0.000000
    15  H   -0.000000   0.000000  -0.000000   0.000000   0.000000  -0.000000
    16  H    0.000000  -0.000000   0.000000   0.000000   0.000000   0.000000
    17  H    0.000000   0.000000   0.000000   0.000000  -0.000000   0.000000
    18  H    0.000000   0.000000  -0.000000   0.000000   0.000000  -0.000000
    19  N   -0.000000  -0.000000  -0.000000  -0.000000  -0.000000   0.000000
    20  N   -0.000000   0.000000   0.000000   0.000000  -0.000000  -0.000000
    21  Re  -0.000000  -0.000000   0.000000  -0.000000  -0.000000  -0.000000
    22  C    0.000000  -0.000000  -0.000000  -0.000000   0.000000  -0.000000
    23  C    0.000000  -0.000000  -0.000000   0.000000  -0.000000   0.000000
    24  C   -0.000000   0.000000  -0.000000  -0.000000  -0.000000  -0.000000
    25  O   -0.000000  -0.000000   0.000000   0.000000  -0.000000  -0.000000
    26  O   -0.000000   0.000000   0.000000   0.000000  -0.000000  -0.000000
    27  O   -0.000000   0.000000   0.000000   0.000000   0.000000   0.000000
    28  Cl  -0.000000   0.000000  -0.000000  -0.000000  -0.000000  -0.000000
              19         20         21         22         23         24
     1  C   -0.000000   0.000000  -0.000000  -0.000000   0.000000  -0.000000
     2  C   -0.000000  -0.000000  -0.000000   0.000000   0.000000  -0.000000
     3  C    0.000000  -0.000000   0.000000  -0.000000  -0.000000   0.000000
     4  C   -0.000000   0.000000  -0.000000   0.000000   0.000000  -0.000000
     5  C    0.000000  -0.000000  -0.000000   0.000000   0.000000  -0.000000
     6  C    0.000000  -0.000000  -0.000000  -0.000000  -0.000000   0.000000
     7  C   -0.000000  -0.000000   0.000000   0.000000  -0.000000  -0.000000
     8  C   -0.000000   0.000000   0.000000  -0.000000   0.000000  -0.000000
     9  C   -0.000000  -0.000000   0.000000   0.000000  -0.000000   0.000000
    10  C   -0.000000  -0.000000  -0.000000   0.000000  -0.000000   0.000000
    11  H    0.000000  -0.000000   0.000000  -0.000000  -0.000000  -0.000000
    12  H    0.000000  -0.000000  -0.000000  -0.000000  -0.000000   0.000000
    13  H   -0.000000  -0.000000  -0.000000   0.000000   0.000000  -0.000000
    14  H   -0.000000   0.000000  -0.000000  -0.000000  -0.000000   0.000000
    15  H   -0.000000   0.000000   0.000000  -0.000000  -0.000000  -0.000000
    16  H   -0.000000   0.000000  -0.000000  -0.000000   0.000000  -0.000000
    17  H   -0.000000  -0.000000  -0.000000   0.000000  -0.000000  -0.000000
    18  H    0.000000  -0.000000  -0.000000  -0.000000   0.000000  -0.000000
    19  N    0.000000   0.000000   0.000000   0.000000   0.000000  -0.000000
    20  N    0.000000  -0.000000   0.000000   0.000000  -0.000000   0.000000
    21  Re   0.000000   0.000000   0.000002  -0.000000  -0.000000  -0.000000
    22  C    0.000000   0.000000  -0.000000  -0.000001  -0.000000  -0.000000
    23  C    0.000000  -0.000000  -0.000000  -0.000000  -0.000000  -0.000000
    24  C   -0.000000   0.000000  -0.000000  -0.000000  -0.000000  -0.000000
    25  O   -0.000000  -0.000000   0.000000   0.000000   0.000000   0.000000
    26  O   -0.000000   0.000000   0.000000   0.000000   0.000000   0.000000
    27  O    0.000000  -0.000000   0.000000   0.000000   0.000000   0.000000
    28  Cl  -0.000000  -0.000000   0.000000  -0.000000   0.000000   0.000000
              25         26         27         28
     1  C    0.000000  -0.000000  -0.000000   0.000000
     2  C   -0.000000   0.000000   0.000000  -0.000000
     3  C    0.000000   0.000000  -0.000000  -0.000000
     4  C   -0.000000   0.000000  -0.000000   0.000000
     5  C   -0.000000  -0.000000   0.000000   0.000000
     6  C    0.000000  -0.000000  -0.000000   0.000000
     7  C   -0.000000   0.000000   0.000000  -0.000000
     8  C    0.000000  -0.000000   0.000000  -0.000000
     9  C   -0.000000  -0.000000   0.000000   0.000000
    10  C   -0.000000   0.000000  -0.000000   0.000000
    11  H    0.000000   0.000000   0.000000  -0.000000
    12  H    0.000000   0.000000   0.000000  -0.000000
    13  H   -0.000000  -0.000000  -0.000000  -0.000000
    14  H   -0.000000   0.000000   0.000000   0.000000
    15  H    0.000000   0.000000   0.000000  -0.000000
    16  H    0.000000   0.000000   0.000000  -0.000000
    17  H   -0.000000  -0.000000   0.000000  -0.000000
    18  H   -0.000000  -0.000000   0.000000  -0.000000
    19  N   -0.000000  -0.000000   0.000000  -0.000000
    20  N   -0.000000   0.000000  -0.000000  -0.000000
    21  Re   0.000000   0.000000   0.000000   0.000000
    22  C    0.000000   0.000000   0.000000  -0.000000
    23  C    0.000000   0.000000   0.000000   0.000000
    24  C    0.000000   0.000000   0.000000   0.000000
    25  O   -0.000000  -0.000000  -0.000000   0.000000
    26  O   -0.000000  -0.000001  -0.000000  -0.000000
    27  O   -0.000000  -0.000000  -0.000001  -0.000000
    28  Cl   0.000000  -0.000000  -0.000000  -0.000000
 Mulliken charges and spin densities:
               1          2
     1  C    0.203396   0.000001
     2  C    0.004146   0.000000
     3  C    0.109923  -0.000000
     4  C    0.004856   0.000000
     5  C    0.178647   0.000000
     6  C    0.203887   0.000000
     7  C    0.004191   0.000000
     8  C    0.109973  -0.000001
     9  C    0.004889   0.000001
    10  C    0.178970   0.000000
    11  H    0.019767  -0.000000
    12  H    0.030528   0.000000
    13  H    0.029366  -0.000000
    14  H    0.053087  -0.000000
    15  H    0.019837  -0.000000
    16  H    0.030448   0.000000
    17  H    0.029260  -0.000000
    18  H    0.053070  -0.000000
    19  N   -0.360625   0.000000
    20  N   -0.360516  -0.000000
    21  Re   0.652081   0.000001
    22  C   -0.108872  -0.000001
    23  C   -0.128156   0.000000
    24  C   -0.127552   0.000000
    25  O   -0.111416   0.000000
    26  O   -0.092248  -0.000000
    27  O   -0.092382  -0.000000
    28  Cl  -0.538557  -0.000000
 Sum of Mulliken charges =  -0.00000  -0.00000
 Mulliken charges and spin densities with hydrogens summed into heavy atoms:
               1          2
     1  C    0.203396   0.000001
     2  C    0.023913  -0.000000
     3  C    0.140451  -0.000000
     4  C    0.034223   0.000000
     5  C    0.231734   0.000000
     6  C    0.203887   0.000000
     7  C    0.024029   0.000000
     8  C    0.140421  -0.000001
     9  C    0.034149   0.000000
    10  C    0.232040  -0.000000
    19  N   -0.360625   0.000000
    20  N   -0.360516  -0.000000
    21  Re   0.652081   0.000001
    22  C   -0.108872  -0.000001
    23  C   -0.128156   0.000000
    24  C   -0.127552   0.000000
    25  O   -0.111416   0.000000
    26  O   -0.092248  -0.000000
    27  O   -0.092382  -0.000000
    28  Cl  -0.538557  -0.000000
 Electronic spatial extent (au):  <R**2>=          15553.9199
 Charge=             -0.0000 electrons
 Dipole moment (field-independent basis, Debye):
    X=             11.2943    Y=             -6.7480    Z=              5.2512  Tot=             14.1659
 Quadrupole moment (field-independent basis, Debye-Ang):
   XX=           -209.2831   YY=           -113.2431   ZZ=           -165.1521
   XY=             43.5232   XZ=            -27.0350   YZ=              6.1174
 Traceless Quadrupole moment (field-independent basis, Debye-Ang):
   XX=            -46.7237   YY=             49.3164   ZZ=             -2.5927
   XY=             43.5232   XZ=            -27.0350   YZ=              6.1174
 Octapole moment (field-independent basis, Debye-Ang**2):
  XXX=           2204.0472  YYY=           -319.5771  ZZZ=              6.8750  XYY=            542.0148
  XXY=           -315.7883  XXZ=            132.6965  XZZ=            711.7331  YZZ=           -107.1012
  YYZ=              4.7805  XYZ=            -26.0797
 Hexadecapole moment (field-independent basis, Debye-Ang**3):
 XXXX=         -21074.7467 YYYY=          -2988.0109 ZZZZ=          -1398.4134 XXXY=           2443.1979
 XXXZ=           -613.5279 YYYX=           1633.9259 YYYZ=            -10.9479 ZZZX=              6.2031
 ZZZY=            -27.4650 XXYY=          -3475.5373 XXZZ=          -3843.4647 YYZZ=           -801.0774
 XXYZ=            105.8494 YYXZ=            -13.8130 ZZXY=            502.0399
 N-N= 1.750413029903D+03 E-N=-6.702879683572D+03  KE= 1.313878551432D+03

 Atomic contributions to Alpha molecular orbitals:
 Alpha occ 59 OE=-0.493 is O26-p=0.1399 O27-p=0.1384
 Alpha occ 60 OE=-0.487 is O27-p=0.1183 O26-p=0.1180
 Alpha occ 61 OE=-0.481 is O26-p=0.2047 O27-p=0.2040 O25-p=0.1552
 Alpha occ 62 OE=-0.479 is O26-p=0.1986 O27-p=0.1972
 Alpha occ 63 OE=-0.478 is O25-p=0.3451 C22-p=0.1449
 Alpha occ 64 OE=-0.476 is O25-p=0.2078 N20-p=0.1009 N19-p=0.1008
 Alpha occ 65 OE=-0.454 is C4-p=0.0962
 Alpha occ 66 OE=-0.453 is C8-p=0.0823
 Alpha occ 67 OE=-0.414 is N20-p=0.1521 N19-p=0.1509
 Alpha occ 68 OE=-0.397 is N19-p=0.1619 N20-p=0.1616
 Alpha occ 69 OE=-0.390 is C3-p=0.1751 C8-p=0.1736 C4-p=0.1077 C9-p=0.1072
 Alpha occ 70 OE=-0.384 is C5-p=0.1509 C10-p=0.1499 C1-p=0.1349 C6-p=0.1345
 Alpha occ 71 OE=-0.381 is C8-p=0.1666 C3-p=0.1658 N19-p=0.1233 N20-p=0.1222 C7-p=0.1045 C2-p=0.1034
 Alpha occ 72 OE=-0.336 is Cl28-p=0.7705
 Alpha occ 73 OE=-0.326 is C9-p=0.1258 C4-p=0.1253 C7-p=0.1138 C2-p=0.1130
 Alpha occ 74 OE=-0.317 is Cl28-p=0.6840 Re21-d=0.1551
 Alpha occ 75 OE=-0.317 is Cl28-p=0.6189 Re21-d=0.1192
 Alpha occ 76 OE=-0.301 is Re21-d=0.6438 O27-p=0.1012 O26-p=0.1011
 Alpha occ 77 OE=-0.289 is Re21-d=0.4293 Cl28-p=0.3001
 Alpha occ 78 OE=-0.287 is Re21-d=0.4550 Cl28-p=0.2597
 Alpha vir 79 OE=-0.165 is C1-p=0.1131 C6-p=0.1126 N20-p=0.1081 C4-p=0.1081 C9-p=0.1080 N19-p=0.1079
 Alpha vir 80 OE=-0.116 is C2-p=0.1571 C7-p=0.1522 C5-p=0.1513 C10-p=0.1458
 Alpha vir 81 OE=-0.110 is C8-p=0.1507 C3-p=0.1461 C10-p=0.1188 C5-p=0.1134
 Alpha vir 82 OE=-0.088 is Re21-p=0.1837 C24-p=0.1459 C22-p=0.1250 Re21-d=0.1176 C23-p=0.1027
 Alpha vir 83 OE=-0.087 is C23-p=0.1990 Re21-p=0.1717 C24-p=0.1568
 Alpha vir 84 OE=-0.061 is C9-p=0.1618 C4-p=0.1615 C6-p=0.1511 C1-p=0.1506
 Alpha vir 85 OE=-0.049 is C24-p=0.2337 C23-p=0.2337 C22-p=0.2307
 Alpha vir 86 OE=-0.040 is Re21-p=0.2259 Re21-d=0.2221 C22-p=0.1774
 Alpha vir 87 OE=-0.027 is C22-p=0.2092 Re21-d=0.1903 C23-p=0.1330 C24-p=0.1241 Re21-p=0.1034
 Alpha vir 88 OE=-0.026 is Re21-p=0.3956 Re21-d=0.1313 C24-p=0.1247 C23-p=0.1136
 Alpha vir 89 OE=-0.015 is Re21-p=0.4994 Re21-d=0.1008
 Alpha vir 90 OE=-0.010 is Re21-p=0.2148 C22-p=0.2148 Re21-d=0.1917
 Alpha vir 91 OE=-0.004 is Re21-p=0.5207
 Alpha vir 92 OE=0.002 is Re21-p=0.2589 H11-s=0.1467 H15-s=0.1458
 Alpha vir 93 OE=0.016 is Re21-p=0.3594 Re21-d=0.2645
 Alpha vir 94 OE=0.028 is Re21-p=0.3954 Re21-d=0.2529
 Alpha vir 95 OE=0.030 is H16-s=0.2586 H12-s=0.2582 H17-s=0.1418 H13-s=0.1390 Re21-d=0.1092
 Alpha vir 96 OE=0.033 is H14-s=0.1608 H18-s=0.1606 H13-s=0.1464 H17-s=0.1437 H15-s=0.1353 H11-s=0.1337
 Alpha vir 97 OE=0.035 is C4-p=0.1014 C9-p=0.1012
 Alpha vir 98 OE=0.056 is H16-s=0.2155 H12-s=0.2123 Re21-s=0.1095

 Atomic contributions to Beta  molecular orbitals:
 Beta  occ 59 OE=-0.493 is O26-p=0.1399 O27-p=0.1384
 Beta  occ 60 OE=-0.487 is O27-p=0.1183 O26-p=0.1180
 Beta  occ 61 OE=-0.481 is O26-p=0.2047 O27-p=0.2040 O25-p=0.1552
 Beta  occ 62 OE=-0.479 is O26-p=0.1986 O27-p=0.1972
 Beta  occ 63 OE=-0.478 is O25-p=0.3451 C22-p=0.1449
 Beta  occ 64 OE=-0.476 is O25-p=0.2078 N20-p=0.1009 N19-p=0.1008
 Beta  occ 65 OE=-0.454 is C4-p=0.0962
 Beta  occ 66 OE=-0.453 is C8-p=0.0823
 Beta  occ 67 OE=-0.414 is N20-p=0.1521 N19-p=0.1509
 Beta  occ 68 OE=-0.397 is N19-p=0.1619 N20-p=0.1616
 Beta  occ 69 OE=-0.390 is C3-p=0.1751 C8-p=0.1736 C4-p=0.1077 C9-p=0.1072
 Beta  occ 70 OE=-0.384 is C5-p=0.1509 C10-p=0.1499 C1-p=0.1349 C6-p=0.1345
 Beta  occ 71 OE=-0.381 is C8-p=0.1666 C3-p=0.1658 N19-p=0.1233 N20-p=0.1222 C7-p=0.1045 C2-p=0.1034
 Beta  occ 72 OE=-0.336 is Cl28-p=0.7705
 Beta  occ 73 OE=-0.326 is C9-p=0.1258 C4-p=0.1253 C7-p=0.1138 C2-p=0.1130
 Beta  occ 74 OE=-0.317 is Cl28-p=0.6840 Re21-d=0.1551
 Beta  occ 75 OE=-0.317 is Cl28-p=0.6189 Re21-d=0.1192
 Beta  occ 76 OE=-0.301 is Re21-d=0.6438 O27-p=0.1012 O26-p=0.1011
 Beta  occ 77 OE=-0.289 is Re21-d=0.4293 Cl28-p=0.3001
 Beta  occ 78 OE=-0.287 is Re21-d=0.4550 Cl28-p=0.2597
 Beta  vir 79 OE=-0.165 is C1-p=0.1131 C6-p=0.1126 N20-p=0.1081 C4-p=0.1081 C9-p=0.1080 N19-p=0.1079
 Beta  vir 80 OE=-0.116 is C2-p=0.1571 C7-p=0.1522 C5-p=0.1513 C10-p=0.1458
 Beta  vir 81 OE=-0.110 is C8-p=0.1507 C3-p=0.1461 C10-p=0.1188 C5-p=0.1134
 Beta  vir 82 OE=-0.088 is Re21-p=0.1837 C24-p=0.1459 C22-p=0.1250 Re21-d=0.1176 C23-p=0.1027
 Beta  vir 83 OE=-0.087 is C23-p=0.1990 Re21-p=0.1717 C24-p=0.1568
 Beta  vir 84 OE=-0.061 is C9-p=0.1618 C4-p=0.1615 C6-p=0.1511 C1-p=0.1506
 Beta  vir 85 OE=-0.049 is C24-p=0.2337 C23-p=0.2337 C22-p=0.2307
 Beta  vir 86 OE=-0.040 is Re21-p=0.2259 Re21-d=0.2221 C22-p=0.1774
 Beta  vir 87 OE=-0.027 is C22-p=0.2092 Re21-d=0.1903 C23-p=0.1330 C24-p=0.1241 Re21-p=0.1034
 Beta  vir 88 OE=-0.026 is Re21-p=0.3956 Re21-d=0.1313 C24-p=0.1247 C23-p=0.1136
 Beta  vir 89 OE=-0.015 is Re21-p=0.4994 Re21-d=0.1008
 Beta  vir 90 OE=-0.010 is Re21-p=0.2148 C22-p=0.2148 Re21-d=0.1917
 Beta  vir 91 OE=-0.004 is Re21-p=0.5207
 Beta  vir 92 OE=0.002 is Re21-p=0.2589 H11-s=0.1467 H15-s=0.1458
 Beta  vir 93 OE=0.016 is Re21-p=0.3594 Re21-d=0.2645
 Beta  vir 94 OE=0.028 is Re21-p=0.3954 Re21-d=0.2529
 Beta  vir 95 OE=0.030 is H16-s=0.2586 H12-s=0.2582 H17-s=0.1418 H13-s=0.1390 Re21-d=0.1092
 Beta  vir 96 OE=0.033 is H14-s=0.1608 H18-s=0.1606 H13-s=0.1464 H17-s=0.1437 H15-s=0.1353 H11-s=0.1337
 Beta  vir 97 OE=0.035 is C4-p=0.1014 C9-p=0.1012
 Beta  vir 98 OE=0.056 is H16-s=0.2155 H12-s=0.2123 Re21-s=0.1095
 
                          Isotropic Fermi Contact Couplings
        Atom                 a.u.       MegaHertz       Gauss      10(-4) cm-1
     1  C(13)              0.00000       0.00011       0.00004       0.00004
     2  C(13)              0.00000       0.00004       0.00001       0.00001
     3  C(13)             -0.00000      -0.00012      -0.00004      -0.00004
     4  C(13)              0.00000       0.00008       0.00003       0.00003
     5  C(13)              0.00000       0.00006       0.00002       0.00002
     6  C(13)              0.00000       0.00005       0.00002       0.00002
     7  C(13)              0.00000       0.00009       0.00003       0.00003
     8  C(13)             -0.00000      -0.00016      -0.00006      -0.00005
     9  C(13)              0.00000       0.00012       0.00004       0.00004
    10  C(13)              0.00000       0.00002       0.00001       0.00001
    11  H(1)              -0.00000      -0.00015      -0.00005      -0.00005
    12  H(1)               0.00000       0.00006       0.00002       0.00002
    13  H(1)              -0.00000      -0.00009      -0.00003      -0.00003
    14  H(1)              -0.00000      -0.00013      -0.00005      -0.00004
    15  H(1)              -0.00000      -0.00017      -0.00006      -0.00006
    16  H(1)               0.00000       0.00008       0.00003       0.00003
    17  H(1)              -0.00000      -0.00011      -0.00004      -0.00004
    18  H(1)              -0.00000      -0.00012      -0.00004      -0.00004
    19  N(14)             -0.00000      -0.00000      -0.00000      -0.00000
    20  N(14)             -0.00000      -0.00002      -0.00001      -0.00001
    21  Re(187             0.00000       0.00000       0.00000       0.00000
    22  C(13)             -0.00000      -0.00015      -0.00005      -0.00005
    23  C(13)             -0.00000      -0.00002      -0.00001      -0.00001
    24  C(13)             -0.00000      -0.00002      -0.00001      -0.00001
    25  O(17)             -0.00000       0.00002       0.00001       0.00001
    26  O(17)             -0.00000       0.00007       0.00002       0.00002
    27  O(17)             -0.00000       0.00007       0.00002       0.00002
    28  Cl(35)            -0.00000      -0.00004      -0.00001      -0.00001
 --------------------------------------------------------
       Center         ----  Spin Dipole Couplings  ----
                      3XX-RR        3YY-RR        3ZZ-RR
 --------------------------------------------------------
     1   Atom       -0.000000     -0.000000      0.000000
     2   Atom        0.000000      0.000000     -0.000000
     3   Atom        0.000000      0.000000     -0.000000
     4   Atom        0.000000      0.000000     -0.000000
     5   Atom       -0.000000     -0.000000      0.000000
     6   Atom       -0.000000     -0.000000      0.000000
     7   Atom        0.000000     -0.000000      0.000000
     8   Atom        0.000000      0.000000     -0.000001
     9   Atom       -0.000000     -0.000000      0.000000
    10   Atom        0.000000     -0.000000     -0.000000
    11   Atom        0.000000      0.000000     -0.000000
    12   Atom       -0.000000      0.000000      0.000000
    13   Atom        0.000000      0.000000     -0.000000
    14   Atom       -0.000000      0.000000     -0.000000
    15   Atom        0.000000     -0.000000     -0.000000
    16   Atom        0.000000     -0.000000      0.000000
    17   Atom       -0.000000      0.000000     -0.000000
    18   Atom        0.000000     -0.000000     -0.000000
    19   Atom       -0.000000     -0.000000      0.000000
    20   Atom        0.000000      0.000000     -0.000000
    21   Atom        0.000000      0.000000     -0.000000
    22   Atom       -0.000000     -0.000000      0.000000
    23   Atom       -0.000000     -0.000000      0.000000
    24   Atom       -0.000000      0.000000      0.000000
    25   Atom        0.000000     -0.000000      0.000000
    26   Atom        0.000001     -0.000000     -0.000000
    27   Atom       -0.000000      0.000001     -0.000000
    28   Atom        0.000000      0.000000     -0.000001
 --------------------------------------------------------
                        XY            XZ            YZ
 --------------------------------------------------------
     1   Atom       -0.000000      0.000000     -0.000000
     2   Atom       -0.000000     -0.000000      0.000000
     3   Atom        0.000000     -0.000000      0.000000
     4   Atom        0.000000     -0.000000      0.000000
     5   Atom       -0.000000      0.000000      0.000000
     6   Atom       -0.000000      0.000000     -0.000000
     7   Atom        0.000000      0.000000     -0.000000
     8   Atom        0.000000     -0.000000      0.000000
     9   Atom        0.000000      0.000000     -0.000000
    10   Atom       -0.000000     -0.000000     -0.000000
    11   Atom       -0.000000     -0.000000      0.000000
    12   Atom       -0.000000      0.000000      0.000000
    13   Atom        0.000000     -0.000000      0.000000
    14   Atom       -0.000000     -0.000000      0.000000
    15   Atom       -0.000000     -0.000000      0.000000
    16   Atom        0.000000      0.000000     -0.000000
    17   Atom        0.000000      0.000000     -0.000000
    18   Atom       -0.000000     -0.000000     -0.000000
    19   Atom        0.000000      0.000000     -0.000000
    20   Atom        0.000000      0.000000      0.000000
    21   Atom        0.000000     -0.000000      0.000000
    22   Atom       -0.000000      0.000000     -0.000000
    23   Atom        0.000000      0.000000      0.000000
    24   Atom        0.000000     -0.000000     -0.000000
    25   Atom       -0.000000     -0.000000      0.000000
    26   Atom        0.000000      0.000000      0.000000
    27   Atom       -0.000000     -0.000000     -0.000000
    28   Atom        0.000000      0.000001     -0.000000
 --------------------------------------------------------


 ---------------------------------------------------------------------------------
              Anisotropic Spin Dipole Couplings in Principal Axis System
 ---------------------------------------------------------------------------------

       Atom             a.u.   MegaHertz   Gauss  10(-4) cm-1        Axes

              Baa    -0.0000    -0.000    -0.000    -0.000  0.2743  0.9612  0.0282
     1 C(13)  Bbb    -0.0000    -0.000    -0.000    -0.000  0.9571 -0.2701 -0.1046
              Bcc     0.0000     0.000     0.000     0.000  0.0929 -0.0557  0.9941
 
              Baa    -0.0000    -0.000    -0.000    -0.000  0.0574 -0.0569  0.9967
     2 C(13)  Bbb    -0.0000    -0.000    -0.000    -0.000  0.9115  0.4103 -0.0291
              Bcc     0.0000     0.000     0.000     0.000 -0.4073  0.9102  0.0755
 
              Baa    -0.0000    -0.000    -0.000    -0.000  0.0788 -0.0634  0.9949
     3 C(13)  Bbb     0.0000     0.000     0.000     0.000 -0.4692  0.8782  0.0931
              Bcc     0.0000     0.000     0.000     0.000  0.8796  0.4741 -0.0394
 
              Baa    -0.0000    -0.000    -0.000    -0.000  0.1049 -0.0643  0.9924
     4 C(13)  Bbb     0.0000     0.000     0.000     0.000  0.9511 -0.2850 -0.1190
              Bcc     0.0000     0.000     0.000     0.000  0.2905  0.9564  0.0313
 
              Baa    -0.0000    -0.000    -0.000    -0.000  0.8197  0.5692 -0.0638
     5 C(13)  Bbb     0.0000     0.000     0.000     0.000 -0.5502  0.8135  0.1881
              Bcc     0.0000     0.000     0.000     0.000  0.1590 -0.1191  0.9801
 
              Baa    -0.0000    -0.000    -0.000    -0.000  0.6840  0.7293 -0.0174
     6 C(13)  Bbb     0.0000     0.000     0.000     0.000  0.6713 -0.6386 -0.3761
              Bcc     0.0000     0.000     0.000     0.000  0.2854 -0.2456  0.9264
 
              Baa    -0.0000    -0.000    -0.000    -0.000 -0.0411  0.9972  0.0624
     7 C(13)  Bbb     0.0000     0.000     0.000     0.000  0.8318  0.0688 -0.5507
              Bcc     0.0000     0.000     0.000     0.000  0.5535 -0.0293  0.8324
 
              Baa    -0.0000    -0.000    -0.000    -0.000  0.0889 -0.0502  0.9948
     8 C(13)  Bbb     0.0000     0.000     0.000     0.000  0.9789 -0.1798 -0.0965
              Bcc     0.0000     0.000     0.000     0.000  0.1837  0.9824  0.0332
 
              Baa    -0.0000    -0.000    -0.000    -0.000  0.7075 -0.7057 -0.0366
     9 C(13)  Bbb     0.0000     0.000     0.000     0.000  0.7046  0.7085 -0.0401
              Bcc     0.0000     0.000     0.000     0.000  0.0542  0.0025  0.9985
 
              Baa    -0.0000    -0.000    -0.000    -0.000  0.0769  0.0781  0.9940
    10 C(13)  Bbb    -0.0000    -0.000    -0.000    -0.000  0.1025  0.9910 -0.0858
              Bcc     0.0000     0.000     0.000     0.000  0.9918 -0.1084 -0.0682
 
              Baa    -0.0000    -0.000    -0.000    -0.000  0.0392 -0.0686  0.9969
    11 H(1)   Bbb    -0.0000    -0.000    -0.000    -0.000  0.7124  0.7015  0.0202
              Bcc     0.0000     0.000     0.000     0.000 -0.7007  0.7093  0.0763
 
              Baa    -0.0000    -0.000    -0.000    -0.000  0.9967  0.0068 -0.0811
    12 H(1)   Bbb     0.0000     0.000     0.000     0.000  0.0814 -0.0692  0.9943
              Bcc     0.0000     0.000     0.000     0.000 -0.0012  0.9976  0.0695
 
              Baa    -0.0000    -0.000    -0.000    -0.000  0.0757 -0.0670  0.9949
    13 H(1)   Bbb    -0.0000    -0.000    -0.000    -0.000  0.8043 -0.5856 -0.1006
              Bcc     0.0000     0.000     0.000     0.000  0.5894  0.8078  0.0096
 
              Baa    -0.0000    -0.000    -0.000    -0.000  0.7451  0.5358 -0.3971
    14 H(1)   Bbb    -0.0000    -0.000    -0.000    -0.000  0.4022  0.1140  0.9084
              Bcc     0.0000     0.000     0.000     0.000 -0.5320  0.8366  0.1305
 
              Baa    -0.0000    -0.000    -0.000    -0.000  0.2215  0.9737  0.0523
    15 H(1)   Bbb    -0.0000    -0.000    -0.000    -0.000  0.0710 -0.0696  0.9950
              Bcc     0.0000     0.000     0.000     0.000  0.9726 -0.2167 -0.0846
 
              Baa    -0.0000    -0.000    -0.000    -0.000 -0.4443  0.8914  0.0900
    16 H(1)   Bbb     0.0000     0.000     0.000     0.000  0.0928 -0.0542  0.9942
              Bcc     0.0000     0.000     0.000     0.000  0.8911  0.4500 -0.0586
 
              Baa    -0.0000    -0.000    -0.000    -0.000  0.8587 -0.5047 -0.0888
    17 H(1)   Bbb    -0.0000    -0.000    -0.000    -0.000  0.0791 -0.0408  0.9960
              Bcc     0.0000     0.000     0.000     0.000  0.5063  0.8624 -0.0049
 
              Baa    -0.0000    -0.000    -0.000    -0.000  0.1505  0.1195  0.9813
    18 H(1)   Bbb    -0.0000    -0.000    -0.000    -0.000  0.0553  0.9901 -0.1291
              Bcc     0.0000     0.000     0.000     0.000  0.9871 -0.0737 -0.1424
 
              Baa    -0.0000    -0.000    -0.000    -0.000  0.9156 -0.3436 -0.2087
    19 N(14)  Bbb    -0.0000    -0.000    -0.000    -0.000  0.3826  0.9041  0.1903
              Bcc     0.0000     0.000     0.000     0.000  0.1233 -0.2541  0.9593
 
              Baa    -0.0000    -0.000    -0.000    -0.000 -0.3088  0.0688  0.9486
    20 N(14)  Bbb    -0.0000    -0.000    -0.000    -0.000 -0.6273  0.7350 -0.2575
              Bcc     0.0000     0.000     0.000     0.000  0.7149  0.6746  0.1838
 
              Baa    -0.0000    -0.000    -0.000    -0.000  0.5517 -0.2973  0.7793
    21 Re(187 Bbb     0.0000     0.000     0.000     0.000  0.7230  0.6363 -0.2691
              Bcc     0.0000     0.000     0.000     0.000 -0.4159  0.7119  0.5660
 
              Baa    -0.0000    -0.000    -0.000    -0.000  0.5282  0.8491 -0.0077
    22 C(13)  Bbb    -0.0000    -0.000    -0.000    -0.000  0.8450 -0.5266 -0.0928
              Bcc     0.0000     0.000     0.000     0.000  0.0829 -0.0425  0.9957
 
              Baa    -0.0000    -0.000    -0.000    -0.000 -0.6808  0.7322  0.0186
    23 C(13)  Bbb    -0.0000    -0.000    -0.000    -0.000 -0.5641 -0.5403  0.6244
              Bcc     0.0000     0.000     0.000     0.000  0.4673  0.4146  0.7809
 
              Baa    -0.0000    -0.000    -0.000    -0.000  0.9649 -0.2619 -0.0185
    24 C(13)  Bbb    -0.0000    -0.000    -0.000    -0.000  0.2195  0.7657  0.6046
              Bcc     0.0000     0.000     0.000     0.000 -0.1442 -0.5874  0.7963
 
              Baa    -0.0000     0.000     0.000     0.000  0.5287  0.8488 -0.0000
    25 O(17)  Bbb     0.0000    -0.000    -0.000    -0.000  0.4829 -0.3008  0.8224
              Bcc     0.0000    -0.000    -0.000    -0.000  0.6981 -0.4348 -0.5689
 
              Baa    -0.0000     0.000     0.000     0.000 -0.1689  0.7453 -0.6450
    26 O(17)  Bbb    -0.0000     0.000     0.000     0.000 -0.2655  0.5958  0.7580
              Bcc     0.0000    -0.000    -0.000    -0.000  0.9492  0.2992  0.0972
 
              Baa    -0.0000     0.000     0.000     0.000  0.7739  0.2021  0.6001
    27 O(17)  Bbb    -0.0000     0.000     0.000     0.000 -0.6080 -0.0278  0.7935
              Bcc     0.0000    -0.000    -0.000    -0.000 -0.1771  0.9790 -0.1013
 
              Baa    -0.0000    -0.000    -0.000    -0.000 -0.3816  0.2385  0.8930
    28 Cl(35) Bbb     0.0000     0.000     0.000     0.000  0.5095  0.8604 -0.0121
              Bcc     0.0000     0.000     0.000     0.000  0.7712 -0.4504  0.4499
 

 ---------------------------------------------------------------------------------

 No NMR shielding tensors so no spin-rotation constants.
 Leave Link  601 at Tue Mar 24 18:23:43 2026, MaxMem=  2684354560 cpu:              10.4 elap:               0.2
 (Enter /home/programes/qq/gaussian/g16.A03/g16/l9999.exe)
 1\1\GINC-MAGINET239\SP\UB3LYP\Gen\C13H8Cl1N2O3Re1\SOLE\24-Mar-2026\0\\
 #p b3lyp/gen EmpiricalDispersion=GD3BJ pseudo=read scrf=(solvent=n,n-D
 iMethylFormamide,pcm,read) nosymm pop=(Orbitals=20) geom=checkpoint gu
 ess=read\\Title Card Required\\0,1\C,0,-2.3019429894,0.2767422714,0.03
 11456761\C,0,-0.8841385197,0.3563913625,-0.0587353974\C,0,-0.244966148
 6,1.5749019965,-0.0350603258\C,0,-1.0194881994,2.7608767505,0.08438278
 32\C,0,-2.3919654674,2.6370888112,0.1682837387\C,0,-3.0402627347,-0.94
 64644159,0.0274555576\C,0,-2.4505356238,-2.237100024,-0.0776735288\C,0
 ,-3.2308465113,-3.3706322784,-0.0664350917\C,0,-4.6408307153,-3.239313
 288,0.0570331927\C,0,-5.1702138296,-1.9682471536,0.1571383273\H,0,-0.3
 018028089,-0.5603845933,-0.1460439671\H,0,0.8430796732,1.6268761099,-0
 .1047753861\H,0,-0.5583458281,3.7478288906,0.1091608084\H,0,-3.0255421
 154,3.52051744,0.2609333488\H,0,-1.3684249741,-2.3239017357,-0.1698125
 447\H,0,-2.7702397191,-4.3566458197,-0.1501693855\H,0,-5.2995052495,-4
 .1072188279,0.0717733187\H,0,-6.2469404842,-1.8203380191,0.2531415487\
 N,0,-4.4261722096,-0.8353867527,0.1412164442\N,0,-3.0474803592,1.45094
 78378,0.1405814185\Re,0,-5.242016177,1.2139359864,0.2301035949\C,0,-5.
 3220984926,1.2701318163,2.1102910587\C,0,-7.0984755337,0.7469218498,0.
 1325968806\C,0,-5.696069131,3.0734782425,0.1256631349\O,0,-5.362028754
 7,1.2982300009,3.2777583968\O,0,-8.2168547838,0.425824472,0.0659456823
 \O,0,-5.9334724561,4.2123734282,0.0555405535\Cl,0,-5.045419857,1.06757
 56419,-2.5484698375\\Version=ES64L-G16RevA.03\HF=-1375.0325982\S2=0.\S
 2-1=0.\S2A=0.\RMSD=4.951e-09\Dipole=4.4435374,-2.6548592,2.0659968\Qua
 drupole=-34.7379163,36.6655053,-1.927589,32.3584546,-20.0998506,4.5481
 576\PG=C01 [X(C13H8Cl1N2O3Re1)]\\@


 ACCORDING TO HEN3RY, LIFE IS MUCH LIKE A SEWER........
 YOU GET OUT OF IT JUST WHAT YOU PUT INTO IT...........
                         TOM LEHRER - (THE 3 IS SILENT)
 Job cpu time:       0 days  0 hours 30 minutes 53.6 seconds.
 Elapsed time:       0 days  0 hours  0 minutes 41.3 seconds.
 File lengths (MBytes):  RWF=    510 Int=      0 D2E=      0 Chk=     24 Scr=      1
 Normal termination of Gaussian 16 at Tue Mar 24 18:23:43 2026.
