 Set GAUSS_PDEF to "32".
 Set GAUSS_WDEF to "maginet231".
 Entering Gaussian System, Link 0=g16
 Initial command:
 /home/programes/qq/gaussian/g16.A03/g16/l1.exe "/scratch/108208/Gau-4629.inp" -scrdir="/scratch/108208/"
 Default linda workers: maginet231
 Default is to use  32 SMP processors on each worker.
 Entering Link 1 = /home/programes/qq/gaussian/g16.A03/g16/l1.exe PID=      4630.
  
 Copyright (c) 1988,1990,1992,1993,1995,1998,2003,2009,2016,
            Gaussian, Inc.  All Rights Reserved.
  
 This is part of the Gaussian(R) 16 program.  It is based on
 the Gaussian(R) 09 system (copyright 2009, Gaussian, Inc.),
 the Gaussian(R) 03 system (copyright 2003, Gaussian, Inc.),
 the Gaussian(R) 98 system (copyright 1998, Gaussian, Inc.),
 the Gaussian(R) 94 system (copyright 1995, Gaussian, Inc.),
 the Gaussian 92(TM) system (copyright 1992, Gaussian, Inc.),
 the Gaussian 90(TM) system (copyright 1990, Gaussian, Inc.),
 the Gaussian 88(TM) system (copyright 1988, Gaussian, Inc.),
 the Gaussian 86(TM) system (copyright 1986, Carnegie Mellon
 University), and the Gaussian 82(TM) system (copyright 1983,
 Carnegie Mellon University). Gaussian is a federally registered
 trademark of Gaussian, Inc.
  
 This software contains proprietary and confidential information,
 including trade secrets, belonging to Gaussian, Inc.
  
 This software is provided under written license and may be
 used, copied, transmitted, or stored only in accord with that
 written license.
  
 The following legend is applicable only to US Government
 contracts under FAR:
  
                    RESTRICTED RIGHTS LEGEND
  
 Use, reproduction and disclosure by the US Government is
 subject to restrictions as set forth in subparagraphs (a)
 and (c) of the Commercial Computer Software - Restricted
 Rights clause in FAR 52.227-19.
  
 Gaussian, Inc.
 340 Quinnipiac St., Bldg. 40, Wallingford CT 06492
  
  
 ---------------------------------------------------------------
 Warning -- This program may not be used in any manner that
 competes with the business of Gaussian, Inc. or will provide
 assistance to any competitor of Gaussian, Inc.  The licensee
 of this program is prohibited from giving any competitor of
 Gaussian, Inc. access to this program.  By using this program,
 the user acknowledges that Gaussian, Inc. is engaged in the
 business of creating and licensing software in the field of
 computational chemistry and represents and warrants to the
 licensee that it is not a competitor of Gaussian, Inc. and that
 it will not use this program in any manner prohibited above.
 ---------------------------------------------------------------
  

 Cite this work as:
 Gaussian 16, Revision A.03,
 M. J. Frisch, G. W. Trucks, H. B. Schlegel, G. E. Scuseria, 
 M. A. Robb, J. R. Cheeseman, G. Scalmani, V. Barone, 
 G. A. Petersson, H. Nakatsuji, X. Li, M. Caricato, A. V. Marenich, 
 J. Bloino, B. G. Janesko, R. Gomperts, B. Mennucci, H. P. Hratchian, 
 J. V. Ortiz, A. F. Izmaylov, J. L. Sonnenberg, D. Williams-Young, 
 F. Ding, F. Lipparini, F. Egidi, J. Goings, B. Peng, A. Petrone, 
 T. Henderson, D. Ranasinghe, V. G. Zakrzewski, J. Gao, N. Rega, 
 G. Zheng, W. Liang, M. Hada, M. Ehara, K. Toyota, R. Fukuda, 
 J. Hasegawa, M. Ishida, T. Nakajima, Y. Honda, O. Kitao, H. Nakai, 
 T. Vreven, K. Throssell, J. A. Montgomery, Jr., J. E. Peralta, 
 F. Ogliaro, M. J. Bearpark, J. J. Heyd, E. N. Brothers, K. N. Kudin, 
 V. N. Staroverov, T. A. Keith, R. Kobayashi, J. Normand, 
 K. Raghavachari, A. P. Rendell, J. C. Burant, S. S. Iyengar, 
 J. Tomasi, M. Cossi, J. M. Millam, M. Klene, C. Adamo, R. Cammi, 
 J. W. Ochterski, R. L. Martin, K. Morokuma, O. Farkas, 
 J. B. Foresman, and D. J. Fox, Gaussian, Inc., Wallingford CT, 2016.
 
 ******************************************
 Gaussian 16:  ES64L-G16RevA.03 25-Dec-2016
                24-Mar-2026 
 ******************************************
 %mem=20GB
 %chk=re-bpy-co3-cl_eq.chk
 SetLPE:    new flags="-opt 'Tsnet.Node.lindarsharg: ssh'  -nodelist 'maginet231' -env GAUSS_MDEF=2684354560 -env GAUSS_EXEDIR="/home/programes/qq/gaussian/g16.A03/g16/bsd:/home/programes/qq/gaussian/g16.A03/g16""
 Will use up to    1 processors via Linda.
 ----------------------------------------------------------------------
 #p b3lyp/gen EmpiricalDispersion=GD3BJ pseudo=read scrf=(solvent=n,n-D
 iMethylFormamide,pcm,read) nosymm pop=(Orbitals=20) geom=checkpoint gu
 ess=read
 ----------------------------------------------------------------------
 1/29=2,38=1,40=2,172=1/1;
 2/12=2,15=1,40=1/2;
 3/5=7,11=2,14=-4,16=1,17=8,25=1,30=1,70=2203,72=148,74=-5,116=-2,124=41/1,2,3;
 4/5=1/1;
 5/5=2,38=6,53=148/2;
 6/7=2,8=2,9=2,10=2,28=1,96=20/1;
 99/5=1,9=1/99;
 Leave Link    1 at Tue Mar 24 18:21:25 2026, MaxMem=  2684354560 cpu:               1.0 elap:               0.0
 (Enter /home/programes/qq/gaussian/g16.A03/g16/l101.exe)
 -------------------
 Title Card Required
 -------------------
 Structure from the checkpoint file:  "re-bpy-co3-cl_eq.chk"
 Charge =  0 Multiplicity = 1
 Redundant internal coordinates found in file.  (old form).
 C,0,-2.2880266509,0.2988652842,0.0311475714
 C,0,-0.8924967331,0.3393964159,-0.0631217962
 C,0,-0.2356121312,1.5672969524,-0.0421086541
 C,0,-0.9874220774,2.7357501852,0.0764625776
 C,0,-2.371562948,2.6275987672,0.1654333467
 C,0,-3.0539644551,-0.9697512511,0.0265230483
 C,0,-2.439795453,-2.2225567073,-0.078289034
 C,0,-3.2199410535,-3.3762027767,-0.0659977548
 C,0,-4.6039749221,-3.2564189475,0.0551692196
 C,0,-5.1531498563,-1.9820942702,0.1547353178
 H,0,-0.3171354464,-0.5792141707,-0.1527305196
 H,0,0.8516207263,1.6072938805,-0.1160557831
 H,0,-0.5186464222,3.7189782436,0.0994615959
 H,0,-3.0011318228,3.5118097425,0.2573895377
 H,0,-1.359121573,-2.3020972057,-0.1695088857
 H,0,-2.7487260257,-4.35615048,-0.1486646735
 H,0,-5.2552692791,-4.1296382501,0.0719772943
 H,0,-6.2287935947,-1.8377918561,0.2490688572
 N,0,-4.4036237695,-0.865277818,0.1383537565
 N,0,-3.0101881008,1.4440431517,0.1416537733
 Re,0,-5.2988952352,1.248895156,0.1911892607
 C,0,-5.3528335234,1.2810997004,2.0923045513
 C,0,-7.1521006114,0.7988986006,0.1184802738
 C,0,-5.7688714708,3.0973576167,0.1181086182
 O,0,-5.3774445578,1.2959013272,3.2554192347
 O,0,-8.2697872937,0.4868504537,0.0658669455
 O,0,-6.0169925226,4.2308828804,0.0645410065
 Cl,0,-5.0191131966,1.0812853751,-2.3938386862
 Recover connectivity data from disk.
 ITRead=  0  0  0  0  0  0  0  0  0  0  0  0  0  0  0  0  0  0  0  0
 ITRead=  0  0  0  0  0  0  0  0
 MicOpt= -1 -1 -1 -1 -1 -1 -1 -1 -1 -1 -1 -1 -1 -1 -1 -1 -1 -1 -1 -1
 MicOpt= -1 -1 -1 -1 -1 -1 -1 -1
                           ----------------------------
                           !    Current Parameters    !
                           ! (Angstroms and Degrees)  !
 --------------------------                            --------------------------
 ! Name  Definition              Value                                          !
 --------------------------------------------------------------------------------
 ! R1    R(1,2)                  1.3993                                         !
 ! R2    R(1,6)                  1.4819                                         !
 ! R3    R(1,20)                 1.3584                                         !
 ! R4    R(2,3)                  1.3927                                         !
 ! R5    R(2,11)                 1.0876                                         !
 ! R6    R(3,4)                  1.3945                                         !
 ! R7    R(3,12)                 1.0905                                         !
 ! R8    R(4,5)                  1.3912                                         !
 ! R9    R(4,13)                 1.0895                                         !
 ! R10   R(5,14)                 1.0893                                         !
 ! R11   R(5,20)                 1.3451                                         !
 ! R12   R(6,7)                  1.3992                                         !
 ! R13   R(6,19)                 1.3583                                         !
 ! R14   R(7,8)                  1.3927                                         !
 ! R15   R(7,15)                 1.0874                                         !
 ! R16   R(8,9)                  1.3945                                         !
 ! R17   R(8,16)                 1.0905                                         !
 ! R18   R(9,10)                 1.3912                                         !
 ! R19   R(9,17)                 1.0895                                         !
 ! R20   R(10,18)                1.0894                                         !
 ! R21   R(10,19)                1.3451                                         !
 ! R22   R(19,21)                2.2965                                         !
 ! R23   R(20,21)                2.2975                                         !
 ! R24   R(21,22)                1.9022                                         !
 ! R25   R(21,23)                1.9084                                         !
 ! R26   R(21,24)                1.9087                                         !
 ! R27   R(21,28)                2.6055                                         !
 ! R28   R(22,25)                1.1635                                         !
 ! R29   R(23,26)                1.1616                                         !
 ! R30   R(24,27)                1.1616                                         !
 ! A1    A(2,1,6)              122.6871                                         !
 ! A2    A(2,1,20)             120.7484                                         !
 ! A3    A(6,1,20)             116.5631                                         !
 ! A4    A(1,2,3)              119.6635                                         !
 ! A5    A(1,2,11)             120.5754                                         !
 ! A6    A(3,2,11)             119.7611                                         !
 ! A7    A(2,3,4)              119.0616                                         !
 ! A8    A(2,3,12)             120.1036                                         !
 ! A9    A(4,3,12)             120.8347                                         !
 ! A10   A(3,4,5)              118.4698                                         !
 ! A11   A(3,4,13)             121.736                                          !
 ! A12   A(5,4,13)             119.7942                                         !
 ! A13   A(4,5,14)             121.1515                                         !
 ! A14   A(4,5,20)             122.6599                                         !
 ! A15   A(14,5,20)            116.1885                                         !
 ! A16   A(1,6,7)              122.6747                                         !
 ! A17   A(1,6,19)             116.5812                                         !
 ! A18   A(7,6,19)             120.7431                                         !
 ! A19   A(6,7,8)              119.6789                                         !
 ! A20   A(6,7,15)             120.5306                                         !
 ! A21   A(8,7,15)             119.7905                                         !
 ! A22   A(7,8,9)              119.0502                                         !
 ! A23   A(7,8,16)             120.1091                                         !
 ! A24   A(9,8,16)             120.8406                                         !
 ! A25   A(8,9,10)             118.4698                                         !
 ! A26   A(8,9,17)             121.7231                                         !
 ! A27   A(10,9,17)            119.8071                                         !
 ! A28   A(9,10,18)            121.1521                                         !
 ! A29   A(9,10,19)            122.6628                                         !
 ! A30   A(18,10,19)           116.185                                          !
 ! A31   A(6,19,10)            119.3942                                         !
 ! A32   A(6,19,21)            117.3907                                         !
 ! A33   A(10,19,21)           123.1507                                         !
 ! A34   A(1,20,5)             119.396                                          !
 ! A35   A(1,20,21)            117.3704                                         !
 ! A36   A(5,20,21)            123.1834                                         !
 ! A37   A(19,21,20)            71.9022                                         !
 ! A38   A(19,21,22)            92.845                                          !
 ! A39   A(19,21,23)            99.2422                                         !
 ! A40   A(19,21,28)            82.8823                                         !
 ! A41   A(20,21,22)            92.7718                                         !
 ! A42   A(20,21,24)            99.3347                                         !
 ! A43   A(20,21,28)            82.9408                                         !
 ! A44   A(22,21,23)            90.8328                                         !
 ! A45   A(22,21,24)            90.8531                                         !
 ! A46   A(23,21,24)            89.3004                                         !
 ! A47   A(23,21,28)            92.9409                                         !
 ! A48   A(24,21,28)            92.9091                                         !
 ! A49   L(19,21,24,20,-1)     171.2368                                         !
 ! A50   L(20,21,23,19,-1)     171.1443                                         !
 ! A51   L(22,21,28,19,-1)     175.7274                                         !
 ! A52   L(21,22,25,13,-1)     179.7437                                         !
 ! A53   L(21,23,26,9,-1)      178.0405                                         !
 ! A54   L(21,24,27,4,-1)      178.0737                                         !
 ! A55   L(19,21,24,20,-2)     176.5891                                         !
 ! A56   L(20,21,23,19,-2)     183.2965                                         !
 ! A57   L(22,21,28,19,-2)     183.1457                                         !
 ! A58   L(21,22,25,13,-2)     180.4327                                         !
 ! A59   L(21,23,26,9,-2)      180.3772                                         !
 ! A60   L(21,24,27,4,-2)      179.5745                                         !
 ! D1    D(6,1,2,3)           -179.4942                                         !
 ! D2    D(6,1,2,11)             0.515                                          !
 ! D3    D(20,1,2,3)             0.0662                                         !
 ! D4    D(20,1,2,11)         -179.9246                                         !
 ! D5    D(2,1,6,7)             -0.2842                                         !
 ! D6    D(2,1,6,19)           179.3342                                         !
 ! D7    D(20,1,6,7)          -179.8619                                         !
 ! D8    D(20,1,6,19)           -0.2434                                         !
 ! D9    D(2,1,20,5)            -0.256                                          !
 ! D10   D(2,1,20,21)          177.2501                                         !
 ! D11   D(6,1,20,5)           179.3303                                         !
 ! D12   D(6,1,20,21)           -3.1635                                         !
 ! D13   D(1,2,3,4)              0.1593                                         !
 ! D14   D(1,2,3,12)          -179.942                                          !
 ! D15   D(11,2,3,4)          -179.8498                                         !
 ! D16   D(11,2,3,12)            0.0489                                         !
 ! D17   D(2,3,4,5)             -0.1927                                         !
 ! D18   D(2,3,4,13)           179.8721                                         !
 ! D19   D(12,3,4,5)           179.9093                                         !
 ! D20   D(12,3,4,13)           -0.0258                                         !
 ! D21   D(3,4,5,14)          -179.8812                                         !
 ! D22   D(3,4,5,20)             0.0031                                         !
 ! D23   D(13,4,5,14)            0.0552                                         !
 ! D24   D(13,4,5,20)          179.9396                                         !
 ! D25   D(4,5,20,1)             0.2232                                         !
 ! D26   D(4,5,20,21)         -177.1305                                         !
 ! D27   D(14,5,20,1)         -179.8871                                         !
 ! D28   D(14,5,20,21)           2.7592                                         !
 ! D29   D(1,6,7,8)            179.5103                                         !
 ! D30   D(1,6,7,15)            -0.5104                                         !
 ! D31   D(19,6,7,8)            -0.0927                                         !
 ! D32   D(19,6,7,15)          179.8866                                         !
 ! D33   D(1,6,19,10)         -179.2934                                         !
 ! D34   D(1,6,19,21)            3.5327                                         !
 ! D35   D(7,6,19,10)            0.333                                          !
 ! D36   D(7,6,19,21)         -176.841                                          !
 ! D37   D(6,7,8,9)             -0.1866                                         !
 ! D38   D(6,7,8,16)           179.9138                                         !
 ! D39   D(15,7,8,9)           179.8339                                         !
 ! D40   D(15,7,8,16)           -0.0657                                         !
 ! D41   D(7,8,9,10)             0.2228                                         !
 ! D42   D(7,8,9,17)          -179.8508                                         !
 ! D43   D(16,8,9,10)         -179.8783                                         !
 ! D44   D(16,8,9,17)            0.0481                                         !
 ! D45   D(8,9,10,18)          179.8786                                         !
 ! D46   D(8,9,10,19)            0.018                                          !
 ! D47   D(17,9,10,18)          -0.0492                                         !
 ! D48   D(17,9,10,19)        -179.9098                                         !
 ! D49   D(9,10,19,6)           -0.2983                                         !
 ! D50   D(9,10,19,21)         176.7045                                         !
 ! D51   D(18,10,19,6)         179.8347                                         !
 ! D52   D(18,10,19,21)         -3.1625                                         !
 ! D53   D(6,19,21,20)          -3.767                                          !
 ! D54   D(6,19,21,22)         -95.7554                                         !
 ! D55   D(6,19,21,23)         172.9364                                         !
 ! D56   D(6,19,21,28)          81.0989                                         !
 ! D57   D(10,19,21,20)        179.174                                          !
 ! D58   D(10,19,21,22)         87.1856                                         !
 ! D59   D(10,19,21,23)         -4.1226                                         !
 ! D60   D(10,19,21,28)        -95.9601                                         !
 ! D61   D(1,20,21,19)           3.6319                                         !
 ! D62   D(1,20,21,22)          95.7212                                         !
 ! D63   D(1,20,21,24)        -172.9572                                         !
 ! D64   D(1,20,21,28)         -81.1537                                         !
 ! D65   D(5,20,21,19)        -178.9643                                         !
 ! D66   D(5,20,21,22)         -86.875                                          !
 ! D67   D(5,20,21,24)           4.4466                                         !
 ! D68   D(5,20,21,28)          96.2501                                         !
 --------------------------------------------------------------------------------
 NAtoms=     28 NQM=       28 NQMF=       0 NMMI=      0 NMMIF=      0
                NMic=       0 NMicF=      0.
                    Isotopes and Nuclear Properties:
 (Nuclear quadrupole moments (NQMom) in fm**2, nuclear magnetic moments (NMagM)
  in nuclear magnetons)

  Atom         1           2           3           4           5           6           7           8           9          10
 IAtWgt=          12          12          12          12          12          12          12          12          12          12
 AtmWgt=  12.0000000  12.0000000  12.0000000  12.0000000  12.0000000  12.0000000  12.0000000  12.0000000  12.0000000  12.0000000
 NucSpn=           0           0           0           0           0           0           0           0           0           0
 AtZEff=   3.6000000   3.6000000   3.6000000   3.6000000   3.6000000   3.6000000   3.6000000   3.6000000   3.6000000   3.6000000
 NQMom=    0.0000000   0.0000000   0.0000000   0.0000000   0.0000000   0.0000000   0.0000000   0.0000000   0.0000000   0.0000000
 NMagM=    0.0000000   0.0000000   0.0000000   0.0000000   0.0000000   0.0000000   0.0000000   0.0000000   0.0000000   0.0000000
 AtZNuc=   6.0000000   6.0000000   6.0000000   6.0000000   6.0000000   6.0000000   6.0000000   6.0000000   6.0000000   6.0000000

  Atom        11          12          13          14          15          16          17          18          19          20
 IAtWgt=           1           1           1           1           1           1           1           1          14          14
 AtmWgt=   1.0078250   1.0078250   1.0078250   1.0078250   1.0078250   1.0078250   1.0078250   1.0078250  14.0030740  14.0030740
 NucSpn=           1           1           1           1           1           1           1           1           2           2
 AtZEff=   1.0000000   1.0000000   1.0000000   1.0000000   1.0000000   1.0000000   1.0000000   1.0000000   4.5500000   4.5500000
 NQMom=    0.0000000   0.0000000   0.0000000   0.0000000   0.0000000   0.0000000   0.0000000   0.0000000   2.0440000   2.0440000
 NMagM=    2.7928460   2.7928460   2.7928460   2.7928460   2.7928460   2.7928460   2.7928460   2.7928460   0.4037610   0.4037610
 AtZNuc=   1.0000000   1.0000000   1.0000000   1.0000000   1.0000000   1.0000000   1.0000000   1.0000000   7.0000000   7.0000000

  Atom        21          22          23          24          25          26          27          28
 IAtWgt=         187          12          12          12          16          16          16          35
 AtmWgt= 186.9560000  12.0000000  12.0000000  12.0000000  15.9949146  15.9949146  15.9949146  34.9688527
 NucSpn=           5           0           0           0           0           0           0           3
 AtZEff=1099.5000000   3.6000000   3.6000000   3.6000000   5.6000000   5.6000000   5.6000000  14.2400000
 NQMom=  207.0000000   0.0000000   0.0000000   0.0000000   0.0000000   0.0000000   0.0000000  -8.1650000
 NMagM=    3.2197000   0.0000000   0.0000000   0.0000000   0.0000000   0.0000000   0.0000000   0.8218740
 AtZNuc=  75.0000000   6.0000000   6.0000000   6.0000000   8.0000000   8.0000000   8.0000000  17.0000000
 Leave Link  101 at Tue Mar 24 18:21:25 2026, MaxMem=  2684354560 cpu:               3.5 elap:               0.1
 (Enter /home/programes/qq/gaussian/g16.A03/g16/l202.exe)
                          Input orientation:                          
 ---------------------------------------------------------------------
 Center     Atomic      Atomic             Coordinates (Angstroms)
 Number     Number       Type             X           Y           Z
 ---------------------------------------------------------------------
      1          6           0       -2.288027    0.298865    0.031148
      2          6           0       -0.892497    0.339396   -0.063122
      3          6           0       -0.235612    1.567297   -0.042109
      4          6           0       -0.987422    2.735750    0.076463
      5          6           0       -2.371563    2.627599    0.165433
      6          6           0       -3.053964   -0.969751    0.026523
      7          6           0       -2.439795   -2.222557   -0.078289
      8          6           0       -3.219941   -3.376203   -0.065998
      9          6           0       -4.603975   -3.256419    0.055169
     10          6           0       -5.153150   -1.982094    0.154735
     11          1           0       -0.317135   -0.579214   -0.152731
     12          1           0        0.851621    1.607294   -0.116056
     13          1           0       -0.518646    3.718978    0.099462
     14          1           0       -3.001132    3.511810    0.257390
     15          1           0       -1.359122   -2.302097   -0.169509
     16          1           0       -2.748726   -4.356150   -0.148665
     17          1           0       -5.255269   -4.129638    0.071977
     18          1           0       -6.228794   -1.837792    0.249069
     19          7           0       -4.403624   -0.865278    0.138354
     20          7           0       -3.010188    1.444043    0.141654
     21         75           0       -5.298895    1.248895    0.191189
     22          6           0       -5.352834    1.281100    2.092305
     23          6           0       -7.152101    0.798899    0.118480
     24          6           0       -5.768871    3.097358    0.118109
     25          8           0       -5.377445    1.295901    3.255419
     26          8           0       -8.269787    0.486850    0.065867
     27          8           0       -6.016993    4.230883    0.064541
     28         17           0       -5.019113    1.081285   -2.393839
 ---------------------------------------------------------------------
                    Distance matrix (angstroms):
                    1          2          3          4          5
     1  C    0.000000
     2  C    1.399297   0.000000
     3  C    2.413854   1.392723   0.000000
     4  C    2.762614   2.402292   1.394475   0.000000
     5  C    2.334097   2.734181   2.393658   1.391208   0.000000
     6  C    1.481914   2.528606   3.792682   4.243092   3.664136
     7  C    2.528355   2.992986   4.384373   5.168960   4.856755
     8  C    3.792628   4.384368   5.774511   6.508487   6.067861
     9  C    4.243140   5.169038   6.508478   6.999000   6.294242
    10  C    3.664285   4.856948   6.067875   6.294241   5.383921
    11  H    2.165467   1.087619   2.150905   3.389809   3.821721
    12  H    3.404562   2.156922   1.090478   2.166231   3.392517
    13  H    3.851304   3.404081   2.174829   1.089503   2.151456
    14  H    3.298896   3.822731   3.393955   2.165648   1.089331
    15  H    2.769139   2.684501   4.031218   5.057526   5.043721
    16  H    4.681212   5.049858   6.435396   7.310809   7.000976
    17  H    5.330839   6.246944   7.593750   8.083817   7.347431
    18  H    4.488033   5.771800   6.899104   6.958380   5.901266
    19  N    2.417121   3.717505   4.829318   4.964037   4.041063
    20  N    1.358367   2.397247   2.783385   2.400904   1.345069
    21  Re   3.161250   4.506463   5.078646   4.562094   3.235856
    22  C    3.821805   5.042546   5.551899   5.023589   3.796560
    23  C    4.890488   6.279073   6.960893   6.461921   5.118583
    24  C    4.467147   5.605196   5.743145   4.795284   3.429959
    25  O    4.575425   5.660598   6.114392   5.608139   4.511846
    26  O    5.984814   7.379891   8.107219   7.621713   6.275489
    27  O    5.419139   6.435870   6.366351   5.247108   3.983699
    28  Cl   3.735180   4.797041   5.352450   5.009409   3.993805
                    6          7          8          9         10
     6  C    0.000000
     7  C    1.399182   0.000000
     8  C    2.413942   1.392723   0.000000
     9  C    2.762644   2.402156   1.394482   0.000000
    10  C    2.334064   2.733938   2.393649   1.391190   0.000000
    11  H    2.770358   2.685480   4.031991   5.058423   5.044764
    12  H    4.681355   5.050010   6.435477   7.310851   7.001022
    13  H    5.330792   6.246939   7.593811   8.083813   7.347374
    14  H    4.487815   5.771545   6.899070   6.958370   5.901246
    15  H    2.164732   1.087430   2.151062   3.389732   3.821281
    16  H    3.404638   2.156992   1.090493   2.166312   3.392558
    17  H    3.851324   3.403885   2.174687   1.089486   2.151563
    18  H    3.298873   3.822527   3.393990   2.165672   1.089372
    19  N    1.358308   2.397032   2.783453   2.400962   1.345116
    20  N    2.416935   3.717214   4.829274   4.964069   4.041148
    21  Re   3.160573   4.505336   5.077374   4.560622   3.234480
    22  C    3.823425   5.047066   5.558594   5.029889   3.800327
    23  C    4.464448   5.601226   5.738239   4.789839   3.425061
    24  C    4.890857   6.278758   6.959736   6.459986   5.116765
    25  O    4.577938   5.667710   6.124964   5.618138   4.517721
    26  O    5.415537   6.430433   6.359364   5.239309   3.977061
    27  O    5.985614   7.379947   8.106065   7.619475   6.273392
    28  Cl   3.731851   4.788530   5.340886   4.998566   3.987166
                   11         12         13         14         15
    11  H    0.000000
    12  H    2.479547   0.000000
    13  H    4.310298   2.526517   0.000000
    14  H    4.910042   4.313971   2.496116   0.000000
    15  H    2.013540   4.491501   6.085400   6.056398   0.000000
    16  H    4.491981   6.966077   8.381081   7.882473   2.480034
    17  H    6.086146   8.381041   9.167177   7.969143   4.310242
    18  H    6.057488   7.882525   7.969056   6.247888   4.909633
    19  N    4.106817   5.813427   6.009157   4.597831   3.380565
    20  N    3.381237   3.873839   3.374150   2.071023   4.105656
    21  Re   5.317725   6.168606   5.381496   3.225660   5.316151
    22  C    5.818866   6.593824   5.769232   3.724712   5.822786
    23  C    6.977786   8.047861   7.247754   4.960819   6.577060
    24  C    6.581182   6.790143   5.286929   2.802062   6.977301
    25  O    6.382654   7.089786   6.280071   4.421006   6.389260
    26  O    8.026765   9.191767   8.398093   6.078305   7.455933
    27  O    7.461408   7.354841   5.522235   3.106392   8.026853
    28  Cl   5.467030   6.319058   5.781710   4.124162   5.458064
                   16         17         18         19         20
    16  H    0.000000
    17  H    2.526410   0.000000
    18  H    4.314069   2.496331   0.000000
    19  N    3.873920   3.374278   2.071059   0.000000
    20  N    5.813338   6.009257   4.597978   2.697154   0.000000
    21  Re   6.167285   5.380031   3.224236   2.296526   2.297546
    22  C    6.601660   5.776446   3.727239   3.053827   3.052798
    23  C    6.784954   5.281156   2.796728   3.213099   4.191919
    24  C    8.046566   7.245370   4.958264   4.191276   3.216261
    25  O    7.102368   6.291717   4.425265   3.916008   3.914254
    26  O    7.347299   5.513558   3.098900   4.096428   5.346526
    27  O    9.190439   8.395153   6.075173   5.345957   4.100402
    28  Cl   6.305646   5.769726   4.119381   3.252681   3.255164
                   21         22         23         24         25
    21  Re   0.000000
    22  C    1.902153   0.000000
    23  C    1.908443   2.714012   0.000000
    24  C    1.908673   2.714651   2.682580   0.000000
    25  O    3.065597   1.163469   3.638242   3.638843   0.000000
    26  O    3.069628   3.639492   1.161622   3.615530   4.381033
    27  O    3.069846   3.640625   3.615231   1.161599   4.382333
    28  Cl   2.605521   4.502974   3.307737   3.307048   5.664678
                   26         27         28
    26  O    0.000000
    27  O    4.369538   0.000000
    28  Cl   4.119513   4.118174   0.000000
 Symmetry turned off by external request.
 Stoichiometry    C13H8ClN2O3Re
 Framework group  C1[X(C13H8ClN2O3Re)]
 Deg. of freedom    78
 Full point group                 C1      NOp   1
 Rotational constants (GHZ):           0.3384337           0.2666528           0.1987896
 Leave Link  202 at Tue Mar 24 18:21:25 2026, MaxMem=  2684354560 cpu:               0.6 elap:               0.0
 (Enter /home/programes/qq/gaussian/g16.A03/g16/l301.exe)
 General basis read from cards:  (5D, 7F)
 Centers:      21
 lanl2dz
 F 1 1.00
     Exponent=  8.6900000000D-01 Coefficients=  1.0000000000D+00
 ****
 Centers:       1      2      3      4      5      6      7      8      9     10
 Centers:      22     23     24     25     26     27     19     20     11     12
 Centers:      13     14     15     16     17     18     28
 cc-pVDZ
 ****
 ======================================================================================================
                                       Pseudopotential Parameters
 ======================================================================================================
  Center     Atomic      Valence      Angular      Power
  Number     Number     Electrons     Momentum     of R      Exponent        Coefficient   SO-Coeffient
 ======================================================================================================
    1          6
                                   No pseudopotential on this center.
    2          6
                                   No pseudopotential on this center.
    3          6
                                   No pseudopotential on this center.
    4          6
                                   No pseudopotential on this center.
    5          6
                                   No pseudopotential on this center.
    6          6
                                   No pseudopotential on this center.
    7          6
                                   No pseudopotential on this center.
    8          6
                                   No pseudopotential on this center.
    9          6
                                   No pseudopotential on this center.
   10          6
                                   No pseudopotential on this center.
   11          1
                                   No pseudopotential on this center.
   12          1
                                   No pseudopotential on this center.
   13          1
                                   No pseudopotential on this center.
   14          1
                                   No pseudopotential on this center.
   15          1
                                   No pseudopotential on this center.
   16          1
                                   No pseudopotential on this center.
   17          1
                                   No pseudopotential on this center.
   18          1
                                   No pseudopotential on this center.
   19          7
                                   No pseudopotential on this center.
   20          7
                                   No pseudopotential on this center.
   21         75           15
                                      G and up 
                                                     1     1833.8143836       -0.14971040    0.00000000
                                                     2      414.0589456    -1669.25557810    0.00000000
                                                     2       59.0349540     -346.66611290    0.00000000
                                                     2       11.9177094      -96.66848920    0.00000000
                                                     2        3.6531764      -11.07385670    0.00000000
                                                     2        1.2764184       -0.57985520    0.00000000
                                      S - G
                                                     0      247.0023085        3.14971040    0.00000000
                                                     1      631.7195767       45.29699690    0.00000000
                                                     2      249.2800441     1116.42795850    0.00000000
                                                     2       84.2947315      793.64190650    0.00000000
                                                     2       23.0407912      318.20991930    0.00000000
                                                     2        4.2997111      586.31050250    0.00000000
                                                     2        4.0974390     -475.69041640    0.00000000
                                      P - G
                                                     0      193.6897726        2.14971040    0.00000000
                                                     1       56.9308394       64.22957360    0.00000000
                                                     2       18.7227602      218.85046070    0.00000000
                                                     2        3.7340020      344.41891680    0.00000000
                                                     2        3.5127483     -260.47272670    0.00000000
                                      D - G
                                                     0      126.2340824        3.14971040    0.00000000
                                                     1       80.7090826       46.57148680    0.00000000
                                                     2       42.5529714      304.38345950    0.00000000
                                                     2       13.4074494      157.15896520    0.00000000
                                                     2        3.6904228       48.57012110    0.00000000
                                      F - G
                                                     0      112.7786459        3.95696100    0.00000000
                                                     1       56.7815968       52.35867810    0.00000000
                                                     2       28.5831966      236.03408240    0.00000000
                                                     2        8.5734158      116.57872660    0.00000000
                                                     2        2.0892721       11.10505300    0.00000000
   22          6
                                   No pseudopotential on this center.
   23          6
                                   No pseudopotential on this center.
   24          6
                                   No pseudopotential on this center.
   25          8
                                   No pseudopotential on this center.
   26          8
                                   No pseudopotential on this center.
   27          8
                                   No pseudopotential on this center.
   28         17
                                   No pseudopotential on this center.
 ======================================================================================================
 Ernie: Thresh=  0.10000D-02 Tol=  0.10000D-05 Strict=F.
 Ernie:  47 primitive shells out of 504 were deleted.
   339 basis functions,   774 primitive gaussians,   363 cartesian basis functions
    78 alpha electrons       78 beta electrons
       nuclear repulsion energy      1754.4776831637 Hartrees.
 IExCor=  402 DFT=T Ex+Corr=B3LYP ExCW=0 ScaHFX=  0.200000
 ScaDFX=  0.800000  0.720000  1.000000  0.810000 ScalE2=  1.000000  1.000000
 IRadAn=      5 IRanWt=     -1 IRanGd=            0 ICorTp=0 IEmpDi=141
 NAtoms=   28 NActive=   28 NUniq=   28 SFac= 1.00D+00 NAtFMM=   60 NAOKFM=F Big=F
 Integral buffers will be    131072 words long.
 Raffenetti 2 integral format.
 Two-electron integral symmetry is turned off.
 R6Disp:  Grimme-D3(BJ) Dispersion energy=       -0.0842387468 Hartrees.
 Nuclear repulsion after empirical dispersion term =     1754.3934444169 Hartrees.
 Using the following non-standard input for PCM:
 NonEq=write
 --- end of non-standard input.
 ------------------------------------------------------------------------------
 Polarizable Continuum Model (PCM)
 =================================
 Model                : PCM.
 Atomic radii         : UFF (Universal Force Field).
 Polarization charges : Total charges.
 Charge compensation  : None.
 Solution method      : On-the-fly selection.
 Cavity type          : Scaled VdW (van der Waals Surface) (Alpha=1.100).
 Cavity algorithm     : GePol (No added spheres)
                        Default sphere list used, NSphG=   28.
                        Lebedev-Laikov grids with approx.  5.0 points / Ang**2.
                        Smoothing algorithm: York/Karplus (Gamma=1.0000).
                        Polarization charges: spherical gaussians, with
                                              point-specific exponents (IZeta= 3).
                        Self-potential: point-specific (ISelfS= 7).
                        Self-field    : sphere-specific E.n sum rule (ISelfD= 2).
 Solvent              : n,n-DiMethylFormamide, Eps=  37.219000 Eps(inf)=   2.046330
 ------------------------------------------------------------------------------
 GePol: Number of generator spheres                  =      28
 GePol: Total number of spheres                      =      28
 GePol: Number of exposed spheres                    =      27 ( 96.43%)
 GePol: Number of points                             =    2582
 GePol: Average weight of points                     =       0.13
 GePol: Minimum weight of points                     =   0.19D-10
 GePol: Maximum weight of points                     =    0.21616
 GePol: Number of points with low weight             =     118
 GePol: Fraction of low-weight points (<1% of avg)   =       4.57%
 GePol: Cavity surface area                          =    342.370 Ang**2
 GePol: Cavity volume                                =    378.133 Ang**3
 Leave Link  301 at Tue Mar 24 18:21:25 2026, MaxMem=  2684354560 cpu:               2.6 elap:               0.1
 (Enter /home/programes/qq/gaussian/g16.A03/g16/l302.exe)
 NPDir=0 NMtPBC=     1 NCelOv=     1 NCel=       1 NClECP=     1 NCelD=      1
         NCelK=      1 NCelE2=     1 NClLst=     1 CellRange=     0.0.
 One-electron integrals computed using PRISM.
   1 Symmetry operations used in ECPInt.
 ECPInt:  NShTT=   11175 NPrTT=  105620 LenC2=   10452 LenP2D=   51063.
 LDataN:  DoStor=T MaxTD1= 7 Len=  274
 NBasis=   339 RedAO= T EigKep=  3.67D-04  NBF=   339
 NBsUse=   339 1.00D-06 EigRej= -1.00D+00 NBFU=   339
 Precomputing XC quadrature grid using
 IXCGrd= 4 IRadAn=           5 IRanWt=          -1 IRanGd=           0 AccXCQ= 0.00D+00.
 Defaulting to unpruned grid for atomic number  75.
 Generated NRdTot=       0 NPtTot=           0 NUsed=           0 NTot=          32
 NSgBfM=   363   363   363   363   363 MxSgAt=    28 MxSgA2=    28.
 Leave Link  302 at Tue Mar 24 18:21:26 2026, MaxMem=  2684354560 cpu:              11.3 elap:               0.4
 (Enter /home/programes/qq/gaussian/g16.A03/g16/l303.exe)
 DipDrv:  MaxL=1.
 Leave Link  303 at Tue Mar 24 18:21:26 2026, MaxMem=  2684354560 cpu:               1.4 elap:               0.1
 (Enter /home/programes/qq/gaussian/g16.A03/g16/l401.exe)
 Initial guess from the checkpoint file:  "re-bpy-co3-cl_eq.chk"
 B after Tr=     0.000000    0.000000    0.000000
         Rot=    1.000000    0.000000    0.000000    0.000000 Ang=   0.00 deg.
 Guess basis will be translated and rotated to current coordinates.
 JPrj=2 DoOrth=T DoCkMO=T.
 Leave Link  401 at Tue Mar 24 18:21:26 2026, MaxMem=  2684354560 cpu:               6.9 elap:               0.3
 (Enter /home/programes/qq/gaussian/g16.A03/g16/l502.exe)
 Two-electron integral symmetry not used.
 Closed shell SCF:
 Using DIIS extrapolation, IDIIS=  1040.
 NGot=  2684354560 LenX=  2684076439 LenY=  2683944229
 Requested convergence on RMS density matrix=1.00D-08 within 128 cycles.
 Requested convergence on MAX density matrix=1.00D-06.
 Requested convergence on             energy=1.00D-06.
 No special actions if energy rises.
 Fock matrices will be formed incrementally for  20 cycles.

 Cycle   1  Pass 1  IDiag  1:
 FoFJK:  IHMeth= 1 ICntrl=       0 DoSepK=F KAlg= 0 I1Cent=           0 FoldK=F
 IRaf= 870000000 NMat=       1 IRICut=       1 DoRegI=T DoRafI=F ISym2E= 0 IDoP0=0 IntGTp=1.
 FoFCou: FMM=F IPFlag=           0 FMFlag=      100000 FMFlg1=           0
         NFxFlg=           0 DoJE=F BraDBF=F KetDBF=F FulRan=T
         wScrn=  0.000000 ICntrl=         0 IOpCl=  0 I1Cent=           0 NGrid=           0
         NMat0=    1 NMatS0=      1 NMatT0=    0 NMatD0=    1 NMtDS0=    0 NMtDT0=    0
 Symmetry not used in FoFCou.
 Defaulting to unpruned grid for atomic number  75.
 Defaulting to unpruned grid for atomic number  75.
 Defaulting to unpruned grid for atomic number  75.
 Defaulting to unpruned grid for atomic number  75.
 Defaulting to unpruned grid for atomic number  75.
 Defaulting to unpruned grid for atomic number  75.
 Defaulting to unpruned grid for atomic number  75.
 Defaulting to unpruned grid for atomic number  75.
 Defaulting to unpruned grid for atomic number  75.
 Defaulting to unpruned grid for atomic number  75.
 Defaulting to unpruned grid for atomic number  75.
 Defaulting to unpruned grid for atomic number  75.
 Defaulting to unpruned grid for atomic number  75.
 Defaulting to unpruned grid for atomic number  75.
 Defaulting to unpruned grid for atomic number  75.
 Defaulting to unpruned grid for atomic number  75.
 Defaulting to unpruned grid for atomic number  75.
 Defaulting to unpruned grid for atomic number  75.
 Defaulting to unpruned grid for atomic number  75.
 Defaulting to unpruned grid for atomic number  75.
 Defaulting to unpruned grid for atomic number  75.
 Defaulting to unpruned grid for atomic number  75.
 Defaulting to unpruned grid for atomic number  75.
 Defaulting to unpruned grid for atomic number  75.
 Defaulting to unpruned grid for atomic number  75.
 Defaulting to unpruned grid for atomic number  75.
 Defaulting to unpruned grid for atomic number  75.
 Defaulting to unpruned grid for atomic number  75.
 Defaulting to unpruned grid for atomic number  75.
 Defaulting to unpruned grid for atomic number  75.
 Defaulting to unpruned grid for atomic number  75.
 Defaulting to unpruned grid for atomic number  75.
 Inv3:  Mode=1 IEnd=    20000172.
 Iteration    1 A*A^-1 deviation from unit magnitude is 7.44D-15 for    465.
 Iteration    1 A*A^-1 deviation from orthogonality  is 3.46D-15 for   2179   1246.
 Iteration    1 A^-1*A deviation from unit magnitude is 8.22D-15 for    465.
 Iteration    1 A^-1*A deviation from orthogonality  is 2.72D-15 for   1920    474.
 E= -1375.06805418751    
 DIIS: error= 1.88D-08 at cycle   1 NSaved=   1.
 NSaved= 1 IEnMin= 1 EnMin= -1375.06805418751     IErMin= 1 ErrMin= 1.88D-08
 ErrMax= 1.88D-08  0.00D+00 EMaxC= 1.00D-01 BMatC= 2.17D-13 BMatP= 2.17D-13
 IDIUse=1 WtCom= 1.00D+00 WtEn= 0.00D+00
 Coeff-Com:  0.100D+01
 Coeff:      0.100D+01
 Gap=     0.137 Goal=   None    Shift=    0.000
 RMSDP=4.02D-09 MaxDP=2.57D-07              OVMax= 3.78D-07

 NEqSol: Computing the fast-slow partition of the PCM polarization charges.
 Error on total polarization charges =  0.01128
 SCF Done:  E(RB3LYP) =  -1375.06805419     A.U. after    1 cycles
            NFock=  1  Conv=0.40D-08     -V/T= 2.0464
 KE= 1.314131034492D+03 PE=-6.710835897647D+03 EE= 2.267243364550D+03
 Leave Link  502 at Tue Mar 24 18:21:31 2026, MaxMem=  2684354560 cpu:             129.1 elap:               5.1
 (Enter /home/programes/qq/gaussian/g16.A03/g16/l601.exe)
 Copying SCF densities to generalized density rwf, IOpCl= 0 IROHF=0.

 **********************************************************************

            Population analysis using the SCF density.

 **********************************************************************

 Alpha  occ. eigenvalues -- -101.46995 -19.20651 -19.20649 -19.20184 -14.39582
 Alpha  occ. eigenvalues --  -14.39580 -10.29355 -10.29353 -10.29089 -10.27129
 Alpha  occ. eigenvalues --  -10.27106 -10.25763 -10.25762 -10.23234 -10.23234
 Alpha  occ. eigenvalues --  -10.22794 -10.22788 -10.22379 -10.22379  -9.38570
 Alpha  occ. eigenvalues --   -7.14462  -7.14085  -7.14069  -3.23427  -1.83362
 Alpha  occ. eigenvalues --   -1.82788  -1.82726  -1.11823  -1.11774  -1.11312
 Alpha  occ. eigenvalues --   -1.00258  -0.97820  -0.83977  -0.83176  -0.83046
 Alpha  occ. eigenvalues --   -0.77555  -0.73491  -0.68893  -0.67973  -0.64762
 Alpha  occ. eigenvalues --   -0.63557  -0.58931  -0.56677  -0.56073  -0.55852
 Alpha  occ. eigenvalues --   -0.53284  -0.53003  -0.50686  -0.49763  -0.47984
 Alpha  occ. eigenvalues --   -0.47437  -0.46409  -0.46303  -0.46194  -0.45988
 Alpha  occ. eigenvalues --   -0.45287  -0.45097  -0.44679  -0.43917  -0.43624
 Alpha  occ. eigenvalues --   -0.43169  -0.42821  -0.42568  -0.42334  -0.39998
 Alpha  occ. eigenvalues --   -0.39412  -0.35081  -0.33683  -0.33360  -0.32305
 Alpha  occ. eigenvalues --   -0.32277  -0.29704  -0.27637  -0.27547  -0.26882
 Alpha  occ. eigenvalues --   -0.24930  -0.23380  -0.23108
 Alpha virt. eigenvalues --   -0.09414  -0.05978  -0.05172  -0.03889  -0.03079
 Alpha virt. eigenvalues --   -0.00436   0.00426   0.01218   0.02364   0.02521
 Alpha virt. eigenvalues --    0.03674   0.03948   0.04552   0.05371   0.07043
 Alpha virt. eigenvalues --    0.07173   0.07943   0.08602   0.09509   0.10837
 Alpha virt. eigenvalues --    0.11915   0.12286   0.14295   0.15241   0.15592
 Alpha virt. eigenvalues --    0.18983   0.19742   0.20806   0.23305   0.24010
 Alpha virt. eigenvalues --    0.25698   0.25817   0.26676   0.28036   0.31227
 Alpha virt. eigenvalues --    0.32670   0.33188   0.33905   0.34240   0.35175
 Alpha virt. eigenvalues --    0.37012   0.39518   0.40538   0.41256   0.42292
 Alpha virt. eigenvalues --    0.42308   0.42766   0.44528   0.45616   0.46343
 Alpha virt. eigenvalues --    0.46676   0.47140   0.47158   0.47749   0.48293
 Alpha virt. eigenvalues --    0.49382   0.50193   0.50503   0.50729   0.51224
 Alpha virt. eigenvalues --    0.52760   0.53094   0.54091   0.54725   0.55249
 Alpha virt. eigenvalues --    0.56737   0.57692   0.58255   0.58310   0.59755
 Alpha virt. eigenvalues --    0.61649   0.62441   0.62728   0.63262   0.63571
 Alpha virt. eigenvalues --    0.64520   0.64946   0.65286   0.65678   0.65986
 Alpha virt. eigenvalues --    0.67683   0.68123   0.68389   0.69049   0.70101
 Alpha virt. eigenvalues --    0.71211   0.72383   0.73527   0.73922   0.75535
 Alpha virt. eigenvalues --    0.75755   0.79415   0.80083   0.81298   0.81580
 Alpha virt. eigenvalues --    0.82748   0.82859   0.84086   0.85907   0.86015
 Alpha virt. eigenvalues --    0.87027   0.87824   0.88921   0.89545   0.89817
 Alpha virt. eigenvalues --    0.89959   0.90192   0.91270   0.93402   0.94139
 Alpha virt. eigenvalues --    0.94336   0.95890   0.96009   0.96189   0.97147
 Alpha virt. eigenvalues --    0.99410   1.00073   1.00516   1.01229   1.02853
 Alpha virt. eigenvalues --    1.03334   1.03839   1.04034   1.05376   1.05842
 Alpha virt. eigenvalues --    1.06487   1.07078   1.08056   1.08409   1.08672
 Alpha virt. eigenvalues --    1.09497   1.10000   1.10935   1.12662   1.13306
 Alpha virt. eigenvalues --    1.13782   1.14337   1.14618   1.16992   1.20257
 Alpha virt. eigenvalues --    1.22532   1.22802   1.26493   1.28746   1.30326
 Alpha virt. eigenvalues --    1.33552   1.34671   1.36538   1.37292   1.38912
 Alpha virt. eigenvalues --    1.40700   1.41578   1.43225   1.44274   1.44828
 Alpha virt. eigenvalues --    1.45320   1.46474   1.46862   1.47615   1.48552
 Alpha virt. eigenvalues --    1.52170   1.53096   1.54526   1.54668   1.55572
 Alpha virt. eigenvalues --    1.57830   1.58997   1.59011   1.60426   1.60462
 Alpha virt. eigenvalues --    1.61665   1.62724   1.64679   1.65095   1.67269
 Alpha virt. eigenvalues --    1.68394   1.69028   1.69403   1.70276   1.71230
 Alpha virt. eigenvalues --    1.71304   1.74959   1.75354   1.75953   1.77687
 Alpha virt. eigenvalues --    1.79341   1.80318   1.80810   1.80972   1.82448
 Alpha virt. eigenvalues --    1.83704   1.84387   1.85835   1.87166   1.88470
 Alpha virt. eigenvalues --    1.88814   1.89382   1.91459   1.92431   1.93778
 Alpha virt. eigenvalues --    1.95525   1.96796   1.98228   1.98360   1.99286
 Alpha virt. eigenvalues --    2.00129   2.00328   2.01051   2.04561   2.04755
 Alpha virt. eigenvalues --    2.06088   2.07496   2.10267   2.11180   2.15316
 Alpha virt. eigenvalues --    2.22590   2.23711   2.25780   2.29166   2.32020
 Alpha virt. eigenvalues --    2.33268   2.34959   2.35600   2.35843   2.37098
 Alpha virt. eigenvalues --    2.37531   2.38831   2.43015   2.46895   2.47397
 Alpha virt. eigenvalues --    2.48997   2.50329   2.59990   2.60077   2.60340
 Alpha virt. eigenvalues --    2.60557   2.61137   2.61447   2.62296   2.62342
 Alpha virt. eigenvalues --    2.69884   2.71074   2.75317   2.76728   2.81479
 Alpha virt. eigenvalues --    2.84543   2.86292   2.90088   3.08092   3.08388
 Alpha virt. eigenvalues --    3.08697   3.09052   3.09453   3.09932   3.10118
 Alpha virt. eigenvalues --    3.43219   3.49005   3.49617   3.49675   3.56464
 Alpha virt. eigenvalues --   21.40000
          Condensed to atoms (all electrons):
               1          2          3          4          5          6
     1  C    4.964435   0.495590  -0.001050  -0.054109  -0.056309   0.251956
     2  C    0.495590   4.798591   0.477215   0.010601  -0.061464  -0.080889
     3  C   -0.001050   0.477215   4.643642   0.480942  -0.015185   0.009828
     4  C   -0.054109   0.010601   0.480942   4.711667   0.531373   0.000973
     5  C   -0.056309  -0.061464  -0.015185   0.531373   4.619018   0.006533
     6  C    0.251956  -0.080889   0.009828   0.000973   0.006533   4.964064
     7  C   -0.080856  -0.006906   0.000397  -0.000080  -0.000035   0.495771
     8  C    0.009833   0.000399  -0.000047   0.000002   0.000002  -0.001014
     9  C    0.000967  -0.000080   0.000002  -0.000000  -0.000001  -0.054127
    10  C    0.006536  -0.000035   0.000002  -0.000001   0.000049  -0.056288
    11  H   -0.042396   0.410153  -0.042637   0.009257   0.000354  -0.022564
    12  H    0.009606  -0.038547   0.397959  -0.050485   0.009409  -0.000313
    13  H    0.000515   0.009258  -0.039280   0.403373  -0.043870   0.000030
    14  H    0.002491   0.001978   0.005550  -0.034048   0.384015  -0.000818
    15  H   -0.022628   0.003104   0.001352  -0.000047  -0.000010  -0.042219
    16  H   -0.000313   0.000026  -0.000001   0.000000  -0.000000   0.009607
    17  H    0.000030  -0.000001   0.000000  -0.000000   0.000000   0.000518
    18  H   -0.000818   0.000014   0.000000  -0.000000   0.000003   0.002482
    19  N   -0.017774   0.003949  -0.000135   0.000003  -0.000669   0.386759
    20  N    0.386703  -0.030837  -0.035172  -0.014927   0.481220  -0.017755
    21  Re  -0.062255  -0.000052   0.000685  -0.001141  -0.028343  -0.062270
    22  C   -0.001005   0.000040   0.000024  -0.000038  -0.002426  -0.000983
    23  C    0.000710  -0.000000  -0.000001   0.000001   0.000147  -0.000867
    24  C   -0.000866   0.000011   0.000002   0.000183  -0.002785   0.000710
    25  O    0.000034   0.000000  -0.000000   0.000001   0.000111   0.000033
    26  O   -0.000001  -0.000000   0.000000  -0.000000  -0.000000  -0.000004
    27  O   -0.000004   0.000000  -0.000000  -0.000002  -0.000797  -0.000001
    28  Cl   0.000288  -0.000425   0.000048  -0.000271   0.000113   0.000270
               7          8          9         10         11         12
     1  C   -0.080856   0.009833   0.000967   0.006536  -0.042396   0.009606
     2  C   -0.006906   0.000399  -0.000080  -0.000035   0.410153  -0.038547
     3  C    0.000397  -0.000047   0.000002   0.000002  -0.042637   0.397959
     4  C   -0.000080   0.000002  -0.000000  -0.000001   0.009257  -0.050485
     5  C   -0.000035   0.000002  -0.000001   0.000049   0.000354   0.009409
     6  C    0.495771  -0.001014  -0.054127  -0.056288  -0.022564  -0.000313
     7  C    4.798398   0.477050   0.010671  -0.061508   0.003087   0.000026
     8  C    0.477050   4.643685   0.481023  -0.015190   0.001350  -0.000001
     9  C    0.010671   0.481023   4.711575   0.531241  -0.000047   0.000000
    10  C   -0.061508  -0.015190   0.531241   4.619517  -0.000010  -0.000000
    11  H    0.003087   0.001350  -0.000047  -0.000010   0.687778  -0.014590
    12  H    0.000026  -0.000001   0.000000  -0.000000  -0.014590   0.681970
    13  H   -0.000001   0.000000  -0.000000   0.000000  -0.000207  -0.012772
    14  H    0.000014   0.000000  -0.000000   0.000003   0.000107  -0.000302
    15  H    0.410128  -0.042760   0.009255   0.000355  -0.007176   0.000079
    16  H   -0.038625   0.397964  -0.050415   0.009409   0.000078  -0.000000
    17  H    0.009254  -0.039185   0.403346  -0.043929  -0.000000  -0.000000
    18  H    0.001980   0.005549  -0.034085   0.383986  -0.000001   0.000000
    19  N   -0.030815  -0.035187  -0.014876   0.481066   0.000175   0.000001
    20  N    0.003954  -0.000135   0.000004  -0.000670   0.004130  -0.000226
    21  Re  -0.000049   0.000683  -0.001132  -0.028343  -0.000596   0.000362
    22  C    0.000042   0.000023  -0.000036  -0.002410  -0.000003   0.000000
    23  C    0.000011   0.000002   0.000184  -0.002847   0.000001  -0.000000
    24  C   -0.000000  -0.000001   0.000001   0.000148  -0.000001   0.000000
    25  O    0.000000  -0.000000   0.000001   0.000109   0.000000  -0.000000
    26  O    0.000000  -0.000000  -0.000002  -0.000819  -0.000000   0.000000
    27  O   -0.000000   0.000000  -0.000000  -0.000000   0.000000  -0.000000
    28  Cl  -0.000439   0.000050  -0.000282   0.000132  -0.000000  -0.000000
              13         14         15         16         17         18
     1  C    0.000515   0.002491  -0.022628  -0.000313   0.000030  -0.000818
     2  C    0.009258   0.001978   0.003104   0.000026  -0.000001   0.000014
     3  C   -0.039280   0.005550   0.001352  -0.000001   0.000000   0.000000
     4  C    0.403373  -0.034048  -0.000047   0.000000  -0.000000  -0.000000
     5  C   -0.043870   0.384015  -0.000010  -0.000000   0.000000   0.000003
     6  C    0.000030  -0.000818  -0.042219   0.009607   0.000518   0.002482
     7  C   -0.000001   0.000014   0.410128  -0.038625   0.009254   0.001980
     8  C    0.000000   0.000000  -0.042760   0.397964  -0.039185   0.005549
     9  C   -0.000000  -0.000000   0.009255  -0.050415   0.403346  -0.034085
    10  C    0.000000   0.000003   0.000355   0.009409  -0.043929   0.383986
    11  H   -0.000207   0.000107  -0.007176   0.000078  -0.000000  -0.000001
    12  H   -0.012772  -0.000302   0.000079  -0.000000  -0.000000   0.000000
    13  H    0.672014  -0.009275  -0.000000  -0.000000  -0.000000  -0.000000
    14  H   -0.009275   0.653321  -0.000001   0.000000  -0.000000   0.000000
    15  H   -0.000000  -0.000001   0.687803  -0.014577  -0.000208   0.000107
    16  H   -0.000000   0.000000  -0.014577   0.681970  -0.012770  -0.000302
    17  H   -0.000000  -0.000000  -0.000208  -0.012770   0.671988  -0.009268
    18  H   -0.000000   0.000000   0.000107  -0.000302  -0.009268   0.653337
    19  N    0.000001  -0.000038   0.004140  -0.000226   0.004416  -0.032842
    20  N    0.004417  -0.032855   0.000177   0.000001   0.000001  -0.000038
    21  Re  -0.000222  -0.017337  -0.000597   0.000363  -0.000224  -0.017436
    22  C   -0.000005  -0.001183  -0.000003   0.000000  -0.000005  -0.001176
    23  C    0.000000   0.000208  -0.000001   0.000000  -0.000029  -0.000829
    24  C   -0.000029  -0.000850   0.000001  -0.000000   0.000000   0.000210
    25  O    0.000000  -0.000027   0.000000  -0.000000   0.000000  -0.000027
    26  O   -0.000000  -0.000001   0.000000  -0.000000  -0.000001   0.003572
    27  O   -0.000001   0.003492  -0.000000   0.000000  -0.000000  -0.000001
    28  Cl  -0.000003  -0.000688  -0.000000  -0.000000  -0.000003  -0.000689
              19         20         21         22         23         24
     1  C   -0.017774   0.386703  -0.062255  -0.001005   0.000710  -0.000866
     2  C    0.003949  -0.030837  -0.000052   0.000040  -0.000000   0.000011
     3  C   -0.000135  -0.035172   0.000685   0.000024  -0.000001   0.000002
     4  C    0.000003  -0.014927  -0.001141  -0.000038   0.000001   0.000183
     5  C   -0.000669   0.481220  -0.028343  -0.002426   0.000147  -0.002785
     6  C    0.386759  -0.017755  -0.062270  -0.000983  -0.000867   0.000710
     7  C   -0.030815   0.003954  -0.000049   0.000042   0.000011  -0.000000
     8  C   -0.035187  -0.000135   0.000683   0.000023   0.000002  -0.000001
     9  C   -0.014876   0.000004  -0.001132  -0.000036   0.000184   0.000001
    10  C    0.481066  -0.000670  -0.028343  -0.002410  -0.002847   0.000148
    11  H    0.000175   0.004130  -0.000596  -0.000003   0.000001  -0.000001
    12  H    0.000001  -0.000226   0.000362   0.000000  -0.000000   0.000000
    13  H    0.000001   0.004417  -0.000222  -0.000005   0.000000  -0.000029
    14  H   -0.000038  -0.032855  -0.017337  -0.001183   0.000208  -0.000850
    15  H    0.004140   0.000177  -0.000597  -0.000003  -0.000001   0.000001
    16  H   -0.000226   0.000001   0.000363   0.000000   0.000000  -0.000000
    17  H    0.004416   0.000001  -0.000224  -0.000005  -0.000029   0.000000
    18  H   -0.032842  -0.000038  -0.017436  -0.001176  -0.000829   0.000210
    19  N    6.394434  -0.015692   0.199383   0.000698   0.005254  -0.004583
    20  N   -0.015692   6.394100   0.199443   0.000685  -0.004571   0.005244
    21  Re   0.199383   0.199443  13.783367   0.115163   0.055256   0.055052
    22  C    0.000698   0.000685   0.115163   5.394347  -0.041330  -0.041292
    23  C    0.005254  -0.004571   0.055256  -0.041330   5.474514  -0.056226
    24  C   -0.004583   0.005244   0.055052  -0.041292  -0.056226   5.474365
    25  O   -0.000037  -0.000038  -0.011224   0.698282  -0.000680  -0.000676
    26  O   -0.000049   0.000002  -0.007885  -0.001005   0.697735  -0.001138
    27  O    0.000002  -0.000048  -0.007860  -0.000996  -0.001143   0.697826
    28  Cl  -0.010434  -0.010359   0.248721  -0.004659   0.006449   0.006435
              25         26         27         28
     1  C    0.000034  -0.000001  -0.000004   0.000288
     2  C    0.000000  -0.000000   0.000000  -0.000425
     3  C   -0.000000   0.000000  -0.000000   0.000048
     4  C    0.000001  -0.000000  -0.000002  -0.000271
     5  C    0.000111  -0.000000  -0.000797   0.000113
     6  C    0.000033  -0.000004  -0.000001   0.000270
     7  C    0.000000   0.000000  -0.000000  -0.000439
     8  C   -0.000000  -0.000000   0.000000   0.000050
     9  C    0.000001  -0.000002  -0.000000  -0.000282
    10  C    0.000109  -0.000819  -0.000000   0.000132
    11  H    0.000000  -0.000000   0.000000  -0.000000
    12  H   -0.000000   0.000000  -0.000000  -0.000000
    13  H    0.000000  -0.000000  -0.000001  -0.000003
    14  H   -0.000027  -0.000001   0.003492  -0.000688
    15  H    0.000000   0.000000  -0.000000  -0.000000
    16  H   -0.000000  -0.000000   0.000000  -0.000000
    17  H    0.000000  -0.000001  -0.000000  -0.000003
    18  H   -0.000027   0.003572  -0.000001  -0.000689
    19  N   -0.000037  -0.000049   0.000002  -0.010434
    20  N   -0.000038   0.000002  -0.000048  -0.010359
    21  Re  -0.011224  -0.007885  -0.007860   0.248721
    22  C    0.698282  -0.001005  -0.000996  -0.004659
    23  C   -0.000680   0.697735  -0.001143   0.006449
    24  C   -0.000676  -0.001138   0.697826   0.006435
    25  O    7.428798   0.000032   0.000032   0.000007
    26  O    0.000032   7.416122   0.000033   0.000176
    27  O    0.000032   0.000033   7.415995   0.000175
    28  Cl   0.000007   0.000176   0.000175  17.247809
 Mulliken charges:
               1
     1  C    0.210689
     2  C    0.008304
     3  C    0.115858
     4  C    0.006772
     5  C    0.179546
     6  C    0.210579
     7  C    0.008530
     8  C    0.115905
     9  C    0.006813
    10  C    0.179496
    11  H    0.013760
    12  H    0.017824
    13  H    0.016057
    14  H    0.046243
    15  H    0.013725
    16  H    0.017808
    17  H    0.016070
    18  H    0.046273
    19  N   -0.316927
    20  N   -0.316760
    21  Re   0.588492
    22  C   -0.110748
    23  C   -0.131947
    24  C   -0.131741
    25  O   -0.114730
    26  O   -0.106768
    27  O   -0.106701
    28  Cl  -0.482422
 Sum of Mulliken charges =  -0.00000
 Mulliken charges with hydrogens summed into heavy atoms:
               1
     1  C    0.210689
     2  C    0.022063
     3  C    0.133682
     4  C    0.022829
     5  C    0.225789
     6  C    0.210579
     7  C    0.022255
     8  C    0.133713
     9  C    0.022884
    10  C    0.225769
    19  N   -0.316927
    20  N   -0.316760
    21  Re   0.588492
    22  C   -0.110748
    23  C   -0.131947
    24  C   -0.131741
    25  O   -0.114730
    26  O   -0.106768
    27  O   -0.106701
    28  Cl  -0.482422
 Electronic spatial extent (au):  <R**2>=          15607.2709
 Charge=              0.0000 electrons
 Dipole moment (field-independent basis, Debye):
    X=             11.5715    Y=             -6.9767    Z=              4.3434  Tot=             14.1929
 Quadrupole moment (field-independent basis, Debye-Ang):
   XX=           -214.8234   YY=           -116.7821   ZZ=           -162.1002
   XY=             44.6626   XZ=            -22.2802   YZ=              5.1481
 Traceless Quadrupole moment (field-independent basis, Debye-Ang):
   XX=            -50.2548   YY=             47.7865   ZZ=              2.4683
   XY=             44.6626   XZ=            -22.2802   YZ=              5.1481
 Octapole moment (field-independent basis, Debye-Ang**2):
  XXX=           2266.5728  YYY=           -327.7319  ZZZ=             -5.8050  XYY=            559.8168
  XXY=           -328.4824  XXZ=            106.1461  XZZ=            698.6621  YZZ=           -105.8043
  YYZ=              2.3414  XYZ=            -21.2203
 Hexadecapole moment (field-independent basis, Debye-Ang**3):
 XXXX=         -21762.6634 YYYY=          -3094.7260 ZZZZ=          -1295.5866 XXXY=           2582.9591
 XXXZ=           -453.0687 YYYX=           1701.7193 YYYZ=            -17.7045 ZZZX=             76.8377
 ZZZY=            -39.3755 XXYY=          -3605.2588 XXZZ=          -3784.8958 YYZZ=           -791.1778
 XXYZ=             79.3643 YYXZ=              0.6089 ZZXY=            504.1948
 N-N= 1.754393444417D+03 E-N=-6.710835874806D+03  KE= 1.314131034492D+03

 Atomic contributions to Alpha molecular orbitals:
 Alpha occ 59 OE=-0.439 is O27-p=0.1922 O26-p=0.1895
 Alpha occ 60 OE=-0.436 is O25-p=0.1241 O26-p=0.1232 O27-p=0.1209
 Alpha occ 61 OE=-0.432 is O25-p=0.2593 O27-p=0.2058 O26-p=0.2051 C22-p=0.1097
 Alpha occ 62 OE=-0.428 is O25-p=0.2743 C22-p=0.1058
 Alpha occ 63 OE=-0.426 is O26-p=0.1279 O27-p=0.1274
 Alpha occ 64 OE=-0.423 is N20-p=0.1297 N19-p=0.1292
 Alpha occ 65 OE=-0.400 is C4-p=0.0995
 Alpha occ 66 OE=-0.394 is C8-p=0.0790
 Alpha occ 67 OE=-0.351 is N19-p=0.1486 N20-p=0.1481
 Alpha occ 68 OE=-0.337 is N20-p=0.1778 N19-p=0.1766
 Alpha occ 69 OE=-0.334 is C3-p=0.1675 C8-p=0.1667 C4-p=0.1177 C9-p=0.1174
 Alpha occ 70 OE=-0.323 is C8-p=0.1652 C3-p=0.1649 N19-p=0.1247 N20-p=0.1202
 Alpha occ 71 OE=-0.323 is C5-p=0.1450 C10-p=0.1420 C6-p=0.1280 C1-p=0.1274
 Alpha occ 72 OE=-0.297 is Cl28-p=0.7410
 Alpha occ 73 OE=-0.276 is Cl28-p=0.6261 Re21-d=0.1627
 Alpha occ 74 OE=-0.275 is Cl28-p=0.6358 Re21-d=0.1719
 Alpha occ 75 OE=-0.269 is C9-p=0.1422 C4-p=0.1421 C2-p=0.1169 C7-p=0.1165
 Alpha occ 76 OE=-0.249 is Re21-d=0.6374 O26-p=0.1035 O27-p=0.1035
 Alpha occ 77 OE=-0.234 is Re21-d=0.4396 Cl28-p=0.2908
 Alpha occ 78 OE=-0.231 is Re21-d=0.4637 Cl28-p=0.2606
 Alpha vir 79 OE=-0.094 is C1-p=0.1185 C6-p=0.1184 C4-p=0.1076 C9-p=0.1076 N19-p=0.1062 N20-p=0.1062
 Alpha vir 80 OE=-0.060 is C2-p=0.1634 C7-p=0.1631 C5-p=0.1561 C10-p=0.1558
 Alpha vir 81 OE=-0.052 is C8-p=0.1376 C3-p=0.1374 C10-p=0.1292 C5-p=0.1289
 Alpha vir 82 OE=-0.039 is Re21-p=0.1902 C24-p=0.1605 C23-p=0.1604 Re21-d=0.1145
 Alpha vir 83 OE=-0.031 is Re21-p=0.1874 C22-p=0.1672 C24-p=0.1204 C23-p=0.1201 Re21-d=0.1032
 Alpha vir 84 OE=-0.004 is C9-p=0.1544 C4-p=0.1542 C6-p=0.1400 C1-p=0.1399
 Alpha vir 85 OE=0.004 is C22-p=0.2302 C24-p=0.2158 C23-p=0.2156
 Alpha vir 86 OE=0.012 is Re21-p=0.2845 Re21-d=0.2157 C22-p=0.1409 C23-p=0.1064 C24-p=0.1052
 Alpha vir 87 OE=0.024 is Re21-p=0.3996 C23-p=0.1283 C24-p=0.1277 Re21-d=0.1226
 Alpha vir 88 OE=0.025 is Re21-p=0.2191 C22-p=0.2073 Re21-d=0.1692
 Alpha vir 89 OE=0.037 is Re21-p=0.5131 Re21-d=0.1187
 Alpha vir 90 OE=0.039 is Re21-p=0.2322 C22-p=0.2014 Re21-d=0.1883
 Alpha vir 91 OE=0.046 is Re21-p=0.6570
 Alpha vir 92 OE=0.054 is H11-s=0.2092 H15-s=0.2087 H12-s=0.1239 H16-s=0.1238
 Alpha vir 93 OE=0.070 is Re21-d=0.3235 Re21-p=0.3043 C22-s=0.1182
 Alpha vir 94 OE=0.072 is Re21-p=0.3383 Re21-d=0.3301
 Alpha vir 95 OE=0.079 is H16-s=0.3139 H12-s=0.3134 H17-s=0.1418 H13-s=0.1409
 Alpha vir 96 OE=0.086 is H15-s=0.1717 H11-s=0.1714 H14-s=0.1643 H18-s=0.1640 H13-s=0.1463 H17-s=0.1454
 Alpha vir 97 OE=0.095 is C4-p=0.1122 C9-p=0.1122
 Alpha vir 98 OE=0.108 is Re21-s=0.2457 H16-s=0.1760 H12-s=0.1749 H18-s=0.1056 H14-s=0.1055
 
 No NMR shielding tensors so no spin-rotation constants.
 Leave Link  601 at Tue Mar 24 18:21:32 2026, MaxMem=  2684354560 cpu:               4.7 elap:               0.2
 (Enter /home/programes/qq/gaussian/g16.A03/g16/l9999.exe)
 1\1\GINC-MAGINET231\SP\RB3LYP\Gen\C13H8Cl1N2O3Re1\SOLE\24-Mar-2026\0\\
 #p b3lyp/gen EmpiricalDispersion=GD3BJ pseudo=read scrf=(solvent=n,n-D
 iMethylFormamide,pcm,read) nosymm pop=(Orbitals=20) geom=checkpoint gu
 ess=read\\Title Card Required\\0,1\C,0,-2.2880266509,0.2988652842,0.03
 11475714\C,0,-0.8924967331,0.3393964159,-0.0631217962\C,0,-0.235612131
 2,1.5672969524,-0.0421086541\C,0,-0.9874220774,2.7357501852,0.07646257
 76\C,0,-2.371562948,2.6275987672,0.1654333467\C,0,-3.0539644551,-0.969
 7512511,0.0265230483\C,0,-2.439795453,-2.2225567073,-0.078289034\C,0,-
 3.2199410535,-3.3762027767,-0.0659977548\C,0,-4.6039749221,-3.25641894
 75,0.0551692196\C,0,-5.1531498563,-1.9820942702,0.1547353178\H,0,-0.31
 71354464,-0.5792141707,-0.1527305196\H,0,0.8516207263,1.6072938805,-0.
 1160557831\H,0,-0.5186464222,3.7189782436,0.0994615959\H,0,-3.00113182
 28,3.5118097425,0.2573895377\H,0,-1.359121573,-2.3020972057,-0.1695088
 857\H,0,-2.7487260257,-4.35615048,-0.1486646735\H,0,-5.2552692791,-4.1
 296382501,0.0719772943\H,0,-6.2287935947,-1.8377918561,0.2490688572\N,
 0,-4.4036237695,-0.865277818,0.1383537565\N,0,-3.0101881008,1.44404315
 17,0.1416537733\Re,0,-5.2988952352,1.248895156,0.1911892607\C,0,-5.352
 8335234,1.2810997004,2.0923045513\C,0,-7.1521006114,0.7988986006,0.118
 4802738\C,0,-5.7688714708,3.0973576167,0.1181086182\O,0,-5.3774445578,
 1.2959013272,3.2554192347\O,0,-8.2697872937,0.4868504537,0.0658669455\
 O,0,-6.0169925226,4.2308828804,0.0645410065\Cl,0,-5.0191131966,1.08128
 53751,-2.3938386862\\Version=ES64L-G16RevA.03\HF=-1375.0680542\RMSD=4.
 021e-09\Dipole=4.5525642,-2.7448299,1.7088376\Quadrupole=-37.3632174,3
 5.528062,1.8351555,33.2055668,-16.5647569,3.8274712\PG=C01 [X(C13H8Cl1
 N2O3Re1)]\\@


 The lyf so short, the craft so long to lerne.
                             -- Chaucer
 Job cpu time:       0 days  0 hours  2 minutes 42.3 seconds.
 Elapsed time:       0 days  0 hours  0 minutes  6.5 seconds.
 File lengths (MBytes):  RWF=    177 Int=      0 D2E=      0 Chk=     21 Scr=      1
 Normal termination of Gaussian 16 at Tue Mar 24 18:21:32 2026.
