 Set GAUSS_PDEF to "32".
 Set GAUSS_WDEF to "maginet229".
 Entering Gaussian System, Link 0=g16
 Initial command:
 /home/programes/qq/gaussian/g16.A03/g16/l1.exe "/scratch/108207/Gau-3974.inp" -scrdir="/scratch/108207/"
 Default linda workers: maginet229
 Default is to use  32 SMP processors on each worker.
 Entering Link 1 = /home/programes/qq/gaussian/g16.A03/g16/l1.exe PID=      3979.
  
 Copyright (c) 1988,1990,1992,1993,1995,1998,2003,2009,2016,
            Gaussian, Inc.  All Rights Reserved.
  
 This is part of the Gaussian(R) 16 program.  It is based on
 the Gaussian(R) 09 system (copyright 2009, Gaussian, Inc.),
 the Gaussian(R) 03 system (copyright 2003, Gaussian, Inc.),
 the Gaussian(R) 98 system (copyright 1998, Gaussian, Inc.),
 the Gaussian(R) 94 system (copyright 1995, Gaussian, Inc.),
 the Gaussian 92(TM) system (copyright 1992, Gaussian, Inc.),
 the Gaussian 90(TM) system (copyright 1990, Gaussian, Inc.),
 the Gaussian 88(TM) system (copyright 1988, Gaussian, Inc.),
 the Gaussian 86(TM) system (copyright 1986, Carnegie Mellon
 University), and the Gaussian 82(TM) system (copyright 1983,
 Carnegie Mellon University). Gaussian is a federally registered
 trademark of Gaussian, Inc.
  
 This software contains proprietary and confidential information,
 including trade secrets, belonging to Gaussian, Inc.
  
 This software is provided under written license and may be
 used, copied, transmitted, or stored only in accord with that
 written license.
  
 The following legend is applicable only to US Government
 contracts under FAR:
  
                    RESTRICTED RIGHTS LEGEND
  
 Use, reproduction and disclosure by the US Government is
 subject to restrictions as set forth in subparagraphs (a)
 and (c) of the Commercial Computer Software - Restricted
 Rights clause in FAR 52.227-19.
  
 Gaussian, Inc.
 340 Quinnipiac St., Bldg. 40, Wallingford CT 06492
  
  
 ---------------------------------------------------------------
 Warning -- This program may not be used in any manner that
 competes with the business of Gaussian, Inc. or will provide
 assistance to any competitor of Gaussian, Inc.  The licensee
 of this program is prohibited from giving any competitor of
 Gaussian, Inc. access to this program.  By using this program,
 the user acknowledges that Gaussian, Inc. is engaged in the
 business of creating and licensing software in the field of
 computational chemistry and represents and warrants to the
 licensee that it is not a competitor of Gaussian, Inc. and that
 it will not use this program in any manner prohibited above.
 ---------------------------------------------------------------
  

 Cite this work as:
 Gaussian 16, Revision A.03,
 M. J. Frisch, G. W. Trucks, H. B. Schlegel, G. E. Scuseria, 
 M. A. Robb, J. R. Cheeseman, G. Scalmani, V. Barone, 
 G. A. Petersson, H. Nakatsuji, X. Li, M. Caricato, A. V. Marenich, 
 J. Bloino, B. G. Janesko, R. Gomperts, B. Mennucci, H. P. Hratchian, 
 J. V. Ortiz, A. F. Izmaylov, J. L. Sonnenberg, D. Williams-Young, 
 F. Ding, F. Lipparini, F. Egidi, J. Goings, B. Peng, A. Petrone, 
 T. Henderson, D. Ranasinghe, V. G. Zakrzewski, J. Gao, N. Rega, 
 G. Zheng, W. Liang, M. Hada, M. Ehara, K. Toyota, R. Fukuda, 
 J. Hasegawa, M. Ishida, T. Nakajima, Y. Honda, O. Kitao, H. Nakai, 
 T. Vreven, K. Throssell, J. A. Montgomery, Jr., J. E. Peralta, 
 F. Ogliaro, M. J. Bearpark, J. J. Heyd, E. N. Brothers, K. N. Kudin, 
 V. N. Staroverov, T. A. Keith, R. Kobayashi, J. Normand, 
 K. Raghavachari, A. P. Rendell, J. C. Burant, S. S. Iyengar, 
 J. Tomasi, M. Cossi, J. M. Millam, M. Klene, C. Adamo, R. Cammi, 
 J. W. Ochterski, R. L. Martin, K. Morokuma, O. Farkas, 
 J. B. Foresman, and D. J. Fox, Gaussian, Inc., Wallingford CT, 2016.
 
 ******************************************
 Gaussian 16:  ES64L-G16RevA.03 25-Dec-2016
                24-Mar-2026 
 ******************************************
 %mem=20GB
 %chk=re-bpy-co3-cl-1e_eq.chk
 SetLPE:    new flags="-opt 'Tsnet.Node.lindarsharg: ssh'  -nodelist 'maginet229' -env GAUSS_MDEF=2684354560 -env GAUSS_EXEDIR="/home/programes/qq/gaussian/g16.A03/g16/bsd:/home/programes/qq/gaussian/g16.A03/g16""
 Will use up to    1 processors via Linda.
 ----------------------------------------------------------------------
 #p b3lyp/gen EmpiricalDispersion=GD3BJ pseudo=read scrf=(solvent=n,n-D
 iMethylFormamide,pcm,read) nosymm pop=(Orbitals=20) geom=checkpoint gu
 ess=read
 ----------------------------------------------------------------------
 1/29=2,38=1,40=2,172=1/1;
 2/12=2,15=1,40=1/2;
 3/5=7,11=2,14=-4,16=1,17=8,25=1,30=1,70=2203,72=148,74=-5,116=-2,124=41/1,2,3;
 4/5=1/1;
 5/5=2,38=6,53=148/2;
 6/7=2,8=2,9=2,10=2,28=1,96=20/1;
 99/5=1,9=1/99;
 Leave Link    1 at Tue Mar 24 18:21:26 2026, MaxMem=  2684354560 cpu:               1.9 elap:               0.1
 (Enter /home/programes/qq/gaussian/g16.A03/g16/l101.exe)
 -------------------
 Title Card Required
 -------------------
 Structure from the checkpoint file:  "re-bpy-co3-cl-1e_eq.chk"
 Charge = -1 Multiplicity = 2
 Redundant internal coordinates found in file.  (old form).
 C,0,-2.3019429894,0.2767422714,0.0311456761
 C,0,-0.8841385197,0.3563913625,-0.0587353974
 C,0,-0.2449661486,1.5749019965,-0.0350603258
 C,0,-1.0194881994,2.7608767505,0.0843827832
 C,0,-2.3919654674,2.6370888112,0.1682837387
 C,0,-3.0402627347,-0.9464644159,0.0274555576
 C,0,-2.4505356238,-2.237100024,-0.0776735288
 C,0,-3.2308465113,-3.3706322784,-0.0664350917
 C,0,-4.6408307153,-3.239313288,0.0570331927
 C,0,-5.1702138296,-1.9682471536,0.1571383273
 H,0,-0.3018028089,-0.5603845933,-0.1460439671
 H,0,0.8430796732,1.6268761099,-0.1047753861
 H,0,-0.5583458281,3.7478288906,0.1091608084
 H,0,-3.0255421154,3.52051744,0.2609333488
 H,0,-1.3684249741,-2.3239017357,-0.1698125447
 H,0,-2.7702397191,-4.3566458197,-0.1501693855
 H,0,-5.2995052495,-4.1072188279,0.0717733187
 H,0,-6.2469404842,-1.8203380191,0.2531415487
 N,0,-4.4261722096,-0.8353867527,0.1412164442
 N,0,-3.0474803592,1.4509478378,0.1405814185
 Re,0,-5.242016177,1.2139359864,0.2301035949
 C,0,-5.3220984926,1.2701318163,2.1102910587
 C,0,-7.0984755337,0.7469218498,0.1325968806
 C,0,-5.696069131,3.0734782425,0.1256631349
 O,0,-5.3620287547,1.2982300009,3.2777583968
 O,0,-8.2168547838,0.425824472,0.0659456823
 O,0,-5.9334724561,4.2123734282,0.0555405535
 Cl,0,-5.045419857,1.0675756419,-2.5484698375
 Recover connectivity data from disk.
 ITRead=  0  0  0  0  0  0  0  0  0  0  0  0  0  0  0  0  0  0  0  0
 ITRead=  0  0  0  0  0  0  0  0
 MicOpt= -1 -1 -1 -1 -1 -1 -1 -1 -1 -1 -1 -1 -1 -1 -1 -1 -1 -1 -1 -1
 MicOpt= -1 -1 -1 -1 -1 -1 -1 -1
                           ----------------------------
                           !    Current Parameters    !
                           ! (Angstroms and Degrees)  !
 --------------------------                            --------------------------
 ! Name  Definition              Value                                          !
 --------------------------------------------------------------------------------
 ! R1    R(1,2)                  1.4229                                         !
 ! R2    R(1,6)                  1.4288                                         !
 ! R3    R(1,20)                 1.3952                                         !
 ! R4    R(2,3)                  1.3762                                         !
 ! R5    R(2,11)                 1.0896                                         !
 ! R6    R(3,4)                  1.4215                                         !
 ! R7    R(3,12)                 1.0915                                         !
 ! R8    R(4,5)                  1.3806                                         !
 ! R9    R(4,13)                 1.0897                                         !
 ! R10   R(5,14)                 1.0911                                         !
 ! R11   R(5,20)                 1.3555                                         !
 ! R12   R(6,7)                  1.4229                                         !
 ! R13   R(6,19)                 1.395                                          !
 ! R14   R(7,8)                  1.3762                                         !
 ! R15   R(7,15)                 1.0895                                         !
 ! R16   R(8,9)                  1.4215                                         !
 ! R17   R(8,16)                 1.0915                                         !
 ! R18   R(9,10)                 1.3805                                         !
 ! R19   R(9,17)                 1.0896                                         !
 ! R20   R(10,18)                1.0911                                         !
 ! R21   R(10,19)                1.3554                                         !
 ! R22   R(19,21)                2.2075                                         !
 ! R23   R(20,21)                2.2091                                         !
 ! R24   R(21,22)                1.8827                                         !
 ! R25   R(21,23)                1.9168                                         !
 ! R26   R(21,24)                1.917                                          !
 ! R27   R(21,28)                2.7894                                         !
 ! R28   R(22,25)                1.1685                                         !
 ! R29   R(23,26)                1.1655                                         !
 ! R30   R(24,27)                1.1655                                         !
 ! A1    A(2,1,6)              124.2407                                         !
 ! A2    A(2,1,20)             119.3602                                         !
 ! A3    A(6,1,20)             116.3974                                         !
 ! A4    A(1,2,3)              120.7487                                         !
 ! A5    A(1,2,11)             119.3739                                         !
 ! A6    A(3,2,11)             119.8773                                         !
 ! A7    A(2,3,4)              119.1504                                         !
 ! A8    A(2,3,12)             120.2677                                         !
 ! A9    A(4,3,12)             120.5818                                         !
 ! A10   A(3,4,5)              118.1612                                         !
 ! A11   A(3,4,13)             121.8029                                         !
 ! A12   A(5,4,13)             120.0358                                         !
 ! A13   A(4,5,14)             120.6528                                         !
 ! A14   A(4,5,20)             123.9153                                         !
 ! A15   A(14,5,20)            115.4317                                         !
 ! A16   A(1,6,7)              124.2343                                         !
 ! A17   A(1,6,19)             116.4238                                         !
 ! A18   A(7,6,19)             119.3414                                         !
 ! A19   A(6,7,8)              120.7649                                         !
 ! A20   A(6,7,15)             119.3518                                         !
 ! A21   A(8,7,15)             119.8832                                         !
 ! A22   A(7,8,9)              119.1466                                         !
 ! A23   A(7,8,16)             120.276                                          !
 ! A24   A(9,8,16)             120.5774                                         !
 ! A25   A(8,9,10)             118.1462                                         !
 ! A26   A(8,9,17)             121.8162                                         !
 ! A27   A(10,9,17)            120.0374                                         !
 ! A28   A(9,10,18)            120.6382                                         !
 ! A29   A(9,10,19)            123.9292                                         !
 ! A30   A(18,10,19)           115.4323                                         !
 ! A31   A(6,19,10)            118.6697                                         !
 ! A32   A(6,19,21)            116.3828                                         !
 ! A33   A(10,19,21)           124.9278                                         !
 ! A34   A(1,20,5)             118.662                                          !
 ! A35   A(1,20,21)            116.3415                                         !
 ! A36   A(5,20,21)            124.9917                                         !
 ! A37   A(19,21,20)            74.3853                                         !
 ! A38   A(19,21,22)            94.7978                                         !
 ! A39   A(19,21,23)            97.4528                                         !
 ! A40   A(19,21,28)            83.404                                          !
 ! A41   A(20,21,22)            94.5611                                         !
 ! A42   A(20,21,24)            97.4125                                         !
 ! A43   A(20,21,28)            83.987                                          !
 ! A44   A(22,21,23)            90.967                                          !
 ! A45   A(22,21,24)            90.8812                                         !
 ! A46   A(23,21,24)            90.2389                                         !
 ! A47   A(23,21,28)            90.2753                                         !
 ! A48   A(24,21,28)            90.7633                                         !
 ! A49   L(19,21,24,20,-1)     171.7978                                         !
 ! A50   L(20,21,23,19,-1)     171.8382                                         !
 ! A51   L(22,21,28,19,-1)     178.2018                                         !
 ! A52   L(21,22,25,13,-1)     179.7363                                         !
 ! A53   L(21,23,26,9,-1)      178.093                                          !
 ! A54   L(21,24,27,4,-1)      178.0484                                         !
 ! A55   L(19,21,24,20,-2)     174.797                                          !
 ! A56   L(20,21,23,19,-2)     185.0134                                         !
 ! A57   L(22,21,28,19,-2)     181.0208                                         !
 ! A58   L(21,22,25,13,-2)     180.5604                                         !
 ! A59   L(21,23,26,9,-2)      180.3129                                         !
 ! A60   L(21,24,27,4,-2)      179.7129                                         !
 ! D1    D(6,1,2,3)           -179.3402                                         !
 ! D2    D(6,1,2,11)             0.5907                                         !
 ! D3    D(20,1,2,3)             0.1803                                         !
 ! D4    D(20,1,2,11)         -179.8888                                         !
 ! D5    D(2,1,6,7)             -0.5428                                         !
 ! D6    D(2,1,6,19)           179.1848                                         !
 ! D7    D(20,1,6,7)           179.9238                                         !
 ! D8    D(20,1,6,19)           -0.3486                                         !
 ! D9    D(2,1,20,5)            -0.504                                          !
 ! D10   D(2,1,20,21)          178.7371                                         !
 ! D11   D(6,1,20,5)           179.0534                                         !
 ! D12   D(6,1,20,21)           -1.7055                                         !
 ! D13   D(1,2,3,4)              0.1657                                         !
 ! D14   D(1,2,3,12)          -179.9853                                         !
 ! D15   D(11,2,3,4)          -179.7649                                         !
 ! D16   D(11,2,3,12)            0.0841                                         !
 ! D17   D(2,3,4,5)             -0.185                                          !
 ! D18   D(2,3,4,13)           179.8954                                         !
 ! D19   D(12,3,4,5)           179.9665                                         !
 ! D20   D(12,3,4,13)            0.0469                                         !
 ! D21   D(3,4,5,14)          -179.9952                                         !
 ! D22   D(3,4,5,20)            -0.156                                          !
 ! D23   D(13,4,5,14)           -0.0741                                         !
 ! D24   D(13,4,5,20)          179.7651                                         !
 ! D25   D(4,5,20,1)             0.5032                                         !
 ! D26   D(4,5,20,21)         -178.6666                                         !
 ! D27   D(14,5,20,1)         -179.6499                                         !
 ! D28   D(14,5,20,21)           1.1802                                         !
 ! D29   D(1,6,7,8)            179.6356                                         !
 ! D30   D(1,6,7,15)            -0.4788                                         !
 ! D31   D(19,6,7,8)            -0.0845                                         !
 ! D32   D(19,6,7,15)          179.801                                          !
 ! D33   D(1,6,19,10)         -179.2979                                         !
 ! D34   D(1,6,19,21)            2.2377                                         !
 ! D35   D(7,6,19,10)            0.4438                                         !
 ! D36   D(7,6,19,21)         -178.0206                                         !
 ! D37   D(6,7,8,9)             -0.2332                                         !
 ! D38   D(6,7,8,16)           179.8417                                         !
 ! D39   D(15,7,8,9)           179.8819                                         !
 ! D40   D(15,7,8,16)           -0.0432                                         !
 ! D41   D(7,8,9,10)             0.1911                                         !
 ! D42   D(7,8,9,17)          -179.9357                                         !
 ! D43   D(16,8,9,10)         -179.8841                                         !
 ! D44   D(16,8,9,17)           -0.0108                                         !
 ! D45   D(8,9,10,18)          179.977                                          !
 ! D46   D(8,9,10,19)            0.1854                                         !
 ! D47   D(17,9,10,18)           0.1015                                         !
 ! D48   D(17,9,10,19)        -179.6902                                         !
 ! D49   D(9,10,19,6)           -0.5048                                         !
 ! D50   D(9,10,19,21)         177.8173                                         !
 ! D51   D(18,10,19,6)         179.6937                                         !
 ! D52   D(18,10,19,21)         -1.9843                                         !
 ! D53   D(6,19,21,20)          -2.3103                                         !
 ! D54   D(6,19,21,22)         -95.7157                                         !
 ! D55   D(6,19,21,23)         172.6763                                         !
 ! D56   D(6,19,21,28)          83.2635                                         !
 ! D57   D(10,19,21,20)        179.3331                                         !
 ! D58   D(10,19,21,22)         85.9277                                         !
 ! D59   D(10,19,21,23)         -5.6803                                         !
 ! D60   D(10,19,21,28)        -95.0931                                         !
 ! D61   D(1,20,21,19)           2.1231                                         !
 ! D62   D(1,20,21,22)          95.84                                           !
 ! D63   D(1,20,21,24)        -172.6738                                         !
 ! D64   D(1,20,21,28)         -82.685                                          !
 ! D65   D(5,20,21,19)        -178.6897                                         !
 ! D66   D(5,20,21,22)         -84.9729                                         !
 ! D67   D(5,20,21,24)           6.5134                                         !
 ! D68   D(5,20,21,28)          96.5022                                         !
 --------------------------------------------------------------------------------
 NAtoms=     28 NQM=       28 NQMF=       0 NMMI=      0 NMMIF=      0
                NMic=       0 NMicF=      0.
                    Isotopes and Nuclear Properties:
 (Nuclear quadrupole moments (NQMom) in fm**2, nuclear magnetic moments (NMagM)
  in nuclear magnetons)

  Atom         1           2           3           4           5           6           7           8           9          10
 IAtWgt=          12          12          12          12          12          12          12          12          12          12
 AtmWgt=  12.0000000  12.0000000  12.0000000  12.0000000  12.0000000  12.0000000  12.0000000  12.0000000  12.0000000  12.0000000
 NucSpn=           0           0           0           0           0           0           0           0           0           0
 AtZEff=   3.6000000   3.6000000   3.6000000   3.6000000   3.6000000   3.6000000   3.6000000   3.6000000   3.6000000   3.6000000
 NQMom=    0.0000000   0.0000000   0.0000000   0.0000000   0.0000000   0.0000000   0.0000000   0.0000000   0.0000000   0.0000000
 NMagM=    0.0000000   0.0000000   0.0000000   0.0000000   0.0000000   0.0000000   0.0000000   0.0000000   0.0000000   0.0000000
 AtZNuc=   6.0000000   6.0000000   6.0000000   6.0000000   6.0000000   6.0000000   6.0000000   6.0000000   6.0000000   6.0000000

  Atom        11          12          13          14          15          16          17          18          19          20
 IAtWgt=           1           1           1           1           1           1           1           1          14          14
 AtmWgt=   1.0078250   1.0078250   1.0078250   1.0078250   1.0078250   1.0078250   1.0078250   1.0078250  14.0030740  14.0030740
 NucSpn=           1           1           1           1           1           1           1           1           2           2
 AtZEff=   1.0000000   1.0000000   1.0000000   1.0000000   1.0000000   1.0000000   1.0000000   1.0000000   4.5500000   4.5500000
 NQMom=    0.0000000   0.0000000   0.0000000   0.0000000   0.0000000   0.0000000   0.0000000   0.0000000   2.0440000   2.0440000
 NMagM=    2.7928460   2.7928460   2.7928460   2.7928460   2.7928460   2.7928460   2.7928460   2.7928460   0.4037610   0.4037610
 AtZNuc=   1.0000000   1.0000000   1.0000000   1.0000000   1.0000000   1.0000000   1.0000000   1.0000000   7.0000000   7.0000000

  Atom        21          22          23          24          25          26          27          28
 IAtWgt=         187          12          12          12          16          16          16          35
 AtmWgt= 186.9560000  12.0000000  12.0000000  12.0000000  15.9949146  15.9949146  15.9949146  34.9688527
 NucSpn=           5           0           0           0           0           0           0           3
 AtZEff=1099.5000000   3.6000000   3.6000000   3.6000000   5.6000000   5.6000000   5.6000000  14.2400000
 NQMom=  207.0000000   0.0000000   0.0000000   0.0000000   0.0000000   0.0000000   0.0000000  -8.1650000
 NMagM=    3.2197000   0.0000000   0.0000000   0.0000000   0.0000000   0.0000000   0.0000000   0.8218740
 AtZNuc=  75.0000000   6.0000000   6.0000000   6.0000000   8.0000000   8.0000000   8.0000000  17.0000000
 Leave Link  101 at Tue Mar 24 18:21:26 2026, MaxMem=  2684354560 cpu:               6.5 elap:               0.2
 (Enter /home/programes/qq/gaussian/g16.A03/g16/l202.exe)
                          Input orientation:                          
 ---------------------------------------------------------------------
 Center     Atomic      Atomic             Coordinates (Angstroms)
 Number     Number       Type             X           Y           Z
 ---------------------------------------------------------------------
      1          6           0       -2.301943    0.276742    0.031146
      2          6           0       -0.884139    0.356391   -0.058735
      3          6           0       -0.244966    1.574902   -0.035060
      4          6           0       -1.019488    2.760877    0.084383
      5          6           0       -2.391965    2.637089    0.168284
      6          6           0       -3.040263   -0.946464    0.027456
      7          6           0       -2.450536   -2.237100   -0.077674
      8          6           0       -3.230847   -3.370632   -0.066435
      9          6           0       -4.640831   -3.239313    0.057033
     10          6           0       -5.170214   -1.968247    0.157138
     11          1           0       -0.301803   -0.560385   -0.146044
     12          1           0        0.843080    1.626876   -0.104775
     13          1           0       -0.558346    3.747829    0.109161
     14          1           0       -3.025542    3.520517    0.260933
     15          1           0       -1.368425   -2.323902   -0.169813
     16          1           0       -2.770240   -4.356646   -0.150169
     17          1           0       -5.299505   -4.107219    0.071773
     18          1           0       -6.246940   -1.820338    0.253142
     19          7           0       -4.426172   -0.835387    0.141216
     20          7           0       -3.047480    1.450948    0.140581
     21         75           0       -5.242016    1.213936    0.230104
     22          6           0       -5.322098    1.270132    2.110291
     23          6           0       -7.098476    0.746922    0.132597
     24          6           0       -5.696069    3.073478    0.125663
     25          8           0       -5.362029    1.298230    3.277758
     26          8           0       -8.216855    0.425824    0.065946
     27          8           0       -5.933472    4.212373    0.055541
     28         17           0       -5.045420    1.067576   -2.548470
 ---------------------------------------------------------------------
                    Distance matrix (angstroms):
                    1          2          3          4          5
     1  C    0.000000
     2  C    1.422882   0.000000
     3  C    2.433260   1.376179   0.000000
     4  C    2.796149   2.412541   1.421509   0.000000
     5  C    2.366040   2.743476   2.403996   1.380600   0.000000
     6  C    1.428763   2.520661   3.764954   4.222695   3.644444
     7  C    2.520580   3.029877   4.404283   5.201339   4.880742
     8  C    3.765066   4.404294   5.777091   6.519835   6.070546
     9  C    4.222998   5.201464   6.519875   7.008363   6.293002
    10  C    3.644562   4.880675   6.070330   6.292728   5.378467
    11  H    2.175486   1.089594   2.138924   3.405722   3.832939
    12  H    3.425274   2.144652   1.091515   2.188812   3.400089
    13  H    3.885185   3.411184   2.200140   1.089652   2.144621
    14  H    3.331437   3.833992   3.406558   2.152319   1.091077
    15  H    2.770413   2.725957   4.059678   5.103072   5.076748
    16  H    4.660522   5.077249   6.447753   7.333435   7.011193
    17  H    5.310946   6.279834   7.605674   8.092555   7.344984
    18  H    4.473258   5.796125   6.901769   6.952860   5.893784
    19  N    2.400270   3.742502   4.829394   4.953972   4.024527
    20  N    1.395192   2.432659   2.810747   2.414917   1.355506
    21  Re   3.092240   4.450832   5.017083   4.499334   3.186216
    22  C    3.798817   5.023454   5.520207   4.983882   3.771690
    23  C    4.820590   6.229535   6.905378   6.404094   5.072006
    24  C    4.398950   5.529127   5.655624   4.687199   3.333070
    25  O    4.576905   5.663104   6.102102   5.585216   4.503626
    26  O    5.916893   7.334105   8.054911   7.566696   6.231332
    27  O    5.355165   6.354324   6.270851   5.123955   3.877693
    28  Cl   3.847921   4.901104   5.442331   5.099736   4.109129
                    6          7          8          9         10
     6  C    0.000000
     7  C    1.422874   0.000000
     8  C    2.433460   1.376193   0.000000
     9  C    2.796399   2.412461   1.421459   0.000000
    10  C    2.365914   2.743003   2.403709   1.380535   0.000000
    11  H    2.770979   2.726372   4.059942   5.103436   5.076950
    12  H    4.660463   5.077297   6.447746   7.333434   7.010935
    13  H    5.310648   6.279702   7.605628   8.092562   7.344736
    14  H    4.473104   5.796158   6.901975   6.953132   5.893804
    15  H    2.175153   1.089490   2.138912   3.405595   3.832360
    16  H    3.425464   2.144747   1.091509   2.188716   3.399818
    17  H    3.885423   3.411203   2.200230   1.089646   2.144575
    18  H    3.331272   3.833513   3.406224   2.152101   1.091070
    19  N    1.395000   2.432253   2.810586   2.414959   1.355442
    20  N    2.400091   3.742416   4.829505   4.954220   4.024570
    21  Re   3.091297   4.449353   5.015078   4.496977   3.183829
    22  C    3.802404   5.033263   5.536078   5.001509   3.784835
    23  C    4.398602   5.527381   5.652647   4.683567   3.330306
    24  C    4.819014   6.227124   6.902230   6.400748   5.069172
    25  O    4.581890   5.677524   6.125671   5.610927   4.521608
    26  O    5.355536   6.353128   6.268244   5.120670   3.875812
    27  O    5.914817   7.331051   8.051152   7.562973   6.228399
    28  Cl   3.835675   4.874335   5.399154   5.049914   4.068428
                   11         12         13         14         15
    11  H    0.000000
    12  H    2.469123   0.000000
    13  H    4.323384   2.551118   0.000000
    14  H    4.923225   4.322714   2.482290   0.000000
    15  H    2.061126   4.528093   6.131881   6.090059   0.000000
    16  H    4.528222   6.990041   8.404894   7.892014   2.469315
    17  H    6.132251   8.404901   9.175062   7.961724   4.323422
    18  H    6.090279   7.891754   7.961490   6.237163   4.922640
    19  N    4.143497   5.821363   5.997247   4.577117   3.415001
    20  N    3.415605   3.902257   3.387099   2.073182   4.143074
    21  Re   5.262643   6.108278   5.326538   3.199066   5.261268
    22  C    5.800449   6.560732   5.730344   3.709249   5.809258
    23  C    6.926864   7.993683   7.195783   4.929309   6.508063
    24  C    6.509754   6.701211   5.181816   2.711062   6.924415
    25  O    6.386138   7.074808   6.254272   4.415763   6.399567
    26  O    7.979072   9.140792   8.348074   6.046889   7.383601
    27  O    7.384819   7.254802   5.395430   2.996149   7.975797
    28  Cl   5.560918   6.399913   5.863497   4.241412   5.538991
                   16         17         18         19         20
    16  H    0.000000
    17  H    2.551207   0.000000
    18  H    4.322380   2.482006   0.000000
    19  N    3.902087   3.387096   2.073126   0.000000
    20  N    5.821473   5.997463   4.577174   2.669853   0.000000
    21  Re   6.106199   5.323820   3.196439   2.207538   2.209112
    22  C    6.578928   5.750823   3.722276   3.018799   3.014355
    23  C    6.697760   5.177130   2.707483   3.105637   4.111724
    24  C    7.990201   7.191841   4.926373   4.110001   3.106099
    25  O    7.102512   6.284992   4.433604   3.907178   3.901581
    26  O    7.251506   5.390681   2.993468   3.995697   5.270567
    27  O    9.136545   8.343728   6.044081   5.268698   3.995204
    28  Cl   6.352202   5.805922   4.199134   3.352484   3.371903
                   21         22         23         24         25
    21  Re   0.000000
    22  C    1.882731   0.000000
    23  C    1.916781   2.709343   0.000000
    24  C    1.917021   2.707519   2.716552   0.000000
    25  O    3.051181   1.168488   3.634725   3.633014   0.000000
    26  O    3.081839   3.643050   1.165469   3.656227   4.384845
    27  O    3.082079   3.640407   3.656846   1.165487   4.381948
    28  Cl   2.789362   4.671363   3.392046   3.405580   5.839382
                   26         27         28
    26  O    0.000000
    27  O    4.421753   0.000000
    28  Cl   4.159929   4.178428   0.000000
 Symmetry turned off by external request.
 Stoichiometry    C13H8ClN2O3Re(1-,2)
 Framework group  C1[X(C13H8ClN2O3Re)]
 Deg. of freedom    78
 Full point group                 C1      NOp   1
 Rotational constants (GHZ):           0.3301618           0.2695264           0.2025689
 Leave Link  202 at Tue Mar 24 18:21:26 2026, MaxMem=  2684354560 cpu:               1.9 elap:               0.1
 (Enter /home/programes/qq/gaussian/g16.A03/g16/l301.exe)
 General basis read from cards:  (5D, 7F)
 Centers:      21
 lanl2dz
 F 1 1.00
     Exponent=  8.6900000000D-01 Coefficients=  1.0000000000D+00
 ****
 Centers:       1      2      3      4      5      6      7      8      9     10
 Centers:      22     23     24     25     26     27     19     20     11     12
 Centers:      13     14     15     16     17     18     28
 cc-pVDZ
 ****
 ======================================================================================================
                                       Pseudopotential Parameters
 ======================================================================================================
  Center     Atomic      Valence      Angular      Power
  Number     Number     Electrons     Momentum     of R      Exponent        Coefficient   SO-Coeffient
 ======================================================================================================
    1          6
                                   No pseudopotential on this center.
    2          6
                                   No pseudopotential on this center.
    3          6
                                   No pseudopotential on this center.
    4          6
                                   No pseudopotential on this center.
    5          6
                                   No pseudopotential on this center.
    6          6
                                   No pseudopotential on this center.
    7          6
                                   No pseudopotential on this center.
    8          6
                                   No pseudopotential on this center.
    9          6
                                   No pseudopotential on this center.
   10          6
                                   No pseudopotential on this center.
   11          1
                                   No pseudopotential on this center.
   12          1
                                   No pseudopotential on this center.
   13          1
                                   No pseudopotential on this center.
   14          1
                                   No pseudopotential on this center.
   15          1
                                   No pseudopotential on this center.
   16          1
                                   No pseudopotential on this center.
   17          1
                                   No pseudopotential on this center.
   18          1
                                   No pseudopotential on this center.
   19          7
                                   No pseudopotential on this center.
   20          7
                                   No pseudopotential on this center.
   21         75           15
                                      G and up 
                                                     1     1833.8143836       -0.14971040    0.00000000
                                                     2      414.0589456    -1669.25557810    0.00000000
                                                     2       59.0349540     -346.66611290    0.00000000
                                                     2       11.9177094      -96.66848920    0.00000000
                                                     2        3.6531764      -11.07385670    0.00000000
                                                     2        1.2764184       -0.57985520    0.00000000
                                      S - G
                                                     0      247.0023085        3.14971040    0.00000000
                                                     1      631.7195767       45.29699690    0.00000000
                                                     2      249.2800441     1116.42795850    0.00000000
                                                     2       84.2947315      793.64190650    0.00000000
                                                     2       23.0407912      318.20991930    0.00000000
                                                     2        4.2997111      586.31050250    0.00000000
                                                     2        4.0974390     -475.69041640    0.00000000
                                      P - G
                                                     0      193.6897726        2.14971040    0.00000000
                                                     1       56.9308394       64.22957360    0.00000000
                                                     2       18.7227602      218.85046070    0.00000000
                                                     2        3.7340020      344.41891680    0.00000000
                                                     2        3.5127483     -260.47272670    0.00000000
                                      D - G
                                                     0      126.2340824        3.14971040    0.00000000
                                                     1       80.7090826       46.57148680    0.00000000
                                                     2       42.5529714      304.38345950    0.00000000
                                                     2       13.4074494      157.15896520    0.00000000
                                                     2        3.6904228       48.57012110    0.00000000
                                      F - G
                                                     0      112.7786459        3.95696100    0.00000000
                                                     1       56.7815968       52.35867810    0.00000000
                                                     2       28.5831966      236.03408240    0.00000000
                                                     2        8.5734158      116.57872660    0.00000000
                                                     2        2.0892721       11.10505300    0.00000000
   22          6
                                   No pseudopotential on this center.
   23          6
                                   No pseudopotential on this center.
   24          6
                                   No pseudopotential on this center.
   25          8
                                   No pseudopotential on this center.
   26          8
                                   No pseudopotential on this center.
   27          8
                                   No pseudopotential on this center.
   28         17
                                   No pseudopotential on this center.
 ======================================================================================================
 Ernie: Thresh=  0.10000D-02 Tol=  0.10000D-05 Strict=F.
 Ernie:  47 primitive shells out of 504 were deleted.
   339 basis functions,   774 primitive gaussians,   363 cartesian basis functions
    79 alpha electrons       78 beta electrons
       nuclear repulsion energy      1750.4973875523 Hartrees.
 IExCor=  402 DFT=T Ex+Corr=B3LYP ExCW=0 ScaHFX=  0.200000
 ScaDFX=  0.800000  0.720000  1.000000  0.810000 ScalE2=  1.000000  1.000000
 IRadAn=      5 IRanWt=     -1 IRanGd=            0 ICorTp=0 IEmpDi=141
 NAtoms=   28 NActive=   28 NUniq=   28 SFac= 1.00D+00 NAtFMM=   60 NAOKFM=F Big=F
 Integral buffers will be    131072 words long.
 Raffenetti 2 integral format.
 Two-electron integral symmetry is turned off.
 R6Disp:  Grimme-D3(BJ) Dispersion energy=       -0.0843576497 Hartrees.
 Nuclear repulsion after empirical dispersion term =     1750.4130299026 Hartrees.
 Using the following non-standard input for PCM:
 NonEq=write
 --- end of non-standard input.
 ------------------------------------------------------------------------------
 Polarizable Continuum Model (PCM)
 =================================
 Model                : PCM.
 Atomic radii         : UFF (Universal Force Field).
 Polarization charges : Total charges.
 Charge compensation  : None.
 Solution method      : On-the-fly selection.
 Cavity type          : Scaled VdW (van der Waals Surface) (Alpha=1.100).
 Cavity algorithm     : GePol (No added spheres)
                        Default sphere list used, NSphG=   28.
                        Lebedev-Laikov grids with approx.  5.0 points / Ang**2.
                        Smoothing algorithm: York/Karplus (Gamma=1.0000).
                        Polarization charges: spherical gaussians, with
                                              point-specific exponents (IZeta= 3).
                        Self-potential: point-specific (ISelfS= 7).
                        Self-field    : sphere-specific E.n sum rule (ISelfD= 2).
 Solvent              : n,n-DiMethylFormamide, Eps=  37.219000 Eps(inf)=   2.046330
 ------------------------------------------------------------------------------
 GePol: Number of generator spheres                  =      28
 GePol: Total number of spheres                      =      28
 GePol: Number of exposed spheres                    =      27 ( 96.43%)
 GePol: Number of points                             =    2589
 GePol: Average weight of points                     =       0.13
 GePol: Minimum weight of points                     =   0.32D-11
 GePol: Maximum weight of points                     =    0.21616
 GePol: Number of points with low weight             =     123
 GePol: Fraction of low-weight points (<1% of avg)   =       4.75%
 GePol: Cavity surface area                          =    343.363 Ang**2
 GePol: Cavity volume                                =    379.187 Ang**3
 Leave Link  301 at Tue Mar 24 18:21:27 2026, MaxMem=  2684354560 cpu:               3.0 elap:               0.1
 (Enter /home/programes/qq/gaussian/g16.A03/g16/l302.exe)
 NPDir=0 NMtPBC=     1 NCelOv=     1 NCel=       1 NClECP=     1 NCelD=      1
         NCelK=      1 NCelE2=     1 NClLst=     1 CellRange=     0.0.
 One-electron integrals computed using PRISM.
   1 Symmetry operations used in ECPInt.
 ECPInt:  NShTT=   11175 NPrTT=  105620 LenC2=   10457 LenP2D=   51112.
 LDataN:  DoStor=T MaxTD1= 7 Len=  274
 NBasis=   339 RedAO= T EigKep=  3.82D-04  NBF=   339
 NBsUse=   339 1.00D-06 EigRej= -1.00D+00 NBFU=   339
 Precomputing XC quadrature grid using
 IXCGrd= 4 IRadAn=           5 IRanWt=          -1 IRanGd=           0 AccXCQ= 0.00D+00.
 Defaulting to unpruned grid for atomic number  75.
 Generated NRdTot=       0 NPtTot=           0 NUsed=           0 NTot=          32
 NSgBfM=   363   363   363   363   363 MxSgAt=    28 MxSgA2=    28.
 Leave Link  302 at Tue Mar 24 18:21:28 2026, MaxMem=  2684354560 cpu:              35.4 elap:               1.2
 (Enter /home/programes/qq/gaussian/g16.A03/g16/l303.exe)
 DipDrv:  MaxL=1.
 Leave Link  303 at Tue Mar 24 18:21:28 2026, MaxMem=  2684354560 cpu:               4.2 elap:               0.2
 (Enter /home/programes/qq/gaussian/g16.A03/g16/l401.exe)
 Initial guess from the checkpoint file:  "re-bpy-co3-cl-1e_eq.chk"
 B after Tr=     0.000000    0.000000    0.000000
         Rot=    1.000000    0.000000    0.000000    0.000000 Ang=   0.00 deg.
 Guess basis will be translated and rotated to current coordinates.
 JPrj=2 DoOrth=T DoCkMO=T.
 Initial guess <Sx>= 0.0000 <Sy>= 0.0000 <Sz>= 0.5000 <S**2>= 0.7572 S= 0.5036
 Leave Link  401 at Tue Mar 24 18:21:29 2026, MaxMem=  2684354560 cpu:              41.4 elap:               1.4
 (Enter /home/programes/qq/gaussian/g16.A03/g16/l502.exe)
 Two-electron integral symmetry not used.
 UHF open shell SCF:
 Using DIIS extrapolation, IDIIS=  1040.
 NGot=  2684354560 LenX=  2684076439 LenY=  2683944229
 Requested convergence on RMS density matrix=1.00D-08 within 128 cycles.
 Requested convergence on MAX density matrix=1.00D-06.
 Requested convergence on             energy=1.00D-06.
 No special actions if energy rises.
 Fock matrices will be formed incrementally for  20 cycles.

 Cycle   1  Pass 1  IDiag  1:
 FoFJK:  IHMeth= 1 ICntrl=       0 DoSepK=F KAlg= 0 I1Cent=           0 FoldK=F
 IRaf= 870000000 NMat=       1 IRICut=       1 DoRegI=T DoRafI=F ISym2E= 0 IDoP0=0 IntGTp=1.
 FoFCou: FMM=F IPFlag=           0 FMFlag=      100000 FMFlg1=           0
         NFxFlg=           0 DoJE=F BraDBF=F KetDBF=F FulRan=T
         wScrn=  0.000000 ICntrl=         0 IOpCl=  1 I1Cent=           0 NGrid=           0
         NMat0=    1 NMatS0=      1 NMatT0=    0 NMatD0=    1 NMtDS0=    0 NMtDT0=    0
 Symmetry not used in FoFCou.
 Defaulting to unpruned grid for atomic number  75.
 Defaulting to unpruned grid for atomic number  75.
 Defaulting to unpruned grid for atomic number  75.
 Defaulting to unpruned grid for atomic number  75.
 Defaulting to unpruned grid for atomic number  75.
 Defaulting to unpruned grid for atomic number  75.
 Defaulting to unpruned grid for atomic number  75.
 Defaulting to unpruned grid for atomic number  75.
 Defaulting to unpruned grid for atomic number  75.
 Defaulting to unpruned grid for atomic number  75.
 Defaulting to unpruned grid for atomic number  75.
 Defaulting to unpruned grid for atomic number  75.
 Defaulting to unpruned grid for atomic number  75.
 Defaulting to unpruned grid for atomic number  75.
 Defaulting to unpruned grid for atomic number  75.
 Defaulting to unpruned grid for atomic number  75.
 Defaulting to unpruned grid for atomic number  75.
 Defaulting to unpruned grid for atomic number  75.
 Defaulting to unpruned grid for atomic number  75.
 Defaulting to unpruned grid for atomic number  75.
 Defaulting to unpruned grid for atomic number  75.
 Defaulting to unpruned grid for atomic number  75.
 Defaulting to unpruned grid for atomic number  75.
 Defaulting to unpruned grid for atomic number  75.
 Defaulting to unpruned grid for atomic number  75.
 Defaulting to unpruned grid for atomic number  75.
 Defaulting to unpruned grid for atomic number  75.
 Defaulting to unpruned grid for atomic number  75.
 Defaulting to unpruned grid for atomic number  75.
 Defaulting to unpruned grid for atomic number  75.
 Defaulting to unpruned grid for atomic number  75.
 Defaulting to unpruned grid for atomic number  75.
 Inv3:  Mode=1 IEnd=    20108763.
 Iteration    1 A*A^-1 deviation from unit magnitude is 8.88D-15 for    758.
 Iteration    1 A*A^-1 deviation from orthogonality  is 3.54D-15 for   1615    744.
 Iteration    1 A^-1*A deviation from unit magnitude is 8.22D-15 for    580.
 Iteration    1 A^-1*A deviation from orthogonality  is 2.79D-15 for   1316    137.
 E= -1375.17355198378    
 DIIS: error= 4.59D-08 at cycle   1 NSaved=   1.
 NSaved= 1 IEnMin= 1 EnMin= -1375.17355198378     IErMin= 1 ErrMin= 4.59D-08
 ErrMax= 4.59D-08  0.00D+00 EMaxC= 1.00D-01 BMatC= 2.73D-12 BMatP= 2.73D-12
 IDIUse=1 WtCom= 1.00D+00 WtEn= 0.00D+00
 Coeff-Com:  0.100D+01
 Coeff:      0.100D+01
 Gap=     0.086 Goal=   None    Shift=    0.000
 Gap=     0.152 Goal=   None    Shift=    0.000
 RMSDP=7.00D-09 MaxDP=2.81D-07              OVMax= 7.09D-07

 NEqSol: Computing the fast-slow partition of the PCM polarization charges.
 Error on total polarization charges =  0.01298
 SCF Done:  E(UB3LYP) =  -1375.17355198     A.U. after    1 cycles
            NFock=  1  Conv=0.70D-08     -V/T= 2.0464
 <Sx>= 0.0000 <Sy>= 0.0000 <Sz>= 0.5000 <S**2>= 0.7572 S= 0.5036
 <L.S>= 0.000000000000E+00
 KE= 1.314243024174D+03 PE=-6.725701956794D+03 EE= 2.285872350733D+03
 Annihilation of the first spin contaminant:
 S**2 before annihilation     0.7572,   after     0.7500
 Leave Link  502 at Tue Mar 24 18:21:36 2026, MaxMem=  2684354560 cpu:             160.3 elap:               6.3
 (Enter /home/programes/qq/gaussian/g16.A03/g16/l601.exe)
 Copying SCF densities to generalized density rwf, IOpCl= 1 IROHF=0.

 **********************************************************************

            Population analysis using the SCF density.

 **********************************************************************

 Alpha  occ. eigenvalues -- -101.44870 -19.19119 -19.19118 -19.18614 -14.34973
 Alpha  occ. eigenvalues --  -14.34970 -10.27675 -10.27672 -10.27637 -10.22245
 Alpha  occ. eigenvalues --  -10.22242 -10.21946 -10.21909 -10.19363 -10.19363
 Alpha  occ. eigenvalues --  -10.19150 -10.19146 -10.18216 -10.18214  -9.36344
 Alpha  occ. eigenvalues --   -7.12208  -7.11894  -7.11881  -3.21716  -1.81580
 Alpha  occ. eigenvalues --   -1.81140  -1.80946  -1.10210  -1.10166  -1.09638
 Alpha  occ. eigenvalues --   -0.95402  -0.92863  -0.80147  -0.79339  -0.79245
 Alpha  occ. eigenvalues --   -0.73574  -0.70983  -0.65845  -0.63995  -0.60539
 Alpha  occ. eigenvalues --   -0.59920  -0.57141  -0.54708  -0.54607  -0.53347
 Alpha  occ. eigenvalues --   -0.49591  -0.49407  -0.47890  -0.46165  -0.45410
 Alpha  occ. eigenvalues --   -0.45161  -0.44498  -0.44066  -0.43837  -0.43723
 Alpha  occ. eigenvalues --   -0.43503  -0.42455  -0.42323  -0.42065  -0.41708
 Alpha  occ. eigenvalues --   -0.41669  -0.40001  -0.39956  -0.38830  -0.36425
 Alpha  occ. eigenvalues --   -0.36032  -0.32198  -0.30660  -0.30644  -0.29707
 Alpha  occ. eigenvalues --   -0.29577  -0.27202  -0.25173  -0.24979  -0.23739
 Alpha  occ. eigenvalues --   -0.23078  -0.22078  -0.21780  -0.11683
 Alpha virt. eigenvalues --   -0.03076  -0.02416  -0.01885  -0.01855   0.01509
 Alpha virt. eigenvalues --    0.02390   0.02556   0.03460   0.03606   0.04738
 Alpha virt. eigenvalues --    0.05411   0.05542   0.06847   0.07973   0.09151
 Alpha virt. eigenvalues --    0.09787   0.09990   0.11536   0.12165   0.13014
 Alpha virt. eigenvalues --    0.13549   0.16452   0.16839   0.17200   0.20235
 Alpha virt. eigenvalues --    0.21690   0.24104   0.25141   0.26005   0.27840
 Alpha virt. eigenvalues --    0.29353   0.29499   0.30539   0.32829   0.34968
 Alpha virt. eigenvalues --    0.35018   0.35735   0.37408   0.38257   0.39227
 Alpha virt. eigenvalues --    0.41704   0.42715   0.43988   0.44238   0.44978
 Alpha virt. eigenvalues --    0.45015   0.46911   0.48008   0.48446   0.49077
 Alpha virt. eigenvalues --    0.49132   0.49977   0.50017   0.51550   0.51846
 Alpha virt. eigenvalues --    0.51881   0.52659   0.53379   0.54160   0.54964
 Alpha virt. eigenvalues --    0.55590   0.56261   0.57483   0.57579   0.59454
 Alpha virt. eigenvalues --    0.60145   0.60564   0.60707   0.62409   0.63844
 Alpha virt. eigenvalues --    0.64629   0.64663   0.65103   0.65997   0.66234
 Alpha virt. eigenvalues --    0.67054   0.67453   0.68105   0.68250   0.69659
 Alpha virt. eigenvalues --    0.69833   0.70763   0.70841   0.71421   0.72424
 Alpha virt. eigenvalues --    0.74387   0.74742   0.76243   0.78045   0.78241
 Alpha virt. eigenvalues --    0.81910   0.83009   0.83590   0.83824   0.84946
 Alpha virt. eigenvalues --    0.85192   0.85362   0.87138   0.87319   0.88276
 Alpha virt. eigenvalues --    0.90230   0.90659   0.90781   0.91392   0.91676
 Alpha virt. eigenvalues --    0.92800   0.93063   0.95669   0.96170   0.96917
 Alpha virt. eigenvalues --    0.98084   0.98445   0.99311   0.99811   1.01331
 Alpha virt. eigenvalues --    1.02355   1.02566   1.03337   1.04539   1.04912
 Alpha virt. eigenvalues --    1.05167   1.05760   1.06856   1.07715   1.08031
 Alpha virt. eigenvalues --    1.09475   1.09887   1.11010   1.11377   1.11934
 Alpha virt. eigenvalues --    1.12420   1.12776   1.14478   1.15076   1.15720
 Alpha virt. eigenvalues --    1.15769   1.17245   1.19084   1.23497   1.25448
 Alpha virt. eigenvalues --    1.25613   1.29407   1.30308   1.31816   1.36194
 Alpha virt. eigenvalues --    1.37773   1.39068   1.40741   1.41856   1.43228
 Alpha virt. eigenvalues --    1.45081   1.45562   1.45618   1.46440   1.47406
 Alpha virt. eigenvalues --    1.48367   1.48607   1.49930   1.50990   1.54215
 Alpha virt. eigenvalues --    1.55517   1.55979   1.56314   1.59424   1.60684
 Alpha virt. eigenvalues --    1.61715   1.61758   1.63182   1.63194   1.63965
 Alpha virt. eigenvalues --    1.64783   1.67675   1.68036   1.69643   1.70703
 Alpha virt. eigenvalues --    1.71477   1.72199   1.72978   1.73240   1.74308
 Alpha virt. eigenvalues --    1.75905   1.77862   1.78828   1.80550   1.82435
 Alpha virt. eigenvalues --    1.82726   1.82813   1.83891   1.84262   1.86041
 Alpha virt. eigenvalues --    1.86792   1.88896   1.90117   1.91582   1.91702
 Alpha virt. eigenvalues --    1.92351   1.94153   1.95450   1.95594   1.97044
 Alpha virt. eigenvalues --    2.00240   2.00628   2.01490   2.02018   2.02305
 Alpha virt. eigenvalues --    2.02752   2.03709   2.07015   2.07416   2.10125
 Alpha virt. eigenvalues --    2.10757   2.13958   2.16708   2.18257   2.25014
 Alpha virt. eigenvalues --    2.27148   2.30907   2.31307   2.32785   2.35519
 Alpha virt. eigenvalues --    2.36570   2.37309   2.37862   2.39556   2.39667
 Alpha virt. eigenvalues --    2.41875   2.44290   2.48478   2.49487   2.50477
 Alpha virt. eigenvalues --    2.52423   2.61216   2.61289   2.61724   2.61900
 Alpha virt. eigenvalues --    2.62291   2.63834   2.65117   2.65410   2.71387
 Alpha virt. eigenvalues --    2.71763   2.76368   2.78104   2.82944   2.85757
 Alpha virt. eigenvalues --    2.88043   2.92484   3.08864   3.09302   3.09763
 Alpha virt. eigenvalues --    3.10171   3.10209   3.11071   3.12138   3.44497
 Alpha virt. eigenvalues --    3.49741   3.50473   3.50713   3.56869  21.30075
  Beta  occ. eigenvalues -- -101.44852 -19.19088 -19.19087 -19.18619 -14.34612
  Beta  occ. eigenvalues --  -14.34609 -10.27656 -10.27653 -10.27639 -10.22312
  Beta  occ. eigenvalues --  -10.22309 -10.21742 -10.21707 -10.19273 -10.19272
  Beta  occ. eigenvalues --  -10.19127 -10.19123 -10.18008 -10.18007  -9.36326
  Beta  occ. eigenvalues --   -7.12156  -7.11882  -7.11869  -3.21732  -1.81617
  Beta  occ. eigenvalues --   -1.81140  -1.80971  -1.10156  -1.10112  -1.09645
  Beta  occ. eigenvalues --   -0.94807  -0.92334  -0.79729  -0.78896  -0.78750
  Beta  occ. eigenvalues --   -0.73255  -0.70871  -0.65153  -0.63870  -0.60435
  Beta  occ. eigenvalues --   -0.59526  -0.57060  -0.54631  -0.54590  -0.53211
  Beta  occ. eigenvalues --   -0.49438  -0.49159  -0.47623  -0.46110  -0.45232
  Beta  occ. eigenvalues --   -0.45078  -0.44453  -0.43998  -0.43630  -0.43621
  Beta  occ. eigenvalues --   -0.43410  -0.42251  -0.41997  -0.41882  -0.41631
  Beta  occ. eigenvalues --   -0.40919  -0.39846  -0.39797  -0.37752  -0.36290
  Beta  occ. eigenvalues --   -0.35838  -0.31899  -0.30362  -0.29487  -0.28452
  Beta  occ. eigenvalues --   -0.28389  -0.26968  -0.24991  -0.24756  -0.23068
  Beta  occ. eigenvalues --   -0.22660  -0.21931  -0.21484
  Beta virt. eigenvalues --   -0.06257  -0.02672  -0.01811  -0.01466  -0.01430
  Beta virt. eigenvalues --    0.01655   0.02610   0.03500   0.03637   0.03903
  Beta virt. eigenvalues --    0.04772   0.05510   0.05625   0.06886   0.08111
  Beta virt. eigenvalues --    0.09211   0.09868   0.10023   0.12229   0.12891
  Beta virt. eigenvalues --    0.13100   0.13675   0.16554   0.17227   0.18351
  Beta virt. eigenvalues --    0.20301   0.21931   0.24410   0.25312   0.26193
  Beta virt. eigenvalues --    0.27999   0.29522   0.29569   0.30635   0.32966
  Beta virt. eigenvalues --    0.35054   0.35150   0.35872   0.37557   0.38655
  Beta virt. eigenvalues --    0.39442   0.41848   0.42783   0.44198   0.44426
  Beta virt. eigenvalues --    0.45188   0.45239   0.47073   0.48437   0.48624
  Beta virt. eigenvalues --    0.49266   0.49506   0.50173   0.50361   0.51670
  Beta virt. eigenvalues --    0.52010   0.52116   0.52907   0.53573   0.54324
  Beta virt. eigenvalues --    0.55440   0.55804   0.56377   0.57768   0.57890
  Beta virt. eigenvalues --    0.59885   0.60260   0.60777   0.60967   0.62614
  Beta virt. eigenvalues --    0.63909   0.64741   0.64870   0.65182   0.66158
  Beta virt. eigenvalues --    0.66526   0.67243   0.67658   0.68316   0.68478
  Beta virt. eigenvalues --    0.69731   0.69884   0.70870   0.70941   0.71468
  Beta virt. eigenvalues --    0.72599   0.74463   0.74849   0.76327   0.78114
  Beta virt. eigenvalues --    0.78411   0.82015   0.83270   0.83651   0.84038
  Beta virt. eigenvalues --    0.85143   0.85291   0.85545   0.87257   0.87540
  Beta virt. eigenvalues --    0.88415   0.90487   0.90790   0.90852   0.91500
  Beta virt. eigenvalues --    0.92043   0.93094   0.93433   0.95764   0.96711
  Beta virt. eigenvalues --    0.97381   0.98227   0.98661   0.99780   1.00550
  Beta virt. eigenvalues --    1.01660   1.02474   1.02806   1.03589   1.04676
  Beta virt. eigenvalues --    1.05064   1.05311   1.05872   1.07002   1.07824
  Beta virt. eigenvalues --    1.08148   1.09650   1.10289   1.11070   1.11571
  Beta virt. eigenvalues --    1.12164   1.12531   1.12951   1.14547   1.15175
  Beta virt. eigenvalues --    1.15786   1.15830   1.17470   1.19221   1.23687
  Beta virt. eigenvalues --    1.25599   1.25818   1.29619   1.30433   1.32037
  Beta virt. eigenvalues --    1.36334   1.37876   1.39288   1.41016   1.42028
  Beta virt. eigenvalues --    1.43449   1.45297   1.45722   1.46052   1.46665
  Beta virt. eigenvalues --    1.47665   1.48596   1.48875   1.50264   1.51152
  Beta virt. eigenvalues --    1.54354   1.55596   1.56217   1.56566   1.59737
  Beta virt. eigenvalues --    1.60763   1.61835   1.61936   1.63372   1.63457
  Beta virt. eigenvalues --    1.64185   1.65016   1.67885   1.68273   1.69717
  Beta virt. eigenvalues --    1.70837   1.71625   1.72423   1.73333   1.73520
  Beta virt. eigenvalues --    1.74517   1.76086   1.78061   1.79063   1.80605
  Beta virt. eigenvalues --    1.82682   1.82783   1.83215   1.83960   1.84391
  Beta virt. eigenvalues --    1.86207   1.87034   1.89138   1.90255   1.91786
  Beta virt. eigenvalues --    1.92216   1.92568   1.94612   1.95574   1.95743
  Beta virt. eigenvalues --    1.97116   2.00433   2.00833   2.01630   2.02272
  Beta virt. eigenvalues --    2.02453   2.03055   2.03788   2.07438   2.07879
  Beta virt. eigenvalues --    2.10193   2.10973   2.14017   2.16842   2.18329
  Beta virt. eigenvalues --    2.25625   2.27476   2.31260   2.31351   2.32929
  Beta virt. eigenvalues --    2.36141   2.36845   2.37890   2.38207   2.39622
  Beta virt. eigenvalues --    2.39736   2.42019   2.44581   2.49415   2.49760
  Beta virt. eigenvalues --    2.50724   2.52654   2.61310   2.61382   2.61787
  Beta virt. eigenvalues --    2.61897   2.62376   2.63893   2.65449   2.65724
  Beta virt. eigenvalues --    2.71557   2.71951   2.76717   2.78295   2.83114
  Beta virt. eigenvalues --    2.85834   2.88394   2.92753   3.08954   3.09318
  Beta virt. eigenvalues --    3.09811   3.10169   3.10247   3.11086   3.12323
  Beta virt. eigenvalues --    3.44657   3.49747   3.50518   3.50748   3.57013
  Beta virt. eigenvalues --   21.30109
          Condensed to atoms (all electrons):
               1          2          3          4          5          6
     1  C    5.074530   0.471269  -0.008356  -0.044379  -0.048108   0.291966
     2  C    0.471269   4.829901   0.517636   0.002268  -0.062382  -0.088163
     3  C   -0.008356   0.517636   4.723812   0.429268  -0.013162   0.010712
     4  C   -0.044379   0.002268   0.429268   4.812758   0.561987   0.001684
     5  C   -0.048108  -0.062382  -0.013162   0.561987   4.627345   0.006152
     6  C    0.291966  -0.088163   0.010712   0.001684   0.006152   5.073724
     7  C   -0.088211  -0.008820   0.000490  -0.000097  -0.000035   0.471061
     8  C    0.010721   0.000490  -0.000044   0.000001   0.000003  -0.008296
     9  C    0.001675  -0.000096   0.000001   0.000000  -0.000000  -0.044457
    10  C    0.006197  -0.000034   0.000002  -0.000000   0.000046  -0.047962
    11  H   -0.043887   0.403666  -0.048170   0.009945   0.000262  -0.025675
    12  H    0.010331  -0.039497   0.389765  -0.056685   0.010120  -0.000384
    13  H    0.000410   0.010033  -0.045483   0.398241  -0.046745   0.000019
    14  H    0.002826   0.002422   0.005774  -0.036623   0.375379  -0.001111
    15  H   -0.025713   0.002525   0.001230  -0.000036  -0.000018  -0.043773
    16  H   -0.000384   0.000029  -0.000000   0.000000  -0.000000   0.010334
    17  H    0.000019  -0.000001   0.000000   0.000000   0.000000   0.000412
    18  H   -0.001110   0.000014   0.000000  -0.000000   0.000003   0.002813
    19  N   -0.016503   0.004533  -0.000121  -0.000016  -0.000477   0.315781
    20  N    0.315466  -0.027166  -0.032411  -0.025847   0.469406  -0.016512
    21  Re  -0.070291  -0.000578   0.001484  -0.002340  -0.029575  -0.070120
    22  C   -0.001239  -0.000018   0.000025   0.000012  -0.003008  -0.001156
    23  C    0.001181   0.000004  -0.000001   0.000002   0.000196  -0.001310
    24  C   -0.001307  -0.000001   0.000007   0.000169  -0.005062   0.001176
    25  O    0.000043   0.000000  -0.000000   0.000001   0.000137   0.000042
    26  O   -0.000002  -0.000000   0.000000  -0.000000  -0.000000  -0.000005
    27  O   -0.000005   0.000000  -0.000000  -0.000001  -0.001147  -0.000002
    28  Cl   0.001564  -0.000329   0.000031  -0.000139   0.000550   0.001508
               7          8          9         10         11         12
     1  C   -0.088211   0.010721   0.001675   0.006197  -0.043887   0.010331
     2  C   -0.008820   0.000490  -0.000096  -0.000034   0.403666  -0.039497
     3  C    0.000490  -0.000044   0.000001   0.000002  -0.048170   0.389765
     4  C   -0.000097   0.000001   0.000000  -0.000000   0.009945  -0.056685
     5  C   -0.000035   0.000003  -0.000000   0.000046   0.000262   0.010120
     6  C    0.471061  -0.008296  -0.044457  -0.047962  -0.025675  -0.000384
     7  C    4.830348   0.517465   0.002421  -0.062586   0.002523   0.000029
     8  C    0.517465   4.723885   0.429280  -0.013104   0.001229  -0.000000
     9  C    0.002421   0.429280   4.812576   0.561861  -0.000036   0.000000
    10  C   -0.062586  -0.013104   0.561861   4.627880  -0.000018  -0.000000
    11  H    0.002523   0.001229  -0.000036  -0.000018   0.741780  -0.016974
    12  H    0.000029  -0.000000   0.000000  -0.000000  -0.016974   0.735682
    13  H   -0.000001   0.000000   0.000000   0.000000  -0.000258  -0.013128
    14  H    0.000014   0.000000  -0.000000   0.000003   0.000125  -0.000377
    15  H    0.403664  -0.048235   0.009943   0.000262  -0.006856   0.000077
    16  H   -0.039543   0.389773  -0.056667   0.010130   0.000077  -0.000000
    17  H    0.010026  -0.045446   0.398238  -0.046737  -0.000000  -0.000000
    18  H    0.002423   0.005776  -0.036608   0.375338  -0.000001   0.000000
    19  N   -0.027081  -0.032447  -0.025723   0.468905   0.000167   0.000002
    20  N    0.004545  -0.000121  -0.000016  -0.000492   0.004679  -0.000210
    21  Re  -0.000581   0.001505  -0.002382  -0.029523  -0.000822   0.000440
    22  C   -0.000013   0.000023   0.000014  -0.002925  -0.000004   0.000000
    23  C   -0.000001   0.000007   0.000169  -0.005077   0.000001  -0.000000
    24  C    0.000004  -0.000001   0.000002   0.000198  -0.000001   0.000000
    25  O    0.000000  -0.000000   0.000001   0.000129   0.000000  -0.000000
    26  O    0.000000  -0.000000  -0.000001  -0.001160  -0.000000   0.000000
    27  O   -0.000000   0.000000  -0.000000  -0.000000   0.000000  -0.000000
    28  Cl  -0.000373   0.000038  -0.000174   0.000698  -0.000003  -0.000000
              13         14         15         16         17         18
     1  C    0.000410   0.002826  -0.025713  -0.000384   0.000019  -0.001110
     2  C    0.010033   0.002422   0.002525   0.000029  -0.000001   0.000014
     3  C   -0.045483   0.005774   0.001230  -0.000000   0.000000   0.000000
     4  C    0.398241  -0.036623  -0.000036   0.000000   0.000000  -0.000000
     5  C   -0.046745   0.375379  -0.000018  -0.000000   0.000000   0.000003
     6  C    0.000019  -0.001111  -0.043773   0.010334   0.000412   0.002813
     7  C   -0.000001   0.000014   0.403664  -0.039543   0.010026   0.002423
     8  C    0.000000   0.000000  -0.048235   0.389773  -0.045446   0.005776
     9  C    0.000000  -0.000000   0.009943  -0.056667   0.398238  -0.036608
    10  C    0.000000   0.000003   0.000262   0.010130  -0.046737   0.375338
    11  H   -0.000258   0.000125  -0.006856   0.000077  -0.000000  -0.000001
    12  H   -0.013128  -0.000377   0.000077  -0.000000  -0.000000   0.000000
    13  H    0.726753  -0.010957  -0.000000  -0.000000  -0.000000  -0.000000
    14  H   -0.010957   0.700879  -0.000001   0.000000  -0.000000   0.000000
    15  H   -0.000000  -0.000001   0.741766  -0.016970  -0.000259   0.000125
    16  H   -0.000000   0.000000  -0.016970   0.735683  -0.013122  -0.000378
    17  H   -0.000000  -0.000000  -0.000259  -0.013122   0.726694  -0.010959
    18  H   -0.000000   0.000000   0.000125  -0.000378  -0.010959   0.700818
    19  N    0.000001  -0.000043   0.004687  -0.000210   0.005029  -0.034874
    20  N    0.005027  -0.034867   0.000167   0.000002   0.000001  -0.000043
    21  Re  -0.000366  -0.020109  -0.000824   0.000441  -0.000371  -0.020093
    22  C   -0.000007  -0.001267  -0.000004   0.000000  -0.000007  -0.001241
    23  C    0.000000   0.000227  -0.000001   0.000000  -0.000046  -0.000963
    24  C   -0.000045  -0.000955   0.000001  -0.000000   0.000000   0.000229
    25  O    0.000000  -0.000034   0.000000  -0.000000   0.000000  -0.000034
    26  O   -0.000000  -0.000001   0.000000  -0.000000  -0.000001   0.004811
    27  O   -0.000001   0.004779  -0.000000   0.000000  -0.000000  -0.000001
    28  Cl  -0.000003  -0.000702  -0.000004  -0.000000  -0.000004  -0.000730
              19         20         21         22         23         24
     1  C   -0.016503   0.315466  -0.070291  -0.001239   0.001181  -0.001307
     2  C    0.004533  -0.027166  -0.000578  -0.000018   0.000004  -0.000001
     3  C   -0.000121  -0.032411   0.001484   0.000025  -0.000001   0.000007
     4  C   -0.000016  -0.025847  -0.002340   0.000012   0.000002   0.000169
     5  C   -0.000477   0.469406  -0.029575  -0.003008   0.000196  -0.005062
     6  C    0.315781  -0.016512  -0.070120  -0.001156  -0.001310   0.001176
     7  C   -0.027081   0.004545  -0.000581  -0.000013  -0.000001   0.000004
     8  C   -0.032447  -0.000121   0.001505   0.000023   0.000007  -0.000001
     9  C   -0.025723  -0.000016  -0.002382   0.000014   0.000169   0.000002
    10  C    0.468905  -0.000492  -0.029523  -0.002925  -0.005077   0.000198
    11  H    0.000167   0.004679  -0.000822  -0.000004   0.000001  -0.000001
    12  H    0.000002  -0.000210   0.000440   0.000000  -0.000000   0.000000
    13  H    0.000001   0.005027  -0.000366  -0.000007   0.000000  -0.000045
    14  H   -0.000043  -0.034867  -0.020109  -0.001267   0.000227  -0.000955
    15  H    0.004687   0.000167  -0.000824  -0.000004  -0.000001   0.000001
    16  H   -0.000210   0.000002   0.000441   0.000000   0.000000  -0.000000
    17  H    0.005029   0.000001  -0.000371  -0.000007  -0.000046   0.000000
    18  H   -0.034874  -0.000043  -0.020093  -0.001241  -0.000963   0.000229
    19  N    6.527661  -0.014458   0.218826  -0.001337   0.005632  -0.005959
    20  N   -0.014458   6.526721   0.218991  -0.001454  -0.005953   0.005754
    21  Re   0.218826   0.218991  13.751052   0.125653   0.066968   0.068047
    22  C   -0.001337  -0.001454   0.125653   5.384369  -0.035356  -0.035412
    23  C    0.005632  -0.005953   0.066968  -0.035356   5.494118  -0.057521
    24  C   -0.005959   0.005754   0.068047  -0.035412  -0.057521   5.492304
    25  O   -0.000009  -0.000009  -0.011765   0.689831  -0.000899  -0.000899
    26  O   -0.000079   0.000004  -0.010116  -0.001007   0.688438  -0.001047
    27  O    0.000004  -0.000081  -0.010122  -0.001018  -0.001044   0.688400
    28  Cl  -0.009466  -0.008826   0.198971  -0.002930   0.003337   0.003501
              25         26         27         28
     1  C    0.000043  -0.000002  -0.000005   0.001564
     2  C    0.000000  -0.000000   0.000000  -0.000329
     3  C   -0.000000   0.000000  -0.000000   0.000031
     4  C    0.000001  -0.000000  -0.000001  -0.000139
     5  C    0.000137  -0.000000  -0.001147   0.000550
     6  C    0.000042  -0.000005  -0.000002   0.001508
     7  C    0.000000   0.000000  -0.000000  -0.000373
     8  C   -0.000000  -0.000000   0.000000   0.000038
     9  C    0.000001  -0.000001  -0.000000  -0.000174
    10  C    0.000129  -0.001160  -0.000000   0.000698
    11  H    0.000000  -0.000000   0.000000  -0.000003
    12  H   -0.000000   0.000000  -0.000000  -0.000000
    13  H    0.000000  -0.000000  -0.000001  -0.000003
    14  H   -0.000034  -0.000001   0.004779  -0.000702
    15  H    0.000000   0.000000  -0.000000  -0.000004
    16  H   -0.000000  -0.000000   0.000000  -0.000000
    17  H    0.000000  -0.000001  -0.000000  -0.000004
    18  H   -0.000034   0.004811  -0.000001  -0.000730
    19  N   -0.000009  -0.000079   0.000004  -0.009466
    20  N   -0.000009   0.000004  -0.000081  -0.008826
    21  Re  -0.011765  -0.010116  -0.010122   0.198971
    22  C    0.689831  -0.001007  -0.001018  -0.002930
    23  C   -0.000899   0.688438  -0.001044   0.003337
    24  C   -0.000899  -0.001047   0.688400   0.003501
    25  O    7.465079   0.000034   0.000034   0.000003
    26  O    0.000034   7.449033   0.000028   0.000118
    27  O    0.000034   0.000028   7.449118   0.000117
    28  Cl   0.000003   0.000118   0.000117  17.400962
          Atomic-Atomic Spin Densities.
               1          2          3          4          5          6
     1  C    0.167019  -0.031758  -0.010645   0.006774   0.002859   0.067875
     2  C   -0.031758   0.019297   0.032008  -0.007867   0.001014  -0.006088
     3  C   -0.010645   0.032008   0.092696  -0.051048  -0.003081  -0.001236
     4  C    0.006774  -0.007867  -0.051048   0.192531   0.017197   0.000389
     5  C    0.002859   0.001014  -0.003081   0.017197  -0.049676   0.000171
     6  C    0.067875  -0.006088  -0.001236   0.000389   0.000171   0.166777
     7  C   -0.006084   0.001640   0.000091  -0.000015  -0.000005  -0.031771
     8  C   -0.001235   0.000091   0.000004  -0.000000  -0.000000  -0.010633
     9  C    0.000388  -0.000015  -0.000000   0.000000   0.000000   0.006765
    10  C    0.000173  -0.000005  -0.000000   0.000000  -0.000000   0.002863
    11  H    0.000238   0.000835  -0.000053   0.000019   0.000001   0.000248
    12  H   -0.000008  -0.000343   0.001697   0.000040  -0.000102  -0.000000
    13  H   -0.000019  -0.000111   0.000109   0.002518  -0.000072   0.000001
    14  H   -0.000002  -0.000013   0.000031  -0.000450   0.000376   0.000002
    15  H    0.000252   0.000097   0.000007   0.000000   0.000001   0.000239
    16  H   -0.000000  -0.000000  -0.000000  -0.000000   0.000000  -0.000008
    17  H    0.000001  -0.000000  -0.000000  -0.000000   0.000000  -0.000019
    18  H    0.000002   0.000000   0.000000  -0.000000  -0.000000  -0.000002
    19  N   -0.010485   0.000246   0.000024  -0.000017  -0.000042  -0.050696
    20  N   -0.050731   0.004518   0.004110  -0.009445  -0.010313  -0.010492
    21  Re  -0.006575   0.000436   0.000288  -0.000806  -0.000780  -0.006585
    22  C    0.000941  -0.000026  -0.000010   0.000048   0.000169   0.000929
    23  C   -0.000035   0.000000   0.000000  -0.000000  -0.000003  -0.000018
    24  C   -0.000017   0.000002   0.000001  -0.000026  -0.000086  -0.000035
    25  O   -0.000011   0.000000   0.000000  -0.000000  -0.000003  -0.000010
    26  O    0.000000  -0.000000  -0.000000   0.000000   0.000000   0.000000
    27  O    0.000000  -0.000000  -0.000000   0.000001   0.000011   0.000000
    28  Cl   0.001471  -0.000035  -0.000014   0.000054   0.000201   0.001511
               7          8          9         10         11         12
     1  C   -0.006084  -0.001235   0.000388   0.000173   0.000238  -0.000008
     2  C    0.001640   0.000091  -0.000015  -0.000005   0.000835  -0.000343
     3  C    0.000091   0.000004  -0.000000  -0.000000  -0.000053   0.001697
     4  C   -0.000015  -0.000000   0.000000   0.000000   0.000019   0.000040
     5  C   -0.000005  -0.000000   0.000000  -0.000000   0.000001  -0.000102
     6  C   -0.031771  -0.010633   0.006765   0.002863   0.000248  -0.000000
     7  C    0.019444   0.031999  -0.007870   0.001008   0.000099  -0.000000
     8  C    0.031999   0.092447  -0.050997  -0.003076   0.000008  -0.000000
     9  C   -0.007870  -0.050997   0.192498   0.017192   0.000000  -0.000000
    10  C    0.001008  -0.003076   0.017192  -0.049718   0.000001   0.000000
    11  H    0.000099   0.000008   0.000000   0.000001  -0.002610   0.000161
    12  H   -0.000000  -0.000000  -0.000000   0.000000   0.000161  -0.005414
    13  H   -0.000000  -0.000000  -0.000000   0.000000   0.000003   0.000173
    14  H    0.000000   0.000000  -0.000000  -0.000000  -0.000001   0.000002
    15  H    0.000835  -0.000052   0.000019   0.000000   0.000008  -0.000001
    16  H   -0.000342   0.001694   0.000040  -0.000102  -0.000001   0.000000
    17  H   -0.000112   0.000110   0.002519  -0.000073   0.000000   0.000000
    18  H   -0.000013   0.000031  -0.000450   0.000374  -0.000000   0.000000
    19  N    0.004524   0.004105  -0.009435  -0.010293  -0.000005   0.000000
    20  N    0.000245   0.000024  -0.000017  -0.000041  -0.000035  -0.000001
    21  Re   0.000437   0.000289  -0.000812  -0.000789  -0.000007  -0.000005
    22  C   -0.000025  -0.000009   0.000045   0.000159   0.000000  -0.000000
    23  C    0.000002   0.000001  -0.000026  -0.000089  -0.000000   0.000000
    24  C    0.000000   0.000000  -0.000000  -0.000004   0.000000  -0.000000
    25  O    0.000000   0.000000  -0.000000  -0.000003   0.000000   0.000000
    26  O   -0.000000  -0.000000   0.000001   0.000012   0.000000  -0.000000
    27  O   -0.000000  -0.000000   0.000000   0.000000  -0.000000   0.000000
    28  Cl  -0.000037  -0.000016   0.000061   0.000224   0.000000   0.000000
              13         14         15         16         17         18
     1  C   -0.000019  -0.000002   0.000252  -0.000000   0.000001   0.000002
     2  C   -0.000111  -0.000013   0.000097  -0.000000  -0.000000   0.000000
     3  C    0.000109   0.000031   0.000007  -0.000000  -0.000000   0.000000
     4  C    0.002518  -0.000450   0.000000  -0.000000  -0.000000  -0.000000
     5  C   -0.000072   0.000376   0.000001   0.000000   0.000000  -0.000000
     6  C    0.000001   0.000002   0.000239  -0.000008  -0.000019  -0.000002
     7  C   -0.000000   0.000000   0.000835  -0.000342  -0.000112  -0.000013
     8  C   -0.000000   0.000000  -0.000052   0.001694   0.000110   0.000031
     9  C   -0.000000  -0.000000   0.000019   0.000040   0.002519  -0.000450
    10  C    0.000000  -0.000000   0.000000  -0.000102  -0.000073   0.000374
    11  H    0.000003  -0.000001   0.000008  -0.000001   0.000000  -0.000000
    12  H    0.000173   0.000002  -0.000001   0.000000   0.000000   0.000000
    13  H   -0.009972   0.000145   0.000000   0.000000   0.000000   0.000000
    14  H    0.000145   0.000661  -0.000000   0.000000   0.000000  -0.000000
    15  H    0.000000  -0.000000  -0.002617   0.000161   0.000003  -0.000001
    16  H    0.000000   0.000000   0.000161  -0.005401   0.000173   0.000002
    17  H    0.000000   0.000000   0.000003   0.000173  -0.009974   0.000145
    18  H    0.000000  -0.000000  -0.000001   0.000002   0.000145   0.000664
    19  N   -0.000000   0.000000  -0.000034  -0.000001  -0.000030   0.000129
    20  N   -0.000030   0.000128  -0.000005   0.000000  -0.000000   0.000000
    21  Re   0.000016   0.000238  -0.000007  -0.000005   0.000017   0.000241
    22  C   -0.000000   0.000022   0.000000  -0.000000   0.000000   0.000022
    23  C   -0.000000  -0.000005   0.000000  -0.000000   0.000000   0.000034
    24  C    0.000000   0.000034  -0.000000   0.000000  -0.000000  -0.000005
    25  O    0.000000  -0.000000   0.000000   0.000000   0.000000  -0.000000
    26  O    0.000000   0.000000  -0.000000   0.000000  -0.000000  -0.000011
    27  O   -0.000000  -0.000011   0.000000  -0.000000   0.000000   0.000000
    28  Cl   0.000000  -0.000003   0.000000   0.000000   0.000000  -0.000004
              19         20         21         22         23         24
     1  C   -0.010485  -0.050731  -0.006575   0.000941  -0.000035  -0.000017
     2  C    0.000246   0.004518   0.000436  -0.000026   0.000000   0.000002
     3  C    0.000024   0.004110   0.000288  -0.000010   0.000000   0.000001
     4  C   -0.000017  -0.009445  -0.000806   0.000048  -0.000000  -0.000026
     5  C   -0.000042  -0.010313  -0.000780   0.000169  -0.000003  -0.000086
     6  C   -0.050696  -0.010492  -0.006585   0.000929  -0.000018  -0.000035
     7  C    0.004524   0.000245   0.000437  -0.000025   0.000002   0.000000
     8  C    0.004105   0.000024   0.000289  -0.000009   0.000001   0.000000
     9  C   -0.009435  -0.000017  -0.000812   0.000045  -0.000026  -0.000000
    10  C   -0.010293  -0.000041  -0.000789   0.000159  -0.000089  -0.000004
    11  H   -0.000005  -0.000035  -0.000007   0.000000  -0.000000   0.000000
    12  H    0.000000  -0.000001  -0.000005  -0.000000   0.000000  -0.000000
    13  H   -0.000000  -0.000030   0.000016  -0.000000  -0.000000   0.000000
    14  H    0.000000   0.000128   0.000238   0.000022  -0.000005   0.000034
    15  H   -0.000034  -0.000005  -0.000007   0.000000   0.000000  -0.000000
    16  H   -0.000001   0.000000  -0.000005  -0.000000  -0.000000   0.000000
    17  H   -0.000030  -0.000000   0.000017   0.000000   0.000000  -0.000000
    18  H    0.000129   0.000000   0.000241   0.000022   0.000034  -0.000005
    19  N    0.223465   0.003573   0.010838  -0.002949   0.000323   0.000100
    20  N    0.003573   0.223600   0.010767  -0.002997   0.000100   0.000313
    21  Re   0.010838   0.010767   0.025182  -0.016334   0.010312   0.010329
    22  C   -0.002949  -0.002997  -0.016334   0.011887  -0.000491  -0.000536
    23  C    0.000323   0.000100   0.010312  -0.000491   0.006490   0.000860
    24  C    0.000100   0.000313   0.010329  -0.000536   0.000860   0.006407
    25  O    0.000019   0.000019   0.000031   0.000764  -0.000028  -0.000028
    26  O   -0.000012  -0.000000  -0.001346   0.000059  -0.003908  -0.000025
    27  O   -0.000000  -0.000012  -0.001343   0.000060  -0.000025  -0.003902
    28  Cl  -0.003042  -0.002895  -0.018760  -0.000167  -0.001362  -0.001306
              25         26         27         28
     1  C   -0.000011   0.000000   0.000000   0.001471
     2  C    0.000000  -0.000000  -0.000000  -0.000035
     3  C    0.000000  -0.000000  -0.000000  -0.000014
     4  C   -0.000000   0.000000   0.000001   0.000054
     5  C   -0.000003   0.000000   0.000011   0.000201
     6  C   -0.000010   0.000000   0.000000   0.001511
     7  C    0.000000  -0.000000  -0.000000  -0.000037
     8  C    0.000000  -0.000000  -0.000000  -0.000016
     9  C   -0.000000   0.000001   0.000000   0.000061
    10  C   -0.000003   0.000012   0.000000   0.000224
    11  H    0.000000   0.000000  -0.000000   0.000000
    12  H    0.000000  -0.000000   0.000000   0.000000
    13  H    0.000000   0.000000  -0.000000   0.000000
    14  H   -0.000000   0.000000  -0.000011  -0.000003
    15  H    0.000000  -0.000000   0.000000   0.000000
    16  H    0.000000   0.000000  -0.000000   0.000000
    17  H    0.000000  -0.000000   0.000000   0.000000
    18  H   -0.000000  -0.000011   0.000000  -0.000004
    19  N    0.000019  -0.000012  -0.000000  -0.003042
    20  N    0.000019  -0.000000  -0.000012  -0.002895
    21  Re   0.000031  -0.001346  -0.001343  -0.018760
    22  C    0.000764   0.000059   0.000060  -0.000167
    23  C   -0.000028  -0.003908  -0.000025  -0.001362
    24  C   -0.000028  -0.000025  -0.003902  -0.001306
    25  O   -0.002302   0.000000   0.000000   0.000000
    26  O    0.000000   0.014931   0.000000   0.000072
    27  O    0.000000   0.000000   0.014913   0.000068
    28  Cl   0.000000   0.000072   0.000068   0.042455
 Mulliken charges and spin densities:
               1          2
     1  C    0.161296   0.130389
     2  C   -0.017703   0.013923
     3  C    0.067514   0.064979
     4  C   -0.050172   0.149897
     5  C    0.158133  -0.042162
     6  C    0.161542   0.130176
     7  C   -0.017674   0.014051
     8  C    0.067501   0.064783
     9  C   -0.050021   0.149906
    10  C    0.157970  -0.042186
    11  H   -0.021747  -0.001091
    12  H   -0.019190  -0.003800
    13  H   -0.023487  -0.007240
    14  H    0.014617   0.001156
    15  H   -0.021753  -0.001095
    16  H   -0.019196  -0.003790
    17  H   -0.023467  -0.007241
    18  H    0.014683   0.001158
    19  N   -0.382424   0.160304
    20  N   -0.382297   0.160385
    21  Re   0.627598   0.015269
    22  C   -0.110524  -0.008437
    23  C   -0.152109   0.012132
    24  C   -0.151579   0.012078
    25  O   -0.141686  -0.001552
    26  O   -0.129047   0.009773
    27  O   -0.129058   0.009762
    28  Cl  -0.587717   0.018475
 Sum of Mulliken charges =  -1.00000   1.00000
 Mulliken charges and spin densities with hydrogens summed into heavy atoms:
               1          2
     1  C    0.161296   0.130389
     2  C   -0.039450   0.012832
     3  C    0.048324   0.061179
     4  C   -0.073659   0.142657
     5  C    0.172750  -0.041006
     6  C    0.161542   0.130176
     7  C   -0.039427   0.012956
     8  C    0.048305   0.060993
     9  C   -0.073488   0.142665
    10  C    0.172653  -0.041029
    19  N   -0.382424   0.160304
    20  N   -0.382297   0.160385
    21  Re   0.627598   0.015269
    22  C   -0.110524  -0.008437
    23  C   -0.152109   0.012132
    24  C   -0.151579   0.012078
    25  O   -0.141686  -0.001552
    26  O   -0.129047   0.009773
    27  O   -0.129058   0.009762
    28  Cl  -0.587717   0.018475
 Electronic spatial extent (au):  <R**2>=          15645.7622
 Charge=             -1.0000 electrons
 Dipole moment (field-independent basis, Debye):
    X=             27.2321    Y=             -6.9997    Z=              5.1561  Tot=             28.5862
 Quadrupole moment (field-independent basis, Debye-Ang):
   XX=           -290.8659   YY=           -147.0538   ZZ=           -173.2896
   XY=             39.4327   XZ=            -26.3063   YZ=              5.7005
 Traceless Quadrupole moment (field-independent basis, Debye-Ang):
   XX=            -87.1295   YY=             56.6827   ZZ=             30.4468
   XY=             39.4327   XZ=            -26.3063   YZ=              5.7005
 Octapole moment (field-independent basis, Debye-Ang**2):
  XXX=           2675.2595  YYY=           -312.6825  ZZZ=              7.4439  XYY=            658.4244
  XXY=           -308.8174  XXZ=            127.6861  XZZ=            746.2245  YZZ=           -112.0040
  YYZ=              3.2334  XYZ=            -25.2124
 Hexadecapole moment (field-independent basis, Debye-Ang**3):
 XXXX=         -24078.7980 YYYY=          -3465.4664 ZZZZ=          -1459.9810 XXXY=           2481.4180
 XXXZ=           -577.0111 YYYX=           1564.7703 YYYZ=            -17.7120 ZZZX=              5.4162
 ZZZY=            -28.7605 XXYY=          -4028.0077 XXZZ=          -4021.9912 YYZZ=           -835.7616
 XXYZ=            102.8364 YYXZ=             -6.5438 ZZXY=            523.2802
 N-N= 1.750413029903D+03 E-N=-6.725701941668D+03  KE= 1.314243024174D+03

 Atomic contributions to Alpha molecular orbitals:
 Alpha occ 60 OE=-0.417 is O25-p=0.2882 O26-p=0.2028 O27-p=0.1979 C22-p=0.1203
 Alpha occ 61 OE=-0.417 is O25-p=0.3653 C22-p=0.1516
 Alpha occ 62 OE=-0.400 is C8-p=0.1085
 Alpha occ 63 OE=-0.400 is C3-p=0.1106 H12-s=0.1003
 Alpha occ 64 OE=-0.388 is N20-p=0.1684 N19-p=0.1677 C5-p=0.1140 C10-p=0.1136
 Alpha occ 65 OE=-0.364 is C9-p=0.0940
 Alpha occ 66 OE=-0.360 is C3-p=0.0824
 Alpha occ 67 OE=-0.322 is N19-p=0.1524 N20-p=0.1513
 Alpha occ 68 OE=-0.307 is N20-p=0.1511 N19-p=0.1454
 Alpha occ 69 OE=-0.306 is C3-p=0.1703 C8-p=0.1218
 Alpha occ 70 OE=-0.297 is C1-p=0.1496 C6-p=0.1493 C10-p=0.1407 C5-p=0.1382
 Alpha occ 71 OE=-0.296 is C3-p=0.1552 C8-p=0.1527 N20-p=0.1256 N19-p=0.1201
 Alpha occ 72 OE=-0.272 is Cl28-p=0.7536
 Alpha occ 73 OE=-0.252 is Cl28-p=0.6784 Re21-d=0.1078
 Alpha occ 74 OE=-0.250 is Cl28-p=0.7510
 Alpha occ 75 OE=-0.237 is C4-p=0.1490 C9-p=0.1487 C2-p=0.1108 C7-p=0.1099
 Alpha occ 76 OE=-0.231 is Re21-d=0.6257
 Alpha occ 77 OE=-0.221 is Re21-d=0.4601 Cl28-p=0.2278
 Alpha occ 78 OE=-0.218 is Re21-d=0.4668 Cl28-p=0.1738
 Alpha occ 79 OE=-0.117 is C1-p=0.1133 C6-p=0.1132 C4-p=0.1046 C9-p=0.1045 N20-p=0.1042 N19-p=0.1041
 Alpha vir 80 OE=-0.031 is C2-p=0.1073 C5-p=0.1062 C7-p=0.1053 C10-p=0.1040
 Alpha vir 81 OE=-0.024 is C8-p=0.1562 C3-p=0.1519
 Alpha vir 82 OE=-0.019 is Re21-p=0.1440 C22-p=0.1146
 Alpha vir 83 OE=-0.019 is C23-p=0.2045 C24-p=0.1670 Re21-p=0.1618
 Alpha vir 84 OE=0.015 is C24-p=0.2389 C23-p=0.2386 C22-p=0.2234
 Alpha vir 85 OE=0.024 is C9-p=0.1563 C4-p=0.1553 C6-p=0.1419 C1-p=0.1417 C10-p=0.1129 C5-p=0.1129
 Alpha vir 86 OE=0.026 is Re21-p=0.3898 Re21-d=0.1884 C22-p=0.1697
 Alpha vir 87 OE=0.035 is Re21-p=0.6408
 Alpha vir 88 OE=0.036 is Re21-p=0.4254 C22-p=0.1376 Re21-d=0.1138
 Alpha vir 89 OE=0.047 is Re21-p=0.4132 Re21-d=0.1459 C24-p=0.1381 C23-p=0.1377
 Alpha vir 90 OE=0.054 is Re21-d=0.2306 C22-p=0.2264 Re21-p=0.1408 C24-p=0.1059 C23-p=0.1043
 Alpha vir 91 OE=0.055 is Re21-p=0.5659 Re21-d=0.1188
 Alpha vir 92 OE=0.068 is H11-s=0.2258 H15-s=0.2255 H12-s=0.1359 H16-s=0.1358
 Alpha vir 93 OE=0.080 is Re21-d=0.3398 Re21-p=0.2252 C22-s=0.1346
 Alpha vir 94 OE=0.092 is H12-s=0.2489 H16-s=0.2486 Re21-p=0.2032
 Alpha vir 95 OE=0.098 is Re21-d=0.3397
 Alpha vir 96 OE=0.100 is H15-s=0.1732 H11-s=0.1726 H14-s=0.1595 H18-s=0.1592 H13-s=0.1557 H17-s=0.1553
 Alpha vir 97 OE=0.115 is C4-p=0.1139 C9-p=0.1138 C5-p=0.1048 C10-p=0.1047 C3-p=0.1008 C8-p=0.1007
 Alpha vir 98 OE=0.122 is Re21-s=0.2527 H16-s=0.1896 H12-s=0.1853
 Alpha vir 99 OE=0.130 is H13-s=0.3105 H17-s=0.3074 H12-s=0.1537 H16-s=0.1464

 Atomic contributions to Beta  molecular orbitals:
 Beta  occ 59 OE=-0.419 is O25-p=0.2228 O26-p=0.1696 O27-p=0.1642 C22-p=0.1092
 Beta  occ 60 OE=-0.416 is O25-p=0.2787 O27-p=0.2098 O26-p=0.2039 C22-p=0.1136
 Beta  occ 61 OE=-0.409 is C6-p=0.1289 C1-p=0.1283 N19-p=0.1259 N20-p=0.1249 O25-p=0.1080
 Beta  occ 62 OE=-0.398 is C8-p=0.1108
 Beta  occ 63 OE=-0.398 is C3-p=0.1109 H12-s=0.1019
 Beta  occ 64 OE=-0.378 is N20-p=0.1504 N19-p=0.1496 C5-p=0.1265 C10-p=0.1260
 Beta  occ 65 OE=-0.363 is C9-p=0.0932
 Beta  occ 66 OE=-0.358 is C3-p=0.0819
 Beta  occ 67 OE=-0.319 is N19-p=0.1560 N20-p=0.1549
 Beta  occ 68 OE=-0.304 is N20-p=0.1657 N19-p=0.1634
 Beta  occ 69 OE=-0.295 is C8-p=0.1506 C3-p=0.1473
 Beta  occ 70 OE=-0.285 is C3-p=0.1525 C8-p=0.1417 C7-p=0.1044 N19-p=0.1032 N20-p=0.1007
 Beta  occ 71 OE=-0.284 is C5-p=0.1572 C10-p=0.1454 C6-p=0.1438 C1-p=0.1437 C9-p=0.1181 C4-p=0.1047
 Beta  occ 72 OE=-0.270 is Cl28-p=0.7224
 Beta  occ 73 OE=-0.250 is Cl28-p=0.6792
 Beta  occ 74 OE=-0.248 is Cl28-p=0.7530
 Beta  occ 75 OE=-0.231 is Re21-d=0.6266
 Beta  occ 76 OE=-0.227 is Cl28-p=0.1256 C4-p=0.1083 C9-p=0.1082 Re21-d=0.1051
 Beta  occ 77 OE=-0.219 is Re21-d=0.4687 Cl28-p=0.2053
 Beta  occ 78 OE=-0.215 is Re21-d=0.3690
 Beta  vir 79 OE=-0.063 is C1-p=0.1078 C6-p=0.1077
 Beta  vir 80 OE=-0.027 is C2-p=0.1286 C7-p=0.1273 C5-p=0.1015 C10-p=0.1002
 Beta  vir 81 OE=-0.018 is C24-p=0.1839 C23-p=0.1817 Re21-p=0.1658 C22-p=0.1009
 Beta  vir 82 OE=-0.015 is Re21-p=0.1378 C22-p=0.1341
 Beta  vir 83 OE=-0.014 is C3-p=0.1392 C5-p=0.1270 C8-p=0.1126 C2-p=0.1103 C10-p=0.1033 N20-p=0.1011
 Beta  vir 84 OE=0.017 is C22-p=0.2394 C24-p=0.2333 C23-p=0.2332
 Beta  vir 85 OE=0.026 is Re21-p=0.3929 Re21-d=0.1871 C22-p=0.1624
 Beta  vir 86 OE=0.035 is Re21-p=0.6583
 Beta  vir 87 OE=0.036 is Re21-p=0.4212 C22-p=0.1367 Re21-d=0.1146
 Beta  vir 88 OE=0.039 is C4-p=0.1743 C9-p=0.1742 C1-p=0.1477 C6-p=0.1477
 Beta  vir 89 OE=0.048 is Re21-p=0.4333 Re21-d=0.1404 C24-p=0.1341 C23-p=0.1336
 Beta  vir 90 OE=0.055 is Re21-d=0.2328 C22-p=0.2107 Re21-p=0.1252 C24-p=0.1164 C23-p=0.1154
 Beta  vir 91 OE=0.056 is Re21-p=0.5554 Re21-d=0.1224
 Beta  vir 92 OE=0.069 is H11-s=0.2288 H15-s=0.2286 H12-s=0.1355 H16-s=0.1354
 Beta  vir 93 OE=0.081 is Re21-d=0.3454 Re21-p=0.2201 C22-s=0.1373
 Beta  vir 94 OE=0.092 is H12-s=0.2503 H16-s=0.2500 Re21-p=0.2001
 Beta  vir 95 OE=0.099 is Re21-d=0.3395
 Beta  vir 96 OE=0.100 is H15-s=0.1721 H11-s=0.1714 H14-s=0.1638 H18-s=0.1634 H13-s=0.1503 H17-s=0.1502
 Beta  vir 97 OE=0.122 is Re21-s=0.2504 H16-s=0.1910 H12-s=0.1868
 Beta  vir 98 OE=0.129 is C4-p=0.1173 C9-p=0.1172
 
                          Isotropic Fermi Contact Couplings
        Atom                 a.u.       MegaHertz       Gauss      10(-4) cm-1
     1  C(13)              0.00908      10.20300       3.64069       3.40336
     2  C(13)             -0.00220      -2.47761      -0.88407      -0.82644
     3  C(13)              0.00469       5.26694       1.87938       1.75686
     4  C(13)              0.01670      18.77266       6.69855       6.26189
     5  C(13)             -0.01085     -12.19186      -4.35036      -4.06677
     6  C(13)              0.00902      10.13894       3.61783       3.38199
     7  C(13)             -0.00218      -2.45144      -0.87473      -0.81771
     8  C(13)              0.00466       5.23783       1.86899       1.74715
     9  C(13)              0.01670      18.77941       6.70096       6.26414
    10  C(13)             -0.01086     -12.20337      -4.35447      -4.07061
    11  H(1)              -0.00045      -1.99529      -0.71197      -0.66556
    12  H(1)              -0.00121      -5.38749      -1.92239      -1.79707
    13  H(1)              -0.00231     -10.31529      -3.68075      -3.44081
    14  H(1)               0.00032       1.41858       0.50619       0.47319
    15  H(1)              -0.00045      -2.00125      -0.71410      -0.66754
    16  H(1)              -0.00120      -5.37429      -1.91768      -1.79267
    17  H(1)              -0.00231     -10.31761      -3.68158      -3.44158
    18  H(1)               0.00032       1.42415       0.50817       0.47505
    19  N(14)              0.03486      11.26285       4.01886       3.75688
    20  N(14)              0.03494      11.28956       4.02840       3.76579
    21  Re(187            -0.00000      -0.00001      -0.00000      -0.00000
    22  C(13)             -0.00055      -0.62186      -0.22189      -0.20743
    23  C(13)              0.00002       0.01901       0.00678       0.00634
    24  C(13)             -0.00004      -0.03975      -0.01418      -0.01326
    25  O(17)             -0.00002       0.01490       0.00532       0.00497
    26  O(17)              0.00236      -1.42774      -0.50945      -0.47624
    27  O(17)              0.00235      -1.42391      -0.50809      -0.47496
    28  Cl(35)             0.02495      10.94033       3.90378       3.64930
 --------------------------------------------------------
       Center         ----  Spin Dipole Couplings  ----
                      3XX-RR        3YY-RR        3ZZ-RR
 --------------------------------------------------------
     1   Atom       -0.090609     -0.083570      0.174179
     2   Atom       -0.009631     -0.014698      0.024329
     3   Atom       -0.038784     -0.038504      0.077288
     4   Atom       -0.081675     -0.078902      0.160577
     5   Atom        0.019957      0.019713     -0.039670
     6   Atom       -0.086922     -0.086605      0.173527
     7   Atom       -0.017434     -0.006913      0.024347
     8   Atom       -0.038383     -0.038552      0.076936
     9   Atom       -0.080437     -0.079889      0.160326
    10   Atom        0.012769      0.026915     -0.039684
    11   Atom        0.001624      0.002248     -0.003872
    12   Atom        0.007891     -0.005986     -0.001905
    13   Atom       -0.006430      0.007522     -0.001092
    14   Atom        0.001546      0.002553     -0.004099
    15   Atom        0.003612      0.000255     -0.003867
    16   Atom       -0.004979      0.006869     -0.001890
    17   Atom       -0.004144      0.005256     -0.001112
    18   Atom        0.001770      0.002323     -0.004093
    19   Atom       -0.191755     -0.193195      0.384950
    20   Atom       -0.192142     -0.193997      0.386139
    21   Atom        0.002190      0.000360     -0.002551
    22   Atom        0.000048     -0.001527      0.001479
    23   Atom       -0.006289     -0.009419      0.015708
    24   Atom       -0.008323     -0.007310      0.015633
    25   Atom       -0.002573     -0.002066      0.004639
    26   Atom       -0.022370     -0.022377      0.044746
    27   Atom       -0.022255     -0.022426      0.044681
    28   Atom       -0.059790     -0.064265      0.124055
 --------------------------------------------------------
                        XY            XZ            YZ
 --------------------------------------------------------
     1   Atom        0.002574      0.019967     -0.014430
     2   Atom        0.004627      0.003092     -0.002222
     3   Atom       -0.000056      0.008038     -0.006650
     4   Atom        0.001185      0.015270     -0.013943
     5   Atom        0.008512     -0.003063      0.004031
     6   Atom        0.004144      0.022872     -0.013099
     7   Atom        0.000468      0.003617     -0.002220
     8   Atom       -0.000040      0.009797     -0.005441
     9   Atom        0.001554      0.019802     -0.010071
    10   Atom        0.004779     -0.004949      0.001740
    11   Atom       -0.001818     -0.000418      0.000433
    12   Atom        0.002443     -0.000474     -0.000394
    13   Atom        0.010487      0.000950     -0.000155
    14   Atom        0.000673     -0.000205      0.000472
    15   Atom       -0.000767     -0.000599      0.000203
    16   Atom       -0.004327      0.000077      0.000720
    17   Atom        0.011679      0.000739     -0.000703
    18   Atom        0.000803     -0.000516      0.000037
    19   Atom       -0.002379      0.055049     -0.039044
    20   Atom       -0.001669      0.054215     -0.031053
    21   Atom       -0.001626      0.000037      0.000013
    22   Atom       -0.001506     -0.002959      0.001811
    23   Atom       -0.000439     -0.003562     -0.002927
    24   Atom       -0.001528      0.001064      0.004357
    25   Atom        0.000506      0.002153     -0.001253
    26   Atom       -0.000087     -0.006800     -0.006645
    27   Atom       -0.000033      0.002887      0.009043
    28   Atom       -0.004667     -0.029522      0.019049
 --------------------------------------------------------


 ---------------------------------------------------------------------------------
              Anisotropic Spin Dipole Couplings in Principal Axis System
 ---------------------------------------------------------------------------------

       Atom             a.u.   MegaHertz   Gauss  10(-4) cm-1        Axes

              Baa    -0.0935   -12.553    -4.479    -4.187  0.9258 -0.3674 -0.0888
     1 C(13)  Bbb    -0.0829   -11.125    -3.970    -3.711  0.3707  0.9285  0.0233
              Bcc     0.1765    23.678     8.449     7.898  0.0739 -0.0545  0.9958
 
              Baa    -0.0177    -2.379    -0.849    -0.794 -0.5181  0.8513  0.0831
     2 C(13)  Bbb    -0.0070    -0.934    -0.333    -0.312  0.8513  0.5226 -0.0470
              Bcc     0.0247     3.313     1.182     1.105  0.0834 -0.0463  0.9954
 
              Baa    -0.0396    -5.310    -1.895    -1.771  0.8606 -0.5016 -0.0877
     3 C(13)  Bbb    -0.0386    -5.186    -1.851    -1.730  0.5046  0.8632  0.0145
              Bcc     0.0782    10.496     3.745     3.501  0.0685 -0.0568  0.9960
 
              Baa    -0.0837   -11.230    -4.007    -3.746  0.8860 -0.4566 -0.0814
     4 C(13)  Bbb    -0.0786   -10.553    -3.766    -3.520  0.4596  0.8878  0.0224
              Bcc     0.1623    21.783     7.773     7.266  0.0621 -0.0573  0.9964
 
              Baa    -0.0402    -5.390    -1.923    -1.798  0.0614 -0.0757  0.9952
     5 C(13)  Bbb     0.0118     1.585     0.566     0.529 -0.7014  0.7061  0.0970
              Bcc     0.0284     3.805     1.358     1.269  0.7101  0.7040  0.0097
 
              Baa    -0.0934   -12.533    -4.472    -4.180  0.7558 -0.6476 -0.0965
     6 C(13)  Bbb    -0.0827   -11.103    -3.962    -3.703  0.6491  0.7605 -0.0191
              Bcc     0.1761    23.635     8.434     7.884  0.0858 -0.0483  0.9951
 
              Baa    -0.0178    -2.387    -0.852    -0.796  0.9942 -0.0609 -0.0886
     7 C(13)  Bbb    -0.0070    -0.942    -0.336    -0.314  0.0666  0.9958  0.0628
              Bcc     0.0248     3.329     1.188     1.110  0.0844 -0.0683  0.9941
 
              Baa    -0.0395    -5.297    -1.890    -1.767  0.8426 -0.5300 -0.0957
     8 C(13)  Bbb    -0.0385    -5.172    -1.846    -1.725  0.5320  0.8467 -0.0052
              Bcc     0.0780    10.469     3.736     3.492  0.0838 -0.0465  0.9954
 
              Baa    -0.0837   -11.232    -4.008    -3.747  0.8166 -0.5702 -0.0898
     9 C(13)  Bbb    -0.0786   -10.554    -3.766    -3.520  0.5716  0.8205 -0.0128
              Bcc     0.1623    21.786     7.774     7.267  0.0810 -0.0409  0.9959
 
              Baa    -0.0402    -5.397    -1.926    -1.800  0.0959 -0.0326  0.9949
    10 C(13)  Bbb     0.0118     1.589     0.567     0.530  0.9517 -0.2900 -0.1012
              Bcc     0.0284     3.808     1.359     1.270  0.2918  0.9565  0.0032
 
              Baa    -0.0039    -2.091    -0.746    -0.698  0.0579 -0.0529  0.9969
    11 H(1)   Bbb     0.0001     0.049     0.018     0.016  0.7635  0.6457 -0.0101
              Bcc     0.0038     2.042     0.729     0.681 -0.6432  0.7618  0.0778
 
              Baa    -0.0064    -3.428    -1.223    -1.143 -0.1657  0.9838  0.0683
    12 H(1)   Bbb    -0.0019    -1.020    -0.364    -0.340  0.0628 -0.0586  0.9963
              Bcc     0.0083     4.448     1.587     1.484  0.9842  0.1693 -0.0520
 
              Baa    -0.0121    -6.469    -2.308    -2.158  0.8789 -0.4698 -0.0822
    13 H(1)   Bbb    -0.0010    -0.546    -0.195    -0.182  0.0621 -0.0582  0.9964
              Bcc     0.0131     7.015     2.503     2.340  0.4729  0.8808  0.0220
 
              Baa    -0.0041    -2.211    -0.789    -0.737  0.0447 -0.0747  0.9962
    14 H(1)   Bbb     0.0012     0.661     0.236     0.220  0.8983 -0.4333 -0.0728
              Bcc     0.0029     1.550     0.553     0.517  0.4371  0.8981  0.0478
 
              Baa    -0.0039    -2.091    -0.746    -0.697  0.0757 -0.0347  0.9965
    15 H(1)   Bbb     0.0001     0.047     0.017     0.016  0.2155  0.9763  0.0176
              Bcc     0.0038     2.044     0.729     0.682  0.9736 -0.2134 -0.0814
 
              Baa    -0.0064    -3.420    -1.220    -1.141  0.9477  0.3123 -0.0658
    16 H(1)   Bbb    -0.0019    -1.021    -0.364    -0.340  0.0826 -0.0409  0.9957
              Bcc     0.0083     4.441     1.585     1.481 -0.3083  0.9491  0.0646
 
              Baa    -0.0121    -6.470    -2.309    -2.158  0.8249 -0.5579 -0.0910
    17 H(1)   Bbb    -0.0010    -0.545    -0.195    -0.182  0.0820 -0.0411  0.9958
              Bcc     0.0131     7.015     2.503     2.340  0.5593  0.8289 -0.0119
 
              Baa    -0.0041    -2.209    -0.788    -0.737  0.0892 -0.0168  0.9959
    18 H(1)   Bbb     0.0012     0.658     0.235     0.219  0.8036 -0.5895 -0.0819
              Bcc     0.0029     1.551     0.553     0.517  0.5885  0.8076 -0.0390
 
              Baa    -0.1978    -7.629    -2.722    -2.545  0.8312 -0.5439 -0.1150
    19 N(14)  Bbb    -0.1950    -7.519    -2.683    -2.508  0.5479  0.8365  0.0043
              Bcc     0.3928    15.148     5.405     5.053  0.0938 -0.0666  0.9934
 
              Baa    -0.1978    -7.630    -2.723    -2.545  0.8704 -0.4808 -0.1064
    20 N(14)  Bbb    -0.1950    -7.520    -2.683    -2.508  0.4837  0.8752  0.0016
              Bcc     0.3928    15.150     5.406     5.054  0.0923 -0.0529  0.9943
 
              Baa    -0.0026    -0.314    -0.112    -0.105 -0.0116 -0.0111  0.9999
    21 Re(187 Bbb    -0.0006    -0.073    -0.026    -0.024  0.5046  0.8632  0.0154
              Bcc     0.0031     0.386     0.138     0.129  0.8633 -0.5047  0.0044
 
              Baa    -0.0024    -0.327    -0.117    -0.109  0.4793  0.8766 -0.0431
    22 C(13)  Bbb    -0.0023    -0.303    -0.108    -0.101  0.6578 -0.3263  0.6789
              Bcc     0.0047     0.631     0.225     0.210 -0.5810  0.3538  0.7330
 
              Baa    -0.0100    -1.339    -0.478    -0.447  0.2531  0.9567  0.1441
    23 C(13)  Bbb    -0.0066    -0.886    -0.316    -0.295  0.9556 -0.2704  0.1171
              Bcc     0.0166     2.224     0.794     0.742 -0.1510 -0.1081  0.9826
 
              Baa    -0.0099    -1.332    -0.475    -0.444  0.7311  0.6669 -0.1441
    24 C(13)  Bbb    -0.0065    -0.876    -0.313    -0.292 -0.6816  0.7235 -0.1095
              Bcc     0.0165     2.208     0.788     0.737  0.0312  0.1783  0.9835
 
              Baa    -0.0036     0.263     0.094     0.088  0.8199 -0.4946 -0.2883
    25 O(17)  Bbb    -0.0018     0.127     0.045     0.042  0.5151  0.8571 -0.0055
              Bcc     0.0054    -0.390    -0.139    -0.130  0.2498 -0.1440  0.9575
 
              Baa    -0.0238     1.721     0.614     0.574  0.7059  0.6949  0.1374
    26 O(17)  Bbb    -0.0223     1.613     0.575     0.538 -0.7015  0.7127 -0.0005
              Bcc     0.0461    -3.333    -1.189    -1.112 -0.0983 -0.0960  0.9905
 
              Baa    -0.0237     1.718     0.613     0.573  0.2871  0.9480 -0.1374
    27 O(17)  Bbb    -0.0223     1.610     0.575     0.537  0.9570 -0.2901 -0.0021
              Bcc     0.0460    -3.328    -1.188    -1.110  0.0418  0.1309  0.9905
 
              Baa    -0.0672    -3.517    -1.255    -1.173  0.5170  0.8560 -0.0054
    28 Cl(35) Bbb    -0.0634    -3.320    -1.185    -1.107  0.8419 -0.5073  0.1841
              Bcc     0.1306     6.837     2.440     2.281 -0.1548  0.0998  0.9829
 

 ---------------------------------------------------------------------------------

 No NMR shielding tensors so no spin-rotation constants.
 Leave Link  601 at Tue Mar 24 18:21:36 2026, MaxMem=  2684354560 cpu:               7.2 elap:               0.3
 (Enter /home/programes/qq/gaussian/g16.A03/g16/l9999.exe)
 1\1\GINC-MAGINET229\SP\UB3LYP\Gen\C13H8Cl1N2O3Re1(1-,2)\SOLE\24-Mar-20
 26\0\\#p b3lyp/gen EmpiricalDispersion=GD3BJ pseudo=read scrf=(solvent
 =n,n-DiMethylFormamide,pcm,read) nosymm pop=(Orbitals=20) geom=checkpo
 int guess=read\\Title Card Required\\-1,2\C,0,-2.3019429894,0.27674227
 14,0.0311456761\C,0,-0.8841385197,0.3563913625,-0.0587353974\C,0,-0.24
 49661486,1.5749019965,-0.0350603258\C,0,-1.0194881994,2.7608767505,0.0
 843827832\C,0,-2.3919654674,2.6370888112,0.1682837387\C,0,-3.040262734
 7,-0.9464644159,0.0274555576\C,0,-2.4505356238,-2.237100024,-0.0776735
 288\C,0,-3.2308465113,-3.3706322784,-0.0664350917\C,0,-4.6408307153,-3
 .239313288,0.0570331927\C,0,-5.1702138296,-1.9682471536,0.1571383273\H
 ,0,-0.3018028089,-0.5603845933,-0.1460439671\H,0,0.8430796732,1.626876
 1099,-0.1047753861\H,0,-0.5583458281,3.7478288906,0.1091608084\H,0,-3.
 0255421154,3.52051744,0.2609333488\H,0,-1.3684249741,-2.3239017357,-0.
 1698125447\H,0,-2.7702397191,-4.3566458197,-0.1501693855\H,0,-5.299505
 2495,-4.1072188279,0.0717733187\H,0,-6.2469404842,-1.8203380191,0.2531
 415487\N,0,-4.4261722096,-0.8353867527,0.1412164442\N,0,-3.0474803592,
 1.4509478378,0.1405814185\Re,0,-5.242016177,1.2139359864,0.2301035949\
 C,0,-5.3220984926,1.2701318163,2.1102910587\C,0,-7.0984755337,0.746921
 8498,0.1325968806\C,0,-5.696069131,3.0734782425,0.1256631349\O,0,-5.36
 20287547,1.2982300009,3.2777583968\O,0,-8.2168547838,0.425824472,0.065
 9456823\O,0,-5.9334724561,4.2123734282,0.0555405535\Cl,0,-5.045419857,
 1.0675756419,-2.5484698375\\Version=ES64L-G16RevA.03\HF=-1375.173552\S
 2=0.757159\S2-1=0.\S2A=0.750045\RMSD=7.000e-09\Dipole=2.8098389,-1.669
 814,2.0934331\Quadrupole=-64.7786553,42.1421788,22.6364766,29.3172561,
 -19.5580874,4.2381833\PG=C01 [X(C13H8Cl1N2O3Re1)]\\@


 THE REAL VOYAGE OF DISCOVERY CONSISTS NOT IN SEEKING NEW LANDSCAPES 
 BUT IN HAVING NEW EYES.
                                                    -- MARCEL PROUST
 Job cpu time:       0 days  0 hours  4 minutes 23.0 seconds.
 Elapsed time:       0 days  0 hours  0 minutes 10.0 seconds.
 File lengths (MBytes):  RWF=    223 Int=      0 D2E=      0 Chk=     24 Scr=      1
 Normal termination of Gaussian 16 at Tue Mar 24 18:21:36 2026.
