 Set GAUSS_PDEF to "32".
 Set GAUSS_WDEF to "maginet227".
 Entering Gaussian System, Link 0=g16
 Initial command:
 /home/programes/qq/gaussian/g16.A03/g16/l1.exe "/scratch/108210/Gau-4259.inp" -scrdir="/scratch/108210/"
 Default linda workers: maginet227
 Default is to use  32 SMP processors on each worker.
 Entering Link 1 = /home/programes/qq/gaussian/g16.A03/g16/l1.exe PID=      4260.
  
 Copyright (c) 1988,1990,1992,1993,1995,1998,2003,2009,2016,
            Gaussian, Inc.  All Rights Reserved.
  
 This is part of the Gaussian(R) 16 program.  It is based on
 the Gaussian(R) 09 system (copyright 2009, Gaussian, Inc.),
 the Gaussian(R) 03 system (copyright 2003, Gaussian, Inc.),
 the Gaussian(R) 98 system (copyright 1998, Gaussian, Inc.),
 the Gaussian(R) 94 system (copyright 1995, Gaussian, Inc.),
 the Gaussian 92(TM) system (copyright 1992, Gaussian, Inc.),
 the Gaussian 90(TM) system (copyright 1990, Gaussian, Inc.),
 the Gaussian 88(TM) system (copyright 1988, Gaussian, Inc.),
 the Gaussian 86(TM) system (copyright 1986, Carnegie Mellon
 University), and the Gaussian 82(TM) system (copyright 1983,
 Carnegie Mellon University). Gaussian is a federally registered
 trademark of Gaussian, Inc.
  
 This software contains proprietary and confidential information,
 including trade secrets, belonging to Gaussian, Inc.
  
 This software is provided under written license and may be
 used, copied, transmitted, or stored only in accord with that
 written license.
  
 The following legend is applicable only to US Government
 contracts under FAR:
  
                    RESTRICTED RIGHTS LEGEND
  
 Use, reproduction and disclosure by the US Government is
 subject to restrictions as set forth in subparagraphs (a)
 and (c) of the Commercial Computer Software - Restricted
 Rights clause in FAR 52.227-19.
  
 Gaussian, Inc.
 340 Quinnipiac St., Bldg. 40, Wallingford CT 06492
  
  
 ---------------------------------------------------------------
 Warning -- This program may not be used in any manner that
 competes with the business of Gaussian, Inc. or will provide
 assistance to any competitor of Gaussian, Inc.  The licensee
 of this program is prohibited from giving any competitor of
 Gaussian, Inc. access to this program.  By using this program,
 the user acknowledges that Gaussian, Inc. is engaged in the
 business of creating and licensing software in the field of
 computational chemistry and represents and warrants to the
 licensee that it is not a competitor of Gaussian, Inc. and that
 it will not use this program in any manner prohibited above.
 ---------------------------------------------------------------
  

 Cite this work as:
 Gaussian 16, Revision A.03,
 M. J. Frisch, G. W. Trucks, H. B. Schlegel, G. E. Scuseria, 
 M. A. Robb, J. R. Cheeseman, G. Scalmani, V. Barone, 
 G. A. Petersson, H. Nakatsuji, X. Li, M. Caricato, A. V. Marenich, 
 J. Bloino, B. G. Janesko, R. Gomperts, B. Mennucci, H. P. Hratchian, 
 J. V. Ortiz, A. F. Izmaylov, J. L. Sonnenberg, D. Williams-Young, 
 F. Ding, F. Lipparini, F. Egidi, J. Goings, B. Peng, A. Petrone, 
 T. Henderson, D. Ranasinghe, V. G. Zakrzewski, J. Gao, N. Rega, 
 G. Zheng, W. Liang, M. Hada, M. Ehara, K. Toyota, R. Fukuda, 
 J. Hasegawa, M. Ishida, T. Nakajima, Y. Honda, O. Kitao, H. Nakai, 
 T. Vreven, K. Throssell, J. A. Montgomery, Jr., J. E. Peralta, 
 F. Ogliaro, M. J. Bearpark, J. J. Heyd, E. N. Brothers, K. N. Kudin, 
 V. N. Staroverov, T. A. Keith, R. Kobayashi, J. Normand, 
 K. Raghavachari, A. P. Rendell, J. C. Burant, S. S. Iyengar, 
 J. Tomasi, M. Cossi, J. M. Millam, M. Klene, C. Adamo, R. Cammi, 
 J. W. Ochterski, R. L. Martin, K. Morokuma, O. Farkas, 
 J. B. Foresman, and D. J. Fox, Gaussian, Inc., Wallingford CT, 2016.
 
 ******************************************
 Gaussian 16:  ES64L-G16RevA.03 25-Dec-2016
                24-Mar-2026 
 ******************************************
 %mem=20GB
 %chk=re-bpy-co3-cl_eq.chk
 SetLPE:    new flags="-opt 'Tsnet.Node.lindarsharg: ssh'  -nodelist 'maginet227' -env GAUSS_MDEF=2684354560 -env GAUSS_EXEDIR="/home/programes/qq/gaussian/g16.A03/g16/bsd:/home/programes/qq/gaussian/g16.A03/g16""
 Will use up to    1 processors via Linda.
 ----------------------------------------------------------------------
 #p b3lyp/gen EmpiricalDispersion=GD3BJ pseudo=read scrf=(solvent=n,n-D
 iMethylFormamide,pcm,read) nosymm pop=(Orbitals=20) geom=checkpoint gu
 ess=read
 ----------------------------------------------------------------------
 1/29=2,38=1,40=2,172=1/1;
 2/12=2,15=1,40=1/2;
 3/5=7,11=2,14=-4,16=1,17=8,25=1,30=1,70=2203,72=148,74=-5,116=-2,124=41/1,2,3;
 4/5=1/1;
 5/5=2,38=6,53=148/2;
 6/7=2,8=2,9=2,10=2,28=1,96=20/1;
 99/5=1,9=1/99;
 Leave Link    1 at Tue Mar 24 18:23:09 2026, MaxMem=  2684354560 cpu:               0.9 elap:               0.0
 (Enter /home/programes/qq/gaussian/g16.A03/g16/l101.exe)
 -------------------
 Title Card Required
 -------------------
 Structure from the checkpoint file:  "re-bpy-co3-cl_eq.chk"
 Charge = -1 Multiplicity = 2
 Redundant internal coordinates found in file.  (old form).
 C,0,-2.2880266509,0.2988652842,0.0311475714
 C,0,-0.8924967331,0.3393964159,-0.0631217962
 C,0,-0.2356121312,1.5672969524,-0.0421086541
 C,0,-0.9874220774,2.7357501852,0.0764625776
 C,0,-2.371562948,2.6275987672,0.1654333467
 C,0,-3.0539644551,-0.9697512511,0.0265230483
 C,0,-2.439795453,-2.2225567073,-0.078289034
 C,0,-3.2199410535,-3.3762027767,-0.0659977548
 C,0,-4.6039749221,-3.2564189475,0.0551692196
 C,0,-5.1531498563,-1.9820942702,0.1547353178
 H,0,-0.3171354464,-0.5792141707,-0.1527305196
 H,0,0.8516207263,1.6072938805,-0.1160557831
 H,0,-0.5186464222,3.7189782436,0.0994615959
 H,0,-3.0011318228,3.5118097425,0.2573895377
 H,0,-1.359121573,-2.3020972057,-0.1695088857
 H,0,-2.7487260257,-4.35615048,-0.1486646735
 H,0,-5.2552692791,-4.1296382501,0.0719772943
 H,0,-6.2287935947,-1.8377918561,0.2490688572
 N,0,-4.4036237695,-0.865277818,0.1383537565
 N,0,-3.0101881008,1.4440431517,0.1416537733
 Re,0,-5.2988952352,1.248895156,0.1911892607
 C,0,-5.3528335234,1.2810997004,2.0923045513
 C,0,-7.1521006114,0.7988986006,0.1184802738
 C,0,-5.7688714708,3.0973576167,0.1181086182
 O,0,-5.3774445578,1.2959013272,3.2554192347
 O,0,-8.2697872937,0.4868504537,0.0658669455
 O,0,-6.0169925226,4.2308828804,0.0645410065
 Cl,0,-5.0191131966,1.0812853751,-2.3938386862
 Recover connectivity data from disk.
 ITRead=  0  0  0  0  0  0  0  0  0  0  0  0  0  0  0  0  0  0  0  0
 ITRead=  0  0  0  0  0  0  0  0
 MicOpt= -1 -1 -1 -1 -1 -1 -1 -1 -1 -1 -1 -1 -1 -1 -1 -1 -1 -1 -1 -1
 MicOpt= -1 -1 -1 -1 -1 -1 -1 -1
                           ----------------------------
                           !    Current Parameters    !
                           ! (Angstroms and Degrees)  !
 --------------------------                            --------------------------
 ! Name  Definition              Value                                          !
 --------------------------------------------------------------------------------
 ! R1    R(1,2)                  1.3993                                         !
 ! R2    R(1,6)                  1.4819                                         !
 ! R3    R(1,20)                 1.3584                                         !
 ! R4    R(2,3)                  1.3927                                         !
 ! R5    R(2,11)                 1.0876                                         !
 ! R6    R(3,4)                  1.3945                                         !
 ! R7    R(3,12)                 1.0905                                         !
 ! R8    R(4,5)                  1.3912                                         !
 ! R9    R(4,13)                 1.0895                                         !
 ! R10   R(5,14)                 1.0893                                         !
 ! R11   R(5,20)                 1.3451                                         !
 ! R12   R(6,7)                  1.3992                                         !
 ! R13   R(6,19)                 1.3583                                         !
 ! R14   R(7,8)                  1.3927                                         !
 ! R15   R(7,15)                 1.0874                                         !
 ! R16   R(8,9)                  1.3945                                         !
 ! R17   R(8,16)                 1.0905                                         !
 ! R18   R(9,10)                 1.3912                                         !
 ! R19   R(9,17)                 1.0895                                         !
 ! R20   R(10,18)                1.0894                                         !
 ! R21   R(10,19)                1.3451                                         !
 ! R22   R(19,21)                2.2965                                         !
 ! R23   R(20,21)                2.2975                                         !
 ! R24   R(21,22)                1.9022                                         !
 ! R25   R(21,23)                1.9084                                         !
 ! R26   R(21,24)                1.9087                                         !
 ! R27   R(21,28)                2.6055                                         !
 ! R28   R(22,25)                1.1635                                         !
 ! R29   R(23,26)                1.1616                                         !
 ! R30   R(24,27)                1.1616                                         !
 ! A1    A(2,1,6)              122.6871                                         !
 ! A2    A(2,1,20)             120.7484                                         !
 ! A3    A(6,1,20)             116.5631                                         !
 ! A4    A(1,2,3)              119.6635                                         !
 ! A5    A(1,2,11)             120.5754                                         !
 ! A6    A(3,2,11)             119.7611                                         !
 ! A7    A(2,3,4)              119.0616                                         !
 ! A8    A(2,3,12)             120.1036                                         !
 ! A9    A(4,3,12)             120.8347                                         !
 ! A10   A(3,4,5)              118.4698                                         !
 ! A11   A(3,4,13)             121.736                                          !
 ! A12   A(5,4,13)             119.7942                                         !
 ! A13   A(4,5,14)             121.1515                                         !
 ! A14   A(4,5,20)             122.6599                                         !
 ! A15   A(14,5,20)            116.1885                                         !
 ! A16   A(1,6,7)              122.6747                                         !
 ! A17   A(1,6,19)             116.5812                                         !
 ! A18   A(7,6,19)             120.7431                                         !
 ! A19   A(6,7,8)              119.6789                                         !
 ! A20   A(6,7,15)             120.5306                                         !
 ! A21   A(8,7,15)             119.7905                                         !
 ! A22   A(7,8,9)              119.0502                                         !
 ! A23   A(7,8,16)             120.1091                                         !
 ! A24   A(9,8,16)             120.8406                                         !
 ! A25   A(8,9,10)             118.4698                                         !
 ! A26   A(8,9,17)             121.7231                                         !
 ! A27   A(10,9,17)            119.8071                                         !
 ! A28   A(9,10,18)            121.1521                                         !
 ! A29   A(9,10,19)            122.6628                                         !
 ! A30   A(18,10,19)           116.185                                          !
 ! A31   A(6,19,10)            119.3942                                         !
 ! A32   A(6,19,21)            117.3907                                         !
 ! A33   A(10,19,21)           123.1507                                         !
 ! A34   A(1,20,5)             119.396                                          !
 ! A35   A(1,20,21)            117.3704                                         !
 ! A36   A(5,20,21)            123.1834                                         !
 ! A37   A(19,21,20)            71.9022                                         !
 ! A38   A(19,21,22)            92.845                                          !
 ! A39   A(19,21,23)            99.2422                                         !
 ! A40   A(19,21,28)            82.8823                                         !
 ! A41   A(20,21,22)            92.7718                                         !
 ! A42   A(20,21,24)            99.3347                                         !
 ! A43   A(20,21,28)            82.9408                                         !
 ! A44   A(22,21,23)            90.8328                                         !
 ! A45   A(22,21,24)            90.8531                                         !
 ! A46   A(23,21,24)            89.3004                                         !
 ! A47   A(23,21,28)            92.9409                                         !
 ! A48   A(24,21,28)            92.9091                                         !
 ! A49   L(19,21,24,20,-1)     171.2368                                         !
 ! A50   L(20,21,23,19,-1)     171.1443                                         !
 ! A51   L(22,21,28,19,-1)     175.7274                                         !
 ! A52   L(21,22,25,13,-1)     179.7437                                         !
 ! A53   L(21,23,26,9,-1)      178.0405                                         !
 ! A54   L(21,24,27,4,-1)      178.0737                                         !
 ! A55   L(19,21,24,20,-2)     176.5891                                         !
 ! A56   L(20,21,23,19,-2)     183.2965                                         !
 ! A57   L(22,21,28,19,-2)     183.1457                                         !
 ! A58   L(21,22,25,13,-2)     180.4327                                         !
 ! A59   L(21,23,26,9,-2)      180.3772                                         !
 ! A60   L(21,24,27,4,-2)      179.5745                                         !
 ! D1    D(6,1,2,3)           -179.4942                                         !
 ! D2    D(6,1,2,11)             0.515                                          !
 ! D3    D(20,1,2,3)             0.0662                                         !
 ! D4    D(20,1,2,11)         -179.9246                                         !
 ! D5    D(2,1,6,7)             -0.2842                                         !
 ! D6    D(2,1,6,19)           179.3342                                         !
 ! D7    D(20,1,6,7)          -179.8619                                         !
 ! D8    D(20,1,6,19)           -0.2434                                         !
 ! D9    D(2,1,20,5)            -0.256                                          !
 ! D10   D(2,1,20,21)          177.2501                                         !
 ! D11   D(6,1,20,5)           179.3303                                         !
 ! D12   D(6,1,20,21)           -3.1635                                         !
 ! D13   D(1,2,3,4)              0.1593                                         !
 ! D14   D(1,2,3,12)          -179.942                                          !
 ! D15   D(11,2,3,4)          -179.8498                                         !
 ! D16   D(11,2,3,12)            0.0489                                         !
 ! D17   D(2,3,4,5)             -0.1927                                         !
 ! D18   D(2,3,4,13)           179.8721                                         !
 ! D19   D(12,3,4,5)           179.9093                                         !
 ! D20   D(12,3,4,13)           -0.0258                                         !
 ! D21   D(3,4,5,14)          -179.8812                                         !
 ! D22   D(3,4,5,20)             0.0031                                         !
 ! D23   D(13,4,5,14)            0.0552                                         !
 ! D24   D(13,4,5,20)          179.9396                                         !
 ! D25   D(4,5,20,1)             0.2232                                         !
 ! D26   D(4,5,20,21)         -177.1305                                         !
 ! D27   D(14,5,20,1)         -179.8871                                         !
 ! D28   D(14,5,20,21)           2.7592                                         !
 ! D29   D(1,6,7,8)            179.5103                                         !
 ! D30   D(1,6,7,15)            -0.5104                                         !
 ! D31   D(19,6,7,8)            -0.0927                                         !
 ! D32   D(19,6,7,15)          179.8866                                         !
 ! D33   D(1,6,19,10)         -179.2934                                         !
 ! D34   D(1,6,19,21)            3.5327                                         !
 ! D35   D(7,6,19,10)            0.333                                          !
 ! D36   D(7,6,19,21)         -176.841                                          !
 ! D37   D(6,7,8,9)             -0.1866                                         !
 ! D38   D(6,7,8,16)           179.9138                                         !
 ! D39   D(15,7,8,9)           179.8339                                         !
 ! D40   D(15,7,8,16)           -0.0657                                         !
 ! D41   D(7,8,9,10)             0.2228                                         !
 ! D42   D(7,8,9,17)          -179.8508                                         !
 ! D43   D(16,8,9,10)         -179.8783                                         !
 ! D44   D(16,8,9,17)            0.0481                                         !
 ! D45   D(8,9,10,18)          179.8786                                         !
 ! D46   D(8,9,10,19)            0.018                                          !
 ! D47   D(17,9,10,18)          -0.0492                                         !
 ! D48   D(17,9,10,19)        -179.9098                                         !
 ! D49   D(9,10,19,6)           -0.2983                                         !
 ! D50   D(9,10,19,21)         176.7045                                         !
 ! D51   D(18,10,19,6)         179.8347                                         !
 ! D52   D(18,10,19,21)         -3.1625                                         !
 ! D53   D(6,19,21,20)          -3.767                                          !
 ! D54   D(6,19,21,22)         -95.7554                                         !
 ! D55   D(6,19,21,23)         172.9364                                         !
 ! D56   D(6,19,21,28)          81.0989                                         !
 ! D57   D(10,19,21,20)        179.174                                          !
 ! D58   D(10,19,21,22)         87.1856                                         !
 ! D59   D(10,19,21,23)         -4.1226                                         !
 ! D60   D(10,19,21,28)        -95.9601                                         !
 ! D61   D(1,20,21,19)           3.6319                                         !
 ! D62   D(1,20,21,22)          95.7212                                         !
 ! D63   D(1,20,21,24)        -172.9572                                         !
 ! D64   D(1,20,21,28)         -81.1537                                         !
 ! D65   D(5,20,21,19)        -178.9643                                         !
 ! D66   D(5,20,21,22)         -86.875                                          !
 ! D67   D(5,20,21,24)           4.4466                                         !
 ! D68   D(5,20,21,28)          96.2501                                         !
 --------------------------------------------------------------------------------
 NAtoms=     28 NQM=       28 NQMF=       0 NMMI=      0 NMMIF=      0
                NMic=       0 NMicF=      0.
                    Isotopes and Nuclear Properties:
 (Nuclear quadrupole moments (NQMom) in fm**2, nuclear magnetic moments (NMagM)
  in nuclear magnetons)

  Atom         1           2           3           4           5           6           7           8           9          10
 IAtWgt=          12          12          12          12          12          12          12          12          12          12
 AtmWgt=  12.0000000  12.0000000  12.0000000  12.0000000  12.0000000  12.0000000  12.0000000  12.0000000  12.0000000  12.0000000
 NucSpn=           0           0           0           0           0           0           0           0           0           0
 AtZEff=   3.6000000   3.6000000   3.6000000   3.6000000   3.6000000   3.6000000   3.6000000   3.6000000   3.6000000   3.6000000
 NQMom=    0.0000000   0.0000000   0.0000000   0.0000000   0.0000000   0.0000000   0.0000000   0.0000000   0.0000000   0.0000000
 NMagM=    0.0000000   0.0000000   0.0000000   0.0000000   0.0000000   0.0000000   0.0000000   0.0000000   0.0000000   0.0000000
 AtZNuc=   6.0000000   6.0000000   6.0000000   6.0000000   6.0000000   6.0000000   6.0000000   6.0000000   6.0000000   6.0000000

  Atom        11          12          13          14          15          16          17          18          19          20
 IAtWgt=           1           1           1           1           1           1           1           1          14          14
 AtmWgt=   1.0078250   1.0078250   1.0078250   1.0078250   1.0078250   1.0078250   1.0078250   1.0078250  14.0030740  14.0030740
 NucSpn=           1           1           1           1           1           1           1           1           2           2
 AtZEff=   1.0000000   1.0000000   1.0000000   1.0000000   1.0000000   1.0000000   1.0000000   1.0000000   4.5500000   4.5500000
 NQMom=    0.0000000   0.0000000   0.0000000   0.0000000   0.0000000   0.0000000   0.0000000   0.0000000   2.0440000   2.0440000
 NMagM=    2.7928460   2.7928460   2.7928460   2.7928460   2.7928460   2.7928460   2.7928460   2.7928460   0.4037610   0.4037610
 AtZNuc=   1.0000000   1.0000000   1.0000000   1.0000000   1.0000000   1.0000000   1.0000000   1.0000000   7.0000000   7.0000000

  Atom        21          22          23          24          25          26          27          28
 IAtWgt=         187          12          12          12          16          16          16          35
 AtmWgt= 186.9560000  12.0000000  12.0000000  12.0000000  15.9949146  15.9949146  15.9949146  34.9688527
 NucSpn=           5           0           0           0           0           0           0           3
 AtZEff=1099.5000000   3.6000000   3.6000000   3.6000000   5.6000000   5.6000000   5.6000000  14.2400000
 NQMom=  207.0000000   0.0000000   0.0000000   0.0000000   0.0000000   0.0000000   0.0000000  -8.1650000
 NMagM=    3.2197000   0.0000000   0.0000000   0.0000000   0.0000000   0.0000000   0.0000000   0.8218740
 AtZNuc=  75.0000000   6.0000000   6.0000000   6.0000000   8.0000000   8.0000000   8.0000000  17.0000000
 Leave Link  101 at Tue Mar 24 18:23:09 2026, MaxMem=  2684354560 cpu:               3.4 elap:               0.1
 (Enter /home/programes/qq/gaussian/g16.A03/g16/l202.exe)
                          Input orientation:                          
 ---------------------------------------------------------------------
 Center     Atomic      Atomic             Coordinates (Angstroms)
 Number     Number       Type             X           Y           Z
 ---------------------------------------------------------------------
      1          6           0       -2.288027    0.298865    0.031148
      2          6           0       -0.892497    0.339396   -0.063122
      3          6           0       -0.235612    1.567297   -0.042109
      4          6           0       -0.987422    2.735750    0.076463
      5          6           0       -2.371563    2.627599    0.165433
      6          6           0       -3.053964   -0.969751    0.026523
      7          6           0       -2.439795   -2.222557   -0.078289
      8          6           0       -3.219941   -3.376203   -0.065998
      9          6           0       -4.603975   -3.256419    0.055169
     10          6           0       -5.153150   -1.982094    0.154735
     11          1           0       -0.317135   -0.579214   -0.152731
     12          1           0        0.851621    1.607294   -0.116056
     13          1           0       -0.518646    3.718978    0.099462
     14          1           0       -3.001132    3.511810    0.257390
     15          1           0       -1.359122   -2.302097   -0.169509
     16          1           0       -2.748726   -4.356150   -0.148665
     17          1           0       -5.255269   -4.129638    0.071977
     18          1           0       -6.228794   -1.837792    0.249069
     19          7           0       -4.403624   -0.865278    0.138354
     20          7           0       -3.010188    1.444043    0.141654
     21         75           0       -5.298895    1.248895    0.191189
     22          6           0       -5.352834    1.281100    2.092305
     23          6           0       -7.152101    0.798899    0.118480
     24          6           0       -5.768871    3.097358    0.118109
     25          8           0       -5.377445    1.295901    3.255419
     26          8           0       -8.269787    0.486850    0.065867
     27          8           0       -6.016993    4.230883    0.064541
     28         17           0       -5.019113    1.081285   -2.393839
 ---------------------------------------------------------------------
                    Distance matrix (angstroms):
                    1          2          3          4          5
     1  C    0.000000
     2  C    1.399297   0.000000
     3  C    2.413854   1.392723   0.000000
     4  C    2.762614   2.402292   1.394475   0.000000
     5  C    2.334097   2.734181   2.393658   1.391208   0.000000
     6  C    1.481914   2.528606   3.792682   4.243092   3.664136
     7  C    2.528355   2.992986   4.384373   5.168960   4.856755
     8  C    3.792628   4.384368   5.774511   6.508487   6.067861
     9  C    4.243140   5.169038   6.508478   6.999000   6.294242
    10  C    3.664285   4.856948   6.067875   6.294241   5.383921
    11  H    2.165467   1.087619   2.150905   3.389809   3.821721
    12  H    3.404562   2.156922   1.090478   2.166231   3.392517
    13  H    3.851304   3.404081   2.174829   1.089503   2.151456
    14  H    3.298896   3.822731   3.393955   2.165648   1.089331
    15  H    2.769139   2.684501   4.031218   5.057526   5.043721
    16  H    4.681212   5.049858   6.435396   7.310809   7.000976
    17  H    5.330839   6.246944   7.593750   8.083817   7.347431
    18  H    4.488033   5.771800   6.899104   6.958380   5.901266
    19  N    2.417121   3.717505   4.829318   4.964037   4.041063
    20  N    1.358367   2.397247   2.783385   2.400904   1.345069
    21  Re   3.161250   4.506463   5.078646   4.562094   3.235856
    22  C    3.821805   5.042546   5.551899   5.023589   3.796560
    23  C    4.890488   6.279073   6.960893   6.461921   5.118583
    24  C    4.467147   5.605196   5.743145   4.795284   3.429959
    25  O    4.575425   5.660598   6.114392   5.608139   4.511846
    26  O    5.984814   7.379891   8.107219   7.621713   6.275489
    27  O    5.419139   6.435870   6.366351   5.247108   3.983699
    28  Cl   3.735180   4.797041   5.352450   5.009409   3.993805
                    6          7          8          9         10
     6  C    0.000000
     7  C    1.399182   0.000000
     8  C    2.413942   1.392723   0.000000
     9  C    2.762644   2.402156   1.394482   0.000000
    10  C    2.334064   2.733938   2.393649   1.391190   0.000000
    11  H    2.770358   2.685480   4.031991   5.058423   5.044764
    12  H    4.681355   5.050010   6.435477   7.310851   7.001022
    13  H    5.330792   6.246939   7.593811   8.083813   7.347374
    14  H    4.487815   5.771545   6.899070   6.958370   5.901246
    15  H    2.164732   1.087430   2.151062   3.389732   3.821281
    16  H    3.404638   2.156992   1.090493   2.166312   3.392558
    17  H    3.851324   3.403885   2.174687   1.089486   2.151563
    18  H    3.298873   3.822527   3.393990   2.165672   1.089372
    19  N    1.358308   2.397032   2.783453   2.400962   1.345116
    20  N    2.416935   3.717214   4.829274   4.964069   4.041148
    21  Re   3.160573   4.505336   5.077374   4.560622   3.234480
    22  C    3.823425   5.047066   5.558594   5.029889   3.800327
    23  C    4.464448   5.601226   5.738239   4.789839   3.425061
    24  C    4.890857   6.278758   6.959736   6.459986   5.116765
    25  O    4.577938   5.667710   6.124964   5.618138   4.517721
    26  O    5.415537   6.430433   6.359364   5.239309   3.977061
    27  O    5.985614   7.379947   8.106065   7.619475   6.273392
    28  Cl   3.731851   4.788530   5.340886   4.998566   3.987166
                   11         12         13         14         15
    11  H    0.000000
    12  H    2.479547   0.000000
    13  H    4.310298   2.526517   0.000000
    14  H    4.910042   4.313971   2.496116   0.000000
    15  H    2.013540   4.491501   6.085400   6.056398   0.000000
    16  H    4.491981   6.966077   8.381081   7.882473   2.480034
    17  H    6.086146   8.381041   9.167177   7.969143   4.310242
    18  H    6.057488   7.882525   7.969056   6.247888   4.909633
    19  N    4.106817   5.813427   6.009157   4.597831   3.380565
    20  N    3.381237   3.873839   3.374150   2.071023   4.105656
    21  Re   5.317725   6.168606   5.381496   3.225660   5.316151
    22  C    5.818866   6.593824   5.769232   3.724712   5.822786
    23  C    6.977786   8.047861   7.247754   4.960819   6.577060
    24  C    6.581182   6.790143   5.286929   2.802062   6.977301
    25  O    6.382654   7.089786   6.280071   4.421006   6.389260
    26  O    8.026765   9.191767   8.398093   6.078305   7.455933
    27  O    7.461408   7.354841   5.522235   3.106392   8.026853
    28  Cl   5.467030   6.319058   5.781710   4.124162   5.458064
                   16         17         18         19         20
    16  H    0.000000
    17  H    2.526410   0.000000
    18  H    4.314069   2.496331   0.000000
    19  N    3.873920   3.374278   2.071059   0.000000
    20  N    5.813338   6.009257   4.597978   2.697154   0.000000
    21  Re   6.167285   5.380031   3.224236   2.296526   2.297546
    22  C    6.601660   5.776446   3.727239   3.053827   3.052798
    23  C    6.784954   5.281156   2.796728   3.213099   4.191919
    24  C    8.046566   7.245370   4.958264   4.191276   3.216261
    25  O    7.102368   6.291717   4.425265   3.916008   3.914254
    26  O    7.347299   5.513558   3.098900   4.096428   5.346526
    27  O    9.190439   8.395153   6.075173   5.345957   4.100402
    28  Cl   6.305646   5.769726   4.119381   3.252681   3.255164
                   21         22         23         24         25
    21  Re   0.000000
    22  C    1.902153   0.000000
    23  C    1.908443   2.714012   0.000000
    24  C    1.908673   2.714651   2.682580   0.000000
    25  O    3.065597   1.163469   3.638242   3.638843   0.000000
    26  O    3.069628   3.639492   1.161622   3.615530   4.381033
    27  O    3.069846   3.640625   3.615231   1.161599   4.382333
    28  Cl   2.605521   4.502974   3.307737   3.307048   5.664678
                   26         27         28
    26  O    0.000000
    27  O    4.369538   0.000000
    28  Cl   4.119513   4.118174   0.000000
 Symmetry turned off by external request.
 Stoichiometry    C13H8ClN2O3Re(1-,2)
 Framework group  C1[X(C13H8ClN2O3Re)]
 Deg. of freedom    78
 Full point group                 C1      NOp   1
 Rotational constants (GHZ):           0.3384337           0.2666528           0.1987896
 Leave Link  202 at Tue Mar 24 18:23:09 2026, MaxMem=  2684354560 cpu:               0.1 elap:               0.0
 (Enter /home/programes/qq/gaussian/g16.A03/g16/l301.exe)
 General basis read from cards:  (5D, 7F)
 Centers:      21
 lanl2dz
 F 1 1.00
     Exponent=  8.6900000000D-01 Coefficients=  1.0000000000D+00
 ****
 Centers:       1      2      3      4      5      6      7      8      9     10
 Centers:      22     23     24     25     26     27     19     20     11     12
 Centers:      13     14     15     16     17     18     28
 cc-pVDZ
 ****
 ======================================================================================================
                                       Pseudopotential Parameters
 ======================================================================================================
  Center     Atomic      Valence      Angular      Power
  Number     Number     Electrons     Momentum     of R      Exponent        Coefficient   SO-Coeffient
 ======================================================================================================
    1          6
                                   No pseudopotential on this center.
    2          6
                                   No pseudopotential on this center.
    3          6
                                   No pseudopotential on this center.
    4          6
                                   No pseudopotential on this center.
    5          6
                                   No pseudopotential on this center.
    6          6
                                   No pseudopotential on this center.
    7          6
                                   No pseudopotential on this center.
    8          6
                                   No pseudopotential on this center.
    9          6
                                   No pseudopotential on this center.
   10          6
                                   No pseudopotential on this center.
   11          1
                                   No pseudopotential on this center.
   12          1
                                   No pseudopotential on this center.
   13          1
                                   No pseudopotential on this center.
   14          1
                                   No pseudopotential on this center.
   15          1
                                   No pseudopotential on this center.
   16          1
                                   No pseudopotential on this center.
   17          1
                                   No pseudopotential on this center.
   18          1
                                   No pseudopotential on this center.
   19          7
                                   No pseudopotential on this center.
   20          7
                                   No pseudopotential on this center.
   21         75           15
                                      G and up 
                                                     1     1833.8143836       -0.14971040    0.00000000
                                                     2      414.0589456    -1669.25557810    0.00000000
                                                     2       59.0349540     -346.66611290    0.00000000
                                                     2       11.9177094      -96.66848920    0.00000000
                                                     2        3.6531764      -11.07385670    0.00000000
                                                     2        1.2764184       -0.57985520    0.00000000
                                      S - G
                                                     0      247.0023085        3.14971040    0.00000000
                                                     1      631.7195767       45.29699690    0.00000000
                                                     2      249.2800441     1116.42795850    0.00000000
                                                     2       84.2947315      793.64190650    0.00000000
                                                     2       23.0407912      318.20991930    0.00000000
                                                     2        4.2997111      586.31050250    0.00000000
                                                     2        4.0974390     -475.69041640    0.00000000
                                      P - G
                                                     0      193.6897726        2.14971040    0.00000000
                                                     1       56.9308394       64.22957360    0.00000000
                                                     2       18.7227602      218.85046070    0.00000000
                                                     2        3.7340020      344.41891680    0.00000000
                                                     2        3.5127483     -260.47272670    0.00000000
                                      D - G
                                                     0      126.2340824        3.14971040    0.00000000
                                                     1       80.7090826       46.57148680    0.00000000
                                                     2       42.5529714      304.38345950    0.00000000
                                                     2       13.4074494      157.15896520    0.00000000
                                                     2        3.6904228       48.57012110    0.00000000
                                      F - G
                                                     0      112.7786459        3.95696100    0.00000000
                                                     1       56.7815968       52.35867810    0.00000000
                                                     2       28.5831966      236.03408240    0.00000000
                                                     2        8.5734158      116.57872660    0.00000000
                                                     2        2.0892721       11.10505300    0.00000000
   22          6
                                   No pseudopotential on this center.
   23          6
                                   No pseudopotential on this center.
   24          6
                                   No pseudopotential on this center.
   25          8
                                   No pseudopotential on this center.
   26          8
                                   No pseudopotential on this center.
   27          8
                                   No pseudopotential on this center.
   28         17
                                   No pseudopotential on this center.
 ======================================================================================================
 Ernie: Thresh=  0.10000D-02 Tol=  0.10000D-05 Strict=F.
 Ernie:  47 primitive shells out of 504 were deleted.
   339 basis functions,   774 primitive gaussians,   363 cartesian basis functions
    79 alpha electrons       78 beta electrons
       nuclear repulsion energy      1754.4776831637 Hartrees.
 IExCor=  402 DFT=T Ex+Corr=B3LYP ExCW=0 ScaHFX=  0.200000
 ScaDFX=  0.800000  0.720000  1.000000  0.810000 ScalE2=  1.000000  1.000000
 IRadAn=      5 IRanWt=     -1 IRanGd=            0 ICorTp=0 IEmpDi=141
 NAtoms=   28 NActive=   28 NUniq=   28 SFac= 1.00D+00 NAtFMM=   60 NAOKFM=F Big=F
 Integral buffers will be    131072 words long.
 Raffenetti 2 integral format.
 Two-electron integral symmetry is turned off.
 R6Disp:  Grimme-D3(BJ) Dispersion energy=       -0.0842387468 Hartrees.
 Nuclear repulsion after empirical dispersion term =     1754.3934444169 Hartrees.
 Using the following non-standard input for PCM:
 NonEq=read
 --- end of non-standard input.
 ------------------------------------------------------------------------------
 Polarizable Continuum Model (PCM)
 =================================
 Model                : PCM.
 Atomic radii         : UFF (Universal Force Field).
 Polarization charges : Total charges.
 Charge compensation  : None.
 Solution method      : On-the-fly selection.
 Cavity type          : Scaled VdW (van der Waals Surface) (Alpha=1.100).
 Cavity algorithm     : GePol (No added spheres)
                        Default sphere list used, NSphG=   28.
                        Lebedev-Laikov grids with approx.  5.0 points / Ang**2.
                        Smoothing algorithm: York/Karplus (Gamma=1.0000).
                        Polarization charges: spherical gaussians, with
                                              point-specific exponents (IZeta= 3).
                        Self-potential: point-specific (ISelfS= 7).
                        Self-field    : sphere-specific E.n sum rule (ISelfD= 2).
 Solvent              : n,n-DiMethylFormamide, Eps=  37.219000 Eps(inf)=   2.046330
 ------------------------------------------------------------------------------
 GePol: Number of generator spheres                  =      28
 GePol: Total number of spheres                      =      28
 GePol: Number of exposed spheres                    =      27 ( 96.43%)
 GePol: Number of points                             =    2582
 GePol: Average weight of points                     =       0.13
 GePol: Minimum weight of points                     =   0.19D-10
 GePol: Maximum weight of points                     =    0.21616
 GePol: Number of points with low weight             =     118
 GePol: Fraction of low-weight points (<1% of avg)   =       4.57%
 GePol: Cavity surface area                          =    342.370 Ang**2
 GePol: Cavity volume                                =    378.133 Ang**3
 Leave Link  301 at Tue Mar 24 18:23:09 2026, MaxMem=  2684354560 cpu:               1.0 elap:               0.0
 (Enter /home/programes/qq/gaussian/g16.A03/g16/l302.exe)
 NPDir=0 NMtPBC=     1 NCelOv=     1 NCel=       1 NClECP=     1 NCelD=      1
         NCelK=      1 NCelE2=     1 NClLst=     1 CellRange=     0.0.
 One-electron integrals computed using PRISM.
   1 Symmetry operations used in ECPInt.
 ECPInt:  NShTT=   11175 NPrTT=  105620 LenC2=   10452 LenP2D=   51063.
 LDataN:  DoStor=T MaxTD1= 7 Len=  274
 NBasis=   339 RedAO= T EigKep=  3.67D-04  NBF=   339
 NBsUse=   339 1.00D-06 EigRej= -1.00D+00 NBFU=   339
 Precomputing XC quadrature grid using
 IXCGrd= 4 IRadAn=           5 IRanWt=          -1 IRanGd=           0 AccXCQ= 0.00D+00.
 Defaulting to unpruned grid for atomic number  75.
 Generated NRdTot=       0 NPtTot=           0 NUsed=           0 NTot=          32
 NSgBfM=   363   363   363   363   363 MxSgAt=    28 MxSgA2=    28.
 Leave Link  302 at Tue Mar 24 18:23:09 2026, MaxMem=  2684354560 cpu:               9.4 elap:               0.3
 (Enter /home/programes/qq/gaussian/g16.A03/g16/l303.exe)
 DipDrv:  MaxL=1.
 Leave Link  303 at Tue Mar 24 18:23:09 2026, MaxMem=  2684354560 cpu:               0.9 elap:               0.0
 (Enter /home/programes/qq/gaussian/g16.A03/g16/l401.exe)
 Initial guess from the checkpoint file:  "re-bpy-co3-cl_eq.chk"
 B after Tr=     0.000000    0.000000    0.000000
         Rot=    1.000000    0.000000    0.000000    0.000000 Ang=   0.00 deg.
 Guess basis will be translated and rotated to current coordinates.
 JPrj=2 DoOrth=T DoCkMO=T.
 Initial guess <Sx>= 0.0000 <Sy>= 0.0000 <Sz>= 0.5000 <S**2>= 0.7500 S= 0.5000
 Leave Link  401 at Tue Mar 24 18:23:09 2026, MaxMem=  2684354560 cpu:               7.7 elap:               0.3
 (Enter /home/programes/qq/gaussian/g16.A03/g16/l502.exe)
 Two-electron integral symmetry not used.
 UHF open shell SCF:
 Using DIIS extrapolation, IDIIS=  1040.
 NGot=  2684354560 LenX=  2684076439 LenY=  2683944229
 Requested convergence on RMS density matrix=1.00D-08 within 128 cycles.
 Requested convergence on MAX density matrix=1.00D-06.
 Requested convergence on             energy=1.00D-06.
 No special actions if energy rises.
 Fock matrices will be formed incrementally for  20 cycles.

 Cycle   1  Pass 1  IDiag  1:
 FoFJK:  IHMeth= 1 ICntrl=       0 DoSepK=F KAlg= 0 I1Cent=           0 FoldK=F
 IRaf= 870000000 NMat=       1 IRICut=       1 DoRegI=T DoRafI=F ISym2E= 0 IDoP0=0 IntGTp=1.
 FoFCou: FMM=F IPFlag=           0 FMFlag=      100000 FMFlg1=           0
         NFxFlg=           0 DoJE=F BraDBF=F KetDBF=F FulRan=T
         wScrn=  0.000000 ICntrl=         0 IOpCl=  1 I1Cent=           0 NGrid=           0
         NMat0=    1 NMatS0=      1 NMatT0=    0 NMatD0=    1 NMtDS0=    0 NMtDT0=    0
 Symmetry not used in FoFCou.
 Defaulting to unpruned grid for atomic number  75.
 Defaulting to unpruned grid for atomic number  75.
 Defaulting to unpruned grid for atomic number  75.
 Defaulting to unpruned grid for atomic number  75.
 Defaulting to unpruned grid for atomic number  75.
 Defaulting to unpruned grid for atomic number  75.
 Defaulting to unpruned grid for atomic number  75.
 Defaulting to unpruned grid for atomic number  75.
 Defaulting to unpruned grid for atomic number  75.
 Defaulting to unpruned grid for atomic number  75.
 Defaulting to unpruned grid for atomic number  75.
 Defaulting to unpruned grid for atomic number  75.
 Defaulting to unpruned grid for atomic number  75.
 Defaulting to unpruned grid for atomic number  75.
 Defaulting to unpruned grid for atomic number  75.
 Defaulting to unpruned grid for atomic number  75.
 Defaulting to unpruned grid for atomic number  75.
 Defaulting to unpruned grid for atomic number  75.
 Defaulting to unpruned grid for atomic number  75.
 Defaulting to unpruned grid for atomic number  75.
 Defaulting to unpruned grid for atomic number  75.
 Defaulting to unpruned grid for atomic number  75.
 Defaulting to unpruned grid for atomic number  75.
 Defaulting to unpruned grid for atomic number  75.
 Defaulting to unpruned grid for atomic number  75.
 Defaulting to unpruned grid for atomic number  75.
 Defaulting to unpruned grid for atomic number  75.
 Defaulting to unpruned grid for atomic number  75.
 Defaulting to unpruned grid for atomic number  75.
 Defaulting to unpruned grid for atomic number  75.
 Defaulting to unpruned grid for atomic number  75.
 Defaulting to unpruned grid for atomic number  75.
 Inv3:  Mode=1 IEnd=    20000172.
 Iteration    1 A*A^-1 deviation from unit magnitude is 8.22D-15 for    579.
 Iteration    1 A*A^-1 deviation from orthogonality  is 3.62D-15 for   2179   1246.
 Iteration    1 A^-1*A deviation from unit magnitude is 8.44D-15 for    465.
 Iteration    1 A^-1*A deviation from orthogonality  is 3.00D-15 for   2088    342.
 NEqPCM:  Using non-equilibrium solvation (IEInf=1, Eps=  37.2190, EpsInf=   2.0463)
 Inv3:  Mode=1 IEnd=    20000172.
 Iteration    1 A*A^-1 deviation from unit magnitude is 7.77D-15 for   1249.
 Iteration    1 A*A^-1 deviation from orthogonality  is 3.02D-15 for   2219    234.
 Iteration    1 A^-1*A deviation from unit magnitude is 7.55D-15 for    591.
 Iteration    1 A^-1*A deviation from orthogonality  is 3.29D-15 for   1321    125.
 E= -1375.11552730799    
 DIIS: error= 6.41D-03 at cycle   1 NSaved=   1.
 NSaved= 1 IEnMin= 1 EnMin= -1375.11552730799     IErMin= 1 ErrMin= 6.41D-03
 ErrMax= 6.41D-03  0.00D+00 EMaxC= 1.00D-01 BMatC= 6.42D-02 BMatP= 6.42D-02
 IDIUse=3 WtCom= 9.36D-01 WtEn= 6.41D-02
 Coeff-Com:  0.100D+01
 Coeff-En:   0.100D+01
 Coeff:      0.100D+01
 Gap=     0.060 Goal=   None    Shift=    0.000
 Gap=     0.203 Goal=   None    Shift=    0.000
 GapD=    0.060 DampG=0.500 DampE=1.000 DampFc=0.5000 IDamp=-1.
 Damping current iteration by 5.00D-01
 RMSDP=1.50D-03 MaxDP=4.27D-02              OVMax= 2.31D-01

 Cycle   2  Pass 1  IDiag  1:
 RMSU=  7.50D-04    CP:  9.98D-01
 E= -1375.11507667962     Delta-E=        0.000450628368 Rises=F Damp=T
 DIIS: error= 4.03D-03 at cycle   2 NSaved=   2.
 NSaved= 2 IEnMin= 1 EnMin= -1375.11552730799     IErMin= 2 ErrMin= 4.03D-03
 ErrMax= 4.03D-03  0.00D+00 EMaxC= 1.00D-01 BMatC= 3.18D-02 BMatP= 6.42D-02
 IDIUse=3 WtCom= 9.60D-01 WtEn= 4.03D-02
 Coeff-Com:  0.392D+00 0.608D+00
 Coeff-En:   0.508D+00 0.492D+00
 Coeff:      0.397D+00 0.603D+00
 Gap=     0.067 Goal=   None    Shift=    0.000
 Gap=     0.183 Goal=   None    Shift=    0.000
 RMSDP=4.77D-04 MaxDP=2.97D-02 DE= 4.51D-04 OVMax= 1.62D-01

 Cycle   3  Pass 1  IDiag  1:
 RMSU=  4.55D-04    CP:  1.00D+00  8.14D-01
 E= -1375.13018920966     Delta-E=       -0.015112530039 Rises=F Damp=F
 DIIS: error= 5.44D-03 at cycle   3 NSaved=   3.
 NSaved= 3 IEnMin= 3 EnMin= -1375.13018920966     IErMin= 2 ErrMin= 4.03D-03
 ErrMax= 5.44D-03  0.00D+00 EMaxC= 1.00D-01 BMatC= 3.12D-02 BMatP= 3.18D-02
 IDIUse=3 WtCom= 9.46D-01 WtEn= 5.44D-02
 Coeff-Com:  0.201D+00 0.452D+00 0.348D+00
 Coeff-En:   0.000D+00 0.866D-01 0.913D+00
 Coeff:      0.190D+00 0.432D+00 0.378D+00
 Gap=     0.074 Goal=   None    Shift=    0.000
 Gap=     0.175 Goal=   None    Shift=    0.000
 RMSDP=3.40D-04 MaxDP=2.73D-02 DE=-1.51D-02 OVMax= 3.17D-02

 Cycle   4  Pass 1  IDiag  1:
 RMSU=  2.21D-04    CP:  9.99D-01  8.06D-01  4.35D-01
 E= -1375.13588030188     Delta-E=       -0.005691092222 Rises=F Damp=F
 DIIS: error= 2.58D-03 at cycle   4 NSaved=   4.
 NSaved= 4 IEnMin= 4 EnMin= -1375.13588030188     IErMin= 4 ErrMin= 2.58D-03
 ErrMax= 2.58D-03  0.00D+00 EMaxC= 1.00D-01 BMatC= 7.08D-03 BMatP= 3.12D-02
 IDIUse=3 WtCom= 9.74D-01 WtEn= 2.58D-02
 Coeff-Com:  0.105D+00 0.234D+00 0.305D+00 0.356D+00
 Coeff-En:   0.000D+00 0.000D+00 0.244D+00 0.756D+00
 Coeff:      0.102D+00 0.228D+00 0.303D+00 0.367D+00
 Gap=     0.071 Goal=   None    Shift=    0.000
 Gap=     0.171 Goal=   None    Shift=    0.000
 RMSDP=1.33D-04 MaxDP=1.15D-02 DE=-5.69D-03 OVMax= 1.22D-02

 Cycle   5  Pass 1  IDiag  1:
 RMSU=  7.15D-05    CP:  1.00D+00  7.93D-01  5.79D-01  5.95D-01
 E= -1375.13752405159     Delta-E=       -0.001643749711 Rises=F Damp=F
 DIIS: error= 4.75D-04 at cycle   5 NSaved=   5.
 NSaved= 5 IEnMin= 5 EnMin= -1375.13752405159     IErMin= 5 ErrMin= 4.75D-04
 ErrMax= 4.75D-04  0.00D+00 EMaxC= 1.00D-01 BMatC= 4.02D-04 BMatP= 7.08D-03
 IDIUse=3 WtCom= 9.95D-01 WtEn= 4.75D-03
 Coeff-Com:  0.194D-01 0.359D-01 0.113D+00 0.237D+00 0.594D+00
 Coeff-En:   0.000D+00 0.000D+00 0.000D+00 0.102D-01 0.990D+00
 Coeff:      0.193D-01 0.357D-01 0.113D+00 0.236D+00 0.596D+00
 Gap=     0.072 Goal=   None    Shift=    0.000
 Gap=     0.171 Goal=   None    Shift=    0.000
 RMSDP=4.23D-05 MaxDP=2.73D-03 DE=-1.64D-03 OVMax= 6.73D-03

 Cycle   6  Pass 1  IDiag  1:
 RMSU=  3.08D-05    CP:  1.00D+00  7.78D-01  6.14D-01  6.73D-01  8.19D-01
 E= -1375.13763288233     Delta-E=       -0.000108830740 Rises=F Damp=F
 DIIS: error= 2.05D-04 at cycle   6 NSaved=   6.
 NSaved= 6 IEnMin= 6 EnMin= -1375.13763288233     IErMin= 6 ErrMin= 2.05D-04
 ErrMax= 2.05D-04  0.00D+00 EMaxC= 1.00D-01 BMatC= 5.64D-05 BMatP= 4.02D-04
 IDIUse=3 WtCom= 9.98D-01 WtEn= 2.05D-03
 Coeff-Com: -0.155D-01-0.279D-01-0.112D-01 0.375D-01 0.295D+00 0.722D+00
 Coeff-En:   0.000D+00 0.000D+00 0.000D+00 0.000D+00 0.000D+00 0.100D+01
 Coeff:     -0.155D-01-0.279D-01-0.112D-01 0.375D-01 0.295D+00 0.723D+00
 Gap=     0.073 Goal=   None    Shift=    0.000
 Gap=     0.171 Goal=   None    Shift=    0.000
 RMSDP=2.12D-05 MaxDP=1.17D-03 DE=-1.09D-04 OVMax= 4.63D-03

 Cycle   7  Pass 1  IDiag  1:
 RMSU=  1.44D-05    CP:  1.00D+00  7.75D-01  6.16D-01  7.22D-01  9.71D-01
                    CP:  9.65D-01
 E= -1375.13765447566     Delta-E=       -0.000021593326 Rises=F Damp=F
 DIIS: error= 1.19D-04 at cycle   7 NSaved=   7.
 NSaved= 7 IEnMin= 7 EnMin= -1375.13765447566     IErMin= 7 ErrMin= 1.19D-04
 ErrMax= 1.19D-04  0.00D+00 EMaxC= 1.00D-01 BMatC= 1.17D-05 BMatP= 5.64D-05
 IDIUse=3 WtCom= 9.99D-01 WtEn= 1.19D-03
 Coeff-Com: -0.116D-01-0.167D-01-0.227D-01-0.202D-01 0.387D-01 0.363D+00
 Coeff-Com:  0.670D+00
 Coeff-En:   0.000D+00 0.000D+00 0.000D+00 0.000D+00 0.000D+00 0.000D+00
 Coeff-En:   0.100D+01
 Coeff:     -0.116D-01-0.166D-01-0.227D-01-0.202D-01 0.387D-01 0.362D+00
 Coeff:      0.670D+00
 Gap=     0.073 Goal=   None    Shift=    0.000
 Gap=     0.172 Goal=   None    Shift=    0.000
 RMSDP=9.80D-06 MaxDP=6.86D-04 DE=-2.16D-05 OVMax= 2.17D-03

 Cycle   8  Pass 1  IDiag  1:
 RMSU=  6.97D-06    CP:  1.00D+00  7.73D-01  6.20D-01  7.35D-01  1.02D+00
                    CP:  1.11D+00  1.12D+00
 E= -1375.13765900695     Delta-E=       -0.000004531291 Rises=F Damp=F
 DIIS: error= 4.58D-05 at cycle   8 NSaved=   8.
 NSaved= 8 IEnMin= 8 EnMin= -1375.13765900695     IErMin= 8 ErrMin= 4.58D-05
 ErrMax= 4.58D-05  0.00D+00 EMaxC= 1.00D-01 BMatC= 3.20D-06 BMatP= 1.17D-05
 IDIUse=1 WtCom= 1.00D+00 WtEn= 0.00D+00
 Coeff-Com: -0.338D-02-0.219D-02-0.104D-01-0.220D-01-0.612D-01 0.982D-02
 Coeff-Com:  0.384D+00 0.705D+00
 Coeff:     -0.338D-02-0.219D-02-0.104D-01-0.220D-01-0.612D-01 0.982D-02
 Coeff:      0.384D+00 0.705D+00
 Gap=     0.073 Goal=   None    Shift=    0.000
 Gap=     0.172 Goal=   None    Shift=    0.000
 RMSDP=5.47D-06 MaxDP=3.16D-04 DE=-4.53D-06 OVMax= 8.68D-04

 Cycle   9  Pass 1  IDiag  1:
 RMSU=  2.90D-06    CP:  1.00D+00  7.73D-01  6.22D-01  7.42D-01  1.04D+00
                    CP:  1.20D+00  1.28D+00  8.63D-01
 E= -1375.13766037598     Delta-E=       -0.000001369029 Rises=F Damp=F
 DIIS: error= 2.43D-05 at cycle   9 NSaved=   9.
 NSaved= 9 IEnMin= 9 EnMin= -1375.13766037598     IErMin= 9 ErrMin= 2.43D-05
 ErrMax= 2.43D-05  0.00D+00 EMaxC= 1.00D-01 BMatC= 8.51D-07 BMatP= 3.20D-06
 IDIUse=1 WtCom= 1.00D+00 WtEn= 0.00D+00
 Coeff-Com:  0.485D-03 0.260D-02-0.124D-02-0.951D-02-0.477D-01-0.707D-01
 Coeff-Com:  0.956D-01 0.430D+00 0.600D+00
 Coeff:      0.485D-03 0.260D-02-0.124D-02-0.951D-02-0.477D-01-0.707D-01
 Coeff:      0.956D-01 0.430D+00 0.600D+00
 Gap=     0.073 Goal=   None    Shift=    0.000
 Gap=     0.172 Goal=   None    Shift=    0.000
 RMSDP=2.46D-06 MaxDP=1.46D-04 DE=-1.37D-06 OVMax= 4.40D-04

 Cycle  10  Pass 1  IDiag  1:
 RMSU=  1.58D-06    CP:  1.00D+00  7.73D-01  6.23D-01  7.43D-01  1.05D+00
                    CP:  1.22D+00  1.35D+00  1.02D+00  9.44D-01
 E= -1375.13766069076     Delta-E=       -0.000000314784 Rises=F Damp=F
 DIIS: error= 1.46D-05 at cycle  10 NSaved=  10.
 NSaved=10 IEnMin=10 EnMin= -1375.13766069076     IErMin=10 ErrMin= 1.46D-05
 ErrMax= 1.46D-05  0.00D+00 EMaxC= 1.00D-01 BMatC= 1.35D-07 BMatP= 8.51D-07
 IDIUse=1 WtCom= 1.00D+00 WtEn= 0.00D+00
 Coeff-Com:  0.909D-03 0.124D-02 0.174D-02 0.584D-03-0.801D-02-0.323D-01
 Coeff-Com: -0.406D-01 0.458D-01 0.291D+00 0.740D+00
 Coeff:      0.909D-03 0.124D-02 0.174D-02 0.584D-03-0.801D-02-0.323D-01
 Coeff:     -0.406D-01 0.458D-01 0.291D+00 0.740D+00
 Gap=     0.073 Goal=   None    Shift=    0.000
 Gap=     0.172 Goal=   None    Shift=    0.000
 RMSDP=1.05D-06 MaxDP=8.09D-05 DE=-3.15D-07 OVMax= 1.47D-04

 Cycle  11  Pass 1  IDiag  1:
 RMSU=  6.58D-07    CP:  1.00D+00  7.72D-01  6.23D-01  7.44D-01  1.05D+00
                    CP:  1.23D+00  1.38D+00  1.07D+00  1.09D+00  1.05D+00
 E= -1375.13766075959     Delta-E=       -0.000000068826 Rises=F Damp=F
 DIIS: error= 6.97D-06 at cycle  11 NSaved=  11.
 NSaved=11 IEnMin=11 EnMin= -1375.13766075959     IErMin=11 ErrMin= 6.97D-06
 ErrMax= 6.97D-06  0.00D+00 EMaxC= 1.00D-01 BMatC= 2.93D-08 BMatP= 1.35D-07
 IDIUse=1 WtCom= 1.00D+00 WtEn= 0.00D+00
 Coeff-Com:  0.391D-03 0.348D-04 0.114D-02 0.222D-02 0.655D-02 0.527D-03
 Coeff-Com: -0.405D-01-0.747D-01-0.469D-02 0.342D+00 0.767D+00
 Coeff:      0.391D-03 0.348D-04 0.114D-02 0.222D-02 0.655D-02 0.527D-03
 Coeff:     -0.405D-01-0.747D-01-0.469D-02 0.342D+00 0.767D+00
 Gap=     0.073 Goal=   None    Shift=    0.000
 Gap=     0.172 Goal=   None    Shift=    0.000
 RMSDP=5.50D-07 MaxDP=4.04D-05 DE=-6.88D-08 OVMax= 8.47D-05

 Cycle  12  Pass 1  IDiag  1:
 RMSU=  3.57D-07    CP:  1.00D+00  7.72D-01  6.23D-01  7.44D-01  1.05D+00
                    CP:  1.23D+00  1.39D+00  1.08D+00  1.20D+00  1.17D+00
                    CP:  1.15D+00
 E= -1375.13766077737     Delta-E=       -0.000000017780 Rises=F Damp=F
 DIIS: error= 3.91D-06 at cycle  12 NSaved=  12.
 NSaved=12 IEnMin=12 EnMin= -1375.13766077737     IErMin=12 ErrMin= 3.91D-06
 ErrMax= 3.91D-06  0.00D+00 EMaxC= 1.00D-01 BMatC= 1.11D-08 BMatP= 2.93D-08
 IDIUse=1 WtCom= 1.00D+00 WtEn= 0.00D+00
 Coeff-Com:  0.415D-04-0.215D-03 0.305D-03 0.126D-02 0.571D-02 0.711D-02
 Coeff-Com: -0.163D-01-0.534D-01-0.695D-01 0.440D-01 0.457D+00 0.624D+00
 Coeff:      0.415D-04-0.215D-03 0.305D-03 0.126D-02 0.571D-02 0.711D-02
 Coeff:     -0.163D-01-0.534D-01-0.695D-01 0.440D-01 0.457D+00 0.624D+00
 Gap=     0.073 Goal=   None    Shift=    0.000
 Gap=     0.172 Goal=   None    Shift=    0.000
 RMSDP=2.91D-07 MaxDP=2.44D-05 DE=-1.78D-08 OVMax= 4.66D-05

 Cycle  13  Pass 1  IDiag  1:
 RMSU=  2.00D-07    CP:  1.00D+00  7.72D-01  6.23D-01  7.44D-01  1.05D+00
                    CP:  1.23D+00  1.39D+00  1.09D+00  1.22D+00  1.25D+00
                    CP:  1.37D+00  1.09D+00
 E= -1375.13766078319     Delta-E=       -0.000000005823 Rises=F Damp=F
 DIIS: error= 1.35D-06 at cycle  13 NSaved=  13.
 NSaved=13 IEnMin=13 EnMin= -1375.13766078319     IErMin=13 ErrMin= 1.35D-06
 ErrMax= 1.35D-06  0.00D+00 EMaxC= 1.00D-01 BMatC= 2.84D-09 BMatP= 1.11D-08
 IDIUse=1 WtCom= 1.00D+00 WtEn= 0.00D+00
 Coeff-Com: -0.125D-03-0.125D-03-0.243D-03-0.461D-04 0.101D-02 0.413D-02
 Coeff-Com:  0.390D-02-0.358D-02-0.404D-01-0.875D-01-0.223D-02 0.358D+00
 Coeff-Com:  0.767D+00
 Coeff:     -0.125D-03-0.125D-03-0.243D-03-0.461D-04 0.101D-02 0.413D-02
 Coeff:      0.390D-02-0.358D-02-0.404D-01-0.875D-01-0.223D-02 0.358D+00
 Coeff:      0.767D+00
 Gap=     0.073 Goal=   None    Shift=    0.000
 Gap=     0.172 Goal=   None    Shift=    0.000
 RMSDP=2.40D-07 MaxDP=1.70D-05 DE=-5.82D-09 OVMax= 5.67D-05

 Cycle  14  Pass 1  IDiag  1:
 RMSU=  1.50D-07    CP:  1.00D+00  7.72D-01  6.23D-01  7.44D-01  1.05D+00
                    CP:  1.23D+00  1.39D+00  1.08D+00  1.23D+00  1.27D+00
                    CP:  1.51D+00  1.46D+00  1.24D+00
 E= -1375.13766078543     Delta-E=       -0.000000002240 Rises=F Damp=F
 DIIS: error= 1.05D-06 at cycle  14 NSaved=  14.
 NSaved=14 IEnMin=14 EnMin= -1375.13766078543     IErMin=14 ErrMin= 1.05D-06
 ErrMax= 1.05D-06  0.00D+00 EMaxC= 1.00D-01 BMatC= 9.72D-10 BMatP= 2.84D-09
 IDIUse=1 WtCom= 1.00D+00 WtEn= 0.00D+00
 Coeff-Com: -0.938D-04-0.225D-04-0.215D-03-0.341D-03-0.792D-03 0.901D-03
 Coeff-Com:  0.616D-02 0.122D-01-0.735D-02-0.612D-01-0.124D+00 0.298D-01
 Coeff-Com:  0.468D+00 0.677D+00
 Coeff:     -0.938D-04-0.225D-04-0.215D-03-0.341D-03-0.792D-03 0.901D-03
 Coeff:      0.616D-02 0.122D-01-0.735D-02-0.612D-01-0.124D+00 0.298D-01
 Coeff:      0.468D+00 0.677D+00
 Gap=     0.073 Goal=   None    Shift=    0.000
 Gap=     0.172 Goal=   None    Shift=    0.000
 RMSDP=1.42D-07 MaxDP=8.52D-06 DE=-2.24D-09 OVMax= 3.62D-05

 Cycle  15  Pass 1  IDiag  1:
 RMSU=  6.74D-08    CP:  1.00D+00  7.72D-01  6.23D-01  7.44D-01  1.05D+00
                    CP:  1.23D+00  1.39D+00  1.08D+00  1.24D+00  1.27D+00
                    CP:  1.58D+00  1.66D+00  1.57D+00  1.38D+00
 E= -1375.13766078616     Delta-E=       -0.000000000731 Rises=F Damp=F
 DIIS: error= 5.16D-07 at cycle  15 NSaved=  15.
 NSaved=15 IEnMin=15 EnMin= -1375.13766078616     IErMin=15 ErrMin= 5.16D-07
 ErrMax= 5.16D-07  0.00D+00 EMaxC= 1.00D-01 BMatC= 1.93D-10 BMatP= 9.72D-10
 IDIUse=1 WtCom= 1.00D+00 WtEn= 0.00D+00
 Coeff-Com: -0.235D-05 0.260D-04-0.371D-05-0.159D-03-0.690D-03-0.784D-03
 Coeff-Com:  0.890D-03 0.691D-02 0.791D-02 0.335D-02-0.518D-01-0.116D+00
 Coeff-Com:  0.974D-02 0.219D+00 0.921D+00
 Coeff:     -0.235D-05 0.260D-04-0.371D-05-0.159D-03-0.690D-03-0.784D-03
 Coeff:      0.890D-03 0.691D-02 0.791D-02 0.335D-02-0.518D-01-0.116D+00
 Coeff:      0.974D-02 0.219D+00 0.921D+00
 Gap=     0.073 Goal=   None    Shift=    0.000
 Gap=     0.172 Goal=   None    Shift=    0.000
 RMSDP=1.29D-07 MaxDP=6.27D-06 DE=-7.31D-10 OVMax= 3.89D-05

 Cycle  16  Pass 1  IDiag  1:
 RMSU=  3.59D-08    CP:  1.00D+00  7.72D-01  6.23D-01  7.44D-01  1.05D+00
                    CP:  1.23D+00  1.39D+00  1.08D+00  1.24D+00  1.27D+00
                    CP:  1.62D+00  1.80D+00  1.87D+00  1.92D+00  1.45D+00
 E= -1375.13766078646     Delta-E=       -0.000000000296 Rises=F Damp=F
 DIIS: error= 3.17D-07 at cycle  16 NSaved=  16.
 NSaved=16 IEnMin=16 EnMin= -1375.13766078646     IErMin=16 ErrMin= 3.17D-07
 ErrMax= 3.17D-07  0.00D+00 EMaxC= 1.00D-01 BMatC= 9.84D-11 BMatP= 1.93D-10
 IDIUse=1 WtCom= 1.00D+00 WtEn= 0.00D+00
 Coeff-Com:  0.197D-04 0.170D-04 0.534D-04-0.135D-04-0.180D-03-0.560D-03
 Coeff-Com: -0.130D-02 0.106D-02 0.577D-02 0.195D-01 0.104D-02-0.853D-01
 Coeff-Com: -0.983D-01-0.885D-01 0.571D+00 0.676D+00
 Coeff:      0.197D-04 0.170D-04 0.534D-04-0.135D-04-0.180D-03-0.560D-03
 Coeff:     -0.130D-02 0.106D-02 0.577D-02 0.195D-01 0.104D-02-0.853D-01
 Coeff:     -0.983D-01-0.885D-01 0.571D+00 0.676D+00
 Gap=     0.073 Goal=   None    Shift=    0.000
 Gap=     0.172 Goal=   None    Shift=    0.000
 RMSDP=7.38D-08 MaxDP=3.14D-06 DE=-2.96D-10 OVMax= 2.27D-05

 Cycle  17  Pass 1  IDiag  1:
 RMSU=  2.13D-08    CP:  1.00D+00  7.72D-01  6.23D-01  7.44D-01  1.05D+00
                    CP:  1.23D+00  1.39D+00  1.08D+00  1.24D+00  1.27D+00
                    CP:  1.63D+00  1.87D+00  2.03D+00  2.22D+00  1.86D+00
                    CP:  1.07D+00
 E= -1375.13766078653     Delta-E=       -0.000000000076 Rises=F Damp=F
 DIIS: error= 1.82D-07 at cycle  17 NSaved=  17.
 NSaved=17 IEnMin=17 EnMin= -1375.13766078653     IErMin=17 ErrMin= 1.82D-07
 ErrMax= 1.82D-07  0.00D+00 EMaxC= 1.00D-01 BMatC= 3.83D-11 BMatP= 9.84D-11
 IDIUse=1 WtCom= 1.00D+00 WtEn= 0.00D+00
 Coeff-Com:  0.144D-04 0.311D-05 0.405D-04 0.419D-04 0.102D-03-0.957D-04
 Coeff-Com: -0.139D-02-0.138D-02 0.126D-02 0.143D-01 0.180D-01-0.291D-01
 Coeff-Com: -0.697D-01-0.164D+00 0.134D+00 0.489D+00 0.609D+00
 Coeff:      0.144D-04 0.311D-05 0.405D-04 0.419D-04 0.102D-03-0.957D-04
 Coeff:     -0.139D-02-0.138D-02 0.126D-02 0.143D-01 0.180D-01-0.291D-01
 Coeff:     -0.697D-01-0.164D+00 0.134D+00 0.489D+00 0.609D+00
 Gap=     0.073 Goal=   None    Shift=    0.000
 Gap=     0.172 Goal=   None    Shift=    0.000
 RMSDP=4.50D-08 MaxDP=1.71D-06 DE=-7.59D-11 OVMax= 1.39D-05

 Cycle  18  Pass 1  IDiag  1:
 RMSU=  9.81D-09    CP:  1.00D+00  7.72D-01  6.23D-01  7.44D-01  1.05D+00
                    CP:  1.23D+00  1.39D+00  1.08D+00  1.24D+00  1.27D+00
                    CP:  1.64D+00  1.91D+00  2.12D+00  2.41D+00  2.09D+00
                    CP:  1.44D+00  9.62D-01
 E= -1375.13766078654     Delta-E=       -0.000000000004 Rises=F Damp=F
 DIIS: error= 6.74D-08 at cycle  18 NSaved=  18.
 NSaved=18 IEnMin=18 EnMin= -1375.13766078654     IErMin=18 ErrMin= 6.74D-08
 ErrMax= 6.74D-08  0.00D+00 EMaxC= 1.00D-01 BMatC= 8.04D-12 BMatP= 3.83D-11
 IDIUse=1 WtCom= 1.00D+00 WtEn= 0.00D+00
 Coeff-Com:  0.138D-05-0.326D-05 0.455D-05 0.266D-04 0.111D-03 0.166D-03
 Coeff-Com: -0.423D-03-0.983D-03-0.152D-02 0.207D-02 0.992D-02 0.109D-01
 Coeff-Com: -0.852D-03-0.807D-01-0.113D+00 0.458D-01 0.368D+00 0.760D+00
 Coeff:      0.138D-05-0.326D-05 0.455D-05 0.266D-04 0.111D-03 0.166D-03
 Coeff:     -0.423D-03-0.983D-03-0.152D-02 0.207D-02 0.992D-02 0.109D-01
 Coeff:     -0.852D-03-0.807D-01-0.113D+00 0.458D-01 0.368D+00 0.760D+00
 Gap=     0.073 Goal=   None    Shift=    0.000
 Gap=     0.172 Goal=   None    Shift=    0.000
 RMSDP=2.87D-08 MaxDP=1.04D-06 DE=-4.09D-12 OVMax= 9.11D-06

 Cycle  19  Pass 1  IDiag  1:
 RMSU=  4.45D-09    CP:  1.00D+00  7.72D-01  6.23D-01  7.44D-01  1.05D+00
                    CP:  1.23D+00  1.39D+00  1.08D+00  1.24D+00  1.26D+00
                    CP:  1.65D+00  1.94D+00  2.18D+00  2.53D+00  2.26D+00
                    CP:  1.62D+00  1.24D+00  9.75D-01
 E= -1375.13766078656     Delta-E=       -0.000000000024 Rises=F Damp=F
 DIIS: error= 3.33D-08 at cycle  19 NSaved=  19.
 NSaved=19 IEnMin=19 EnMin= -1375.13766078656     IErMin=19 ErrMin= 3.33D-08
 ErrMax= 3.33D-08  0.00D+00 EMaxC= 1.00D-01 BMatC= 9.40D-13 BMatP= 8.04D-12
 IDIUse=1 WtCom= 1.00D+00 WtEn= 0.00D+00
 Coeff-Com: -0.254D-05-0.151D-05-0.610D-05-0.397D-06 0.111D-04 0.876D-04
 Coeff-Com:  0.122D-03 0.303D-04-0.787D-03-0.212D-02-0.692D-03 0.797D-02
 Coeff-Com:  0.149D-01 0.278D-02-0.560D-01-0.860D-01-0.117D-01 0.269D+00
 Coeff-Com:  0.863D+00
 Coeff:     -0.254D-05-0.151D-05-0.610D-05-0.397D-06 0.111D-04 0.876D-04
 Coeff:      0.122D-03 0.303D-04-0.787D-03-0.212D-02-0.692D-03 0.797D-02
 Coeff:      0.149D-01 0.278D-02-0.560D-01-0.860D-01-0.117D-01 0.269D+00
 Coeff:      0.863D+00
 Gap=     0.073 Goal=   None    Shift=    0.000
 Gap=     0.172 Goal=   None    Shift=    0.000
 RMSDP=1.03D-08 MaxDP=3.73D-07 DE=-2.41D-11 OVMax= 3.26D-06

 Cycle  20  Pass 1  IDiag  1:
 RMSU=  1.93D-09    CP:  1.00D+00  7.72D-01  6.23D-01  7.44D-01  1.05D+00
                    CP:  1.23D+00  1.39D+00  1.08D+00  1.24D+00  1.26D+00
                    CP:  1.65D+00  1.94D+00  2.20D+00  2.57D+00  2.31D+00
                    CP:  1.69D+00  1.33D+00  1.16D+00  1.10D+00
 E= -1375.13766078660     Delta-E=       -0.000000000037 Rises=F Damp=F
 DIIS: error= 1.19D-08 at cycle  20 NSaved=  20.
 NSaved=20 IEnMin=20 EnMin= -1375.13766078660     IErMin=20 ErrMin= 1.19D-08
 ErrMax= 1.19D-08  0.00D+00 EMaxC= 1.00D-01 BMatC= 1.49D-13 BMatP= 9.40D-13
 IDIUse=1 WtCom= 1.00D+00 WtEn= 0.00D+00
 Coeff-Com: -0.109D-05-0.449D-07-0.259D-05-0.465D-05-0.143D-04 0.439D-05
 Coeff-Com:  0.106D-03 0.166D-03-0.109D-04-0.110D-02-0.177D-02 0.989D-03
 Coeff-Com:  0.566D-02 0.134D-01-0.160D-02-0.399D-01-0.698D-01-0.287D-01
 Coeff-Com:  0.331D+00 0.792D+00
 Coeff:     -0.109D-05-0.449D-07-0.259D-05-0.465D-05-0.143D-04 0.439D-05
 Coeff:      0.106D-03 0.166D-03-0.109D-04-0.110D-02-0.177D-02 0.989D-03
 Coeff:      0.566D-02 0.134D-01-0.160D-02-0.399D-01-0.698D-01-0.287D-01
 Coeff:      0.331D+00 0.792D+00
 Gap=     0.073 Goal=   None    Shift=    0.000
 Gap=     0.172 Goal=   None    Shift=    0.000
 RMSDP=3.14D-09 MaxDP=1.06D-07 DE=-3.68D-11 OVMax= 9.42D-07

 Error on total polarization charges = -0.01605
 SCF Done:  E(UB3LYP) =  -1375.13766079     A.U. after   20 cycles
            NFock= 20  Conv=0.31D-08     -V/T= 2.0461
 <Sx>= 0.0000 <Sy>= 0.0000 <Sz>= 0.5000 <S**2>= 0.7563 S= 0.5032
 <L.S>= 0.000000000000E+00
 KE= 1.314490455402D+03 PE=-6.733554146804D+03 EE= 2.289532586199D+03
 Annihilation of the first spin contaminant:
 S**2 before annihilation     0.7563,   after     0.7500
 Leave Link  502 at Tue Mar 24 18:24:02 2026, MaxMem=  2684354560 cpu:            1608.2 elap:              52.6
 (Enter /home/programes/qq/gaussian/g16.A03/g16/l601.exe)
 Copying SCF densities to generalized density rwf, IOpCl= 1 IROHF=0.

 **********************************************************************

            Population analysis using the SCF density.

 **********************************************************************

 Alpha  occ. eigenvalues -- -101.40455 -19.14158 -19.14156 -19.13988 -14.28754
 Alpha  occ. eigenvalues --  -14.28752 -10.22788 -10.22707 -10.22705 -10.16506
 Alpha  occ. eigenvalues --  -10.16504 -10.15758 -10.15733 -10.13311 -10.13311
 Alpha  occ. eigenvalues --  -10.13130 -10.13128 -10.12265 -10.12264  -9.32036
 Alpha  occ. eigenvalues --   -7.07916  -7.07563  -7.07543  -3.16746  -1.76563
 Alpha  occ. eigenvalues --   -1.76089  -1.75947  -1.05577  -1.05527  -1.05255
 Alpha  occ. eigenvalues --   -0.90195  -0.87887  -0.74407  -0.73652  -0.73135
 Alpha  occ. eigenvalues --   -0.67961  -0.67075  -0.59279  -0.58472  -0.55345
 Alpha  occ. eigenvalues --   -0.54144  -0.52150  -0.49863  -0.49794  -0.47817
 Alpha  occ. eigenvalues --   -0.43956  -0.43556  -0.41898  -0.41263  -0.40141
 Alpha  occ. eigenvalues --   -0.39921  -0.39702  -0.39186  -0.38881  -0.38862
 Alpha  occ. eigenvalues --   -0.38183  -0.37310  -0.37207  -0.37054  -0.36633
 Alpha  occ. eigenvalues --   -0.36565  -0.34599  -0.34151  -0.33393  -0.30873
 Alpha  occ. eigenvalues --   -0.30030  -0.25885  -0.24999  -0.24676  -0.23764
 Alpha  occ. eigenvalues --   -0.23724  -0.23034  -0.20841  -0.20723  -0.18129
 Alpha  occ. eigenvalues --   -0.18059  -0.16759  -0.16490  -0.04519
 Alpha virt. eigenvalues --    0.02755   0.02810   0.03426   0.03499   0.06584
 Alpha virt. eigenvalues --    0.07404   0.08089   0.08248   0.08362   0.09726
 Alpha virt. eigenvalues --    0.10151   0.10317   0.12145   0.13305   0.13718
 Alpha virt. eigenvalues --    0.14423   0.15285   0.17307   0.17727   0.18199
 Alpha virt. eigenvalues --    0.18942   0.21981   0.22310   0.23088   0.25957
 Alpha virt. eigenvalues --    0.27553   0.29716   0.31156   0.32633   0.34174
 Alpha virt. eigenvalues --    0.34219   0.35152   0.36020   0.38077   0.39160
 Alpha virt. eigenvalues --    0.41155   0.41194   0.42708   0.43088   0.45248
 Alpha virt. eigenvalues --    0.47200   0.48480   0.49466   0.50319   0.50346
 Alpha virt. eigenvalues --    0.50961   0.52783   0.53655   0.53782   0.54547
 Alpha virt. eigenvalues --    0.55272   0.55435   0.55906   0.56574   0.57124
 Alpha virt. eigenvalues --    0.57201   0.58334   0.58511   0.59186   0.60741
 Alpha virt. eigenvalues --    0.61275   0.62537   0.62604   0.62815   0.64420
 Alpha virt. eigenvalues --    0.65247   0.65317   0.67028   0.67186   0.69301
 Alpha virt. eigenvalues --    0.69420   0.70134   0.70695   0.71523   0.71839
 Alpha virt. eigenvalues --    0.72487   0.73001   0.73328   0.73865   0.74394
 Alpha virt. eigenvalues --    0.74923   0.76013   0.76275   0.76762   0.78289
 Alpha virt. eigenvalues --    0.80003   0.80436   0.81224   0.83347   0.83477
 Alpha virt. eigenvalues --    0.86476   0.88309   0.88664   0.89325   0.89926
 Alpha virt. eigenvalues --    0.89970   0.90670   0.92373   0.93768   0.94199
 Alpha virt. eigenvalues --    0.96174   0.96706   0.96758   0.97831   0.98012
 Alpha virt. eigenvalues --    0.98740   0.98947   1.01828   1.01988   1.02816
 Alpha virt. eigenvalues --    1.03963   1.04127   1.05036   1.05917   1.07664
 Alpha virt. eigenvalues --    1.08403   1.08649   1.08710   1.09541   1.10263
 Alpha virt. eigenvalues --    1.10557   1.10599   1.12331   1.12567   1.13623
 Alpha virt. eigenvalues --    1.15094   1.15665   1.15913   1.16700   1.17809
 Alpha virt. eigenvalues --    1.18241   1.18444   1.19536   1.19939   1.20909
 Alpha virt. eigenvalues --    1.21003   1.21429   1.25064   1.28225   1.30430
 Alpha virt. eigenvalues --    1.30947   1.34706   1.36153   1.37856   1.41814
 Alpha virt. eigenvalues --    1.43102   1.44854   1.45146   1.46847   1.49363
 Alpha virt. eigenvalues --    1.50941   1.51594   1.51783   1.52005   1.53511
 Alpha virt. eigenvalues --    1.54552   1.54988   1.55966   1.56524   1.60753
 Alpha virt. eigenvalues --    1.61491   1.62599   1.63146   1.64303   1.66464
 Alpha virt. eigenvalues --    1.67625   1.67695   1.68922   1.68990   1.69968
 Alpha virt. eigenvalues --    1.71224   1.73347   1.73628   1.74540   1.76729
 Alpha virt. eigenvalues --    1.77350   1.77783   1.78693   1.79465   1.80235
 Alpha virt. eigenvalues --    1.82490   1.83263   1.84458   1.85152   1.87844
 Alpha virt. eigenvalues --    1.88680   1.89209   1.89465   1.90688   1.92060
 Alpha virt. eigenvalues --    1.92415   1.94616   1.95520   1.97203   1.97997
 Alpha virt. eigenvalues --    1.98030   2.00032   2.00551   2.01503   2.02744
 Alpha virt. eigenvalues --    2.05646   2.06236   2.06667   2.07919   2.08286
 Alpha virt. eigenvalues --    2.08760   2.09061   2.13118   2.13496   2.14198
 Alpha virt. eigenvalues --    2.16422   2.16980   2.18145   2.24258   2.31523
 Alpha virt. eigenvalues --    2.32441   2.34842   2.36017   2.39205   2.42663
 Alpha virt. eigenvalues --    2.43043   2.44427   2.45184   2.45503   2.46003
 Alpha virt. eigenvalues --    2.46726   2.51902   2.55669   2.57104   2.57879
 Alpha virt. eigenvalues --    2.59248   2.66066   2.66153   2.66480   2.66525
 Alpha virt. eigenvalues --    2.67285   2.68378   2.70282   2.71433   2.78702
 Alpha virt. eigenvalues --    2.79907   2.84767   2.86061   2.90899   2.93896
 Alpha virt. eigenvalues --    2.95421   2.99383   3.14198   3.14488   3.14735
 Alpha virt. eigenvalues --    3.15121   3.15557   3.16088   3.20194   3.52539
 Alpha virt. eigenvalues --    3.54893   3.55643   3.55777   3.65976  21.46609
  Beta  occ. eigenvalues -- -101.40441 -19.14130 -19.14128 -19.13993 -14.28404
  Beta  occ. eigenvalues --  -14.28403 -10.22788 -10.22685 -10.22683 -10.16565
  Beta  occ. eigenvalues --  -10.16563 -10.15549 -10.15526 -10.13193 -10.13192
  Beta  occ. eigenvalues --  -10.13129 -10.13128 -10.12071 -10.12070  -9.32021
  Beta  occ. eigenvalues --   -7.07877  -7.07554  -7.07533  -3.16773  -1.76606
  Beta  occ. eigenvalues --   -1.76109  -1.75982  -1.05528  -1.05477  -1.05264
  Beta  occ. eigenvalues --   -0.89620  -0.87369  -0.73988  -0.73201  -0.72675
  Beta  occ. eigenvalues --   -0.67679  -0.66990  -0.58872  -0.58079  -0.55253
  Beta  occ. eigenvalues --   -0.53702  -0.52079  -0.49789  -0.49777  -0.47670
  Beta  occ. eigenvalues --   -0.43813  -0.43312  -0.41670  -0.41200  -0.40016
  Beta  occ. eigenvalues --   -0.39801  -0.39649  -0.39114  -0.38778  -0.38768
  Beta  occ. eigenvalues --   -0.38096  -0.37176  -0.37143  -0.36991  -0.36509
  Beta  occ. eigenvalues --   -0.35355  -0.34426  -0.33968  -0.32311  -0.30756
  Beta  occ. eigenvalues --   -0.29820  -0.25552  -0.24334  -0.24191  -0.23003
  Beta  occ. eigenvalues --   -0.22824  -0.22137  -0.20444  -0.20322  -0.18125
  Beta  occ. eigenvalues --   -0.17032  -0.16670  -0.16331
  Beta virt. eigenvalues --    0.00847   0.02882   0.03159   0.03922   0.04410
  Beta virt. eigenvalues --    0.06721   0.07454   0.08283   0.08385   0.09728
  Beta virt. eigenvalues --    0.09748   0.10286   0.10406   0.12186   0.13397
  Beta virt. eigenvalues --    0.13778   0.14499   0.15309   0.17371   0.18283
  Beta virt. eigenvalues --    0.19050   0.19180   0.22056   0.22341   0.24610
  Beta virt. eigenvalues --    0.26000   0.27771   0.30052   0.31309   0.32804
  Beta virt. eigenvalues --    0.34306   0.34405   0.35301   0.36098   0.38187
  Beta virt. eigenvalues --    0.39230   0.41347   0.41350   0.42820   0.43407
  Beta virt. eigenvalues --    0.45529   0.47322   0.48561   0.49630   0.50463
  Beta virt. eigenvalues --    0.50583   0.51134   0.53011   0.53963   0.54102
  Beta virt. eigenvalues --    0.54718   0.55594   0.55647   0.56303   0.56741
  Beta virt. eigenvalues --    0.57269   0.57333   0.58552   0.58813   0.59380
  Beta virt. eigenvalues --    0.61162   0.61418   0.62783   0.62967   0.63042
  Beta virt. eigenvalues --    0.64641   0.65467   0.65568   0.67226   0.67561
  Beta virt. eigenvalues --    0.69366   0.69462   0.70275   0.70813   0.71701
  Beta virt. eigenvalues --    0.72157   0.72664   0.73196   0.73683   0.74076
  Beta virt. eigenvalues --    0.74457   0.75002   0.76121   0.76393   0.76830
  Beta virt. eigenvalues --    0.78448   0.80092   0.80513   0.81333   0.83493
  Beta virt. eigenvalues --    0.83569   0.86571   0.88542   0.88733   0.89531
  Beta virt. eigenvalues --    0.90040   0.90248   0.90754   0.92479   0.93935
  Beta virt. eigenvalues --    0.94362   0.96297   0.96812   0.96995   0.98107
  Beta virt. eigenvalues --    0.98253   0.99107   0.99263   1.01949   1.02508
  Beta virt. eigenvalues --    1.03294   1.04179   1.04248   1.05545   1.06599
  Beta virt. eigenvalues --    1.07954   1.08583   1.08752   1.08952   1.09628
  Beta virt. eigenvalues --    1.10451   1.10751   1.10800   1.12443   1.12709
  Beta virt. eigenvalues --    1.13785   1.15172   1.15775   1.16431   1.16848
  Beta virt. eigenvalues --    1.18051   1.18353   1.18649   1.19629   1.20000
  Beta virt. eigenvalues --    1.20936   1.21097   1.21620   1.25265   1.28448
  Beta virt. eigenvalues --    1.30578   1.31128   1.34818   1.36404   1.38065
  Beta virt. eigenvalues --    1.41963   1.43210   1.45075   1.45343   1.47027
  Beta virt. eigenvalues --    1.49596   1.51516   1.51763   1.51913   1.52189
  Beta virt. eigenvalues --    1.53773   1.54770   1.55261   1.56332   1.56693
  Beta virt. eigenvalues --    1.60893   1.61573   1.62827   1.63400   1.64615
  Beta virt. eigenvalues --    1.66573   1.67712   1.67871   1.69164   1.69184
  Beta virt. eigenvalues --    1.70156   1.71499   1.73567   1.73850   1.74610
  Beta virt. eigenvalues --    1.76861   1.77495   1.77991   1.78866   1.79742
  Beta virt. eigenvalues --    1.80679   1.82577   1.83441   1.84716   1.85299
  Beta virt. eigenvalues --    1.87834   1.89093   1.89284   1.89660   1.90809
  Beta virt. eigenvalues --    1.92190   1.92597   1.94871   1.95765   1.97430
  Beta virt. eigenvalues --    1.98203   1.98642   2.00117   2.01082   2.01586
  Beta virt. eigenvalues --    2.02796   2.05811   2.06430   2.06878   2.08077
  Beta virt. eigenvalues --    2.08598   2.08835   2.09319   2.13533   2.13966
  Beta virt. eigenvalues --    2.14311   2.16599   2.17040   2.18233   2.24345
  Beta virt. eigenvalues --    2.32001   2.32815   2.35156   2.36043   2.39424
  Beta virt. eigenvalues --    2.43104   2.43466   2.44566   2.45564   2.46014
  Beta virt. eigenvalues --    2.46082   2.46896   2.52219   2.55948   2.57980
  Beta virt. eigenvalues --    2.58196   2.59491   2.66151   2.66237   2.66514
  Beta virt. eigenvalues --    2.66530   2.67368   2.68410   2.70606   2.71761
  Beta virt. eigenvalues --    2.78878   2.80156   2.84933   2.86408   2.91051
  Beta virt. eigenvalues --    2.93993   2.95799   2.99635   3.14269   3.14506
  Beta virt. eigenvalues --    3.14746   3.15126   3.15623   3.16101   3.20396
  Beta virt. eigenvalues --    3.52696   3.54893   3.55683   3.55820   3.66127
  Beta virt. eigenvalues --   21.46638
          Condensed to atoms (all electrons):
               1          2          3          4          5          6
     1  C    5.021278   0.476754  -0.008283  -0.046910  -0.051117   0.323420
     2  C    0.476754   4.820590   0.507854   0.007617  -0.064866  -0.084351
     3  C   -0.008283   0.507854   4.731734   0.435287  -0.013128   0.009260
     4  C   -0.046910   0.007617   0.435287   4.815721   0.556346   0.001630
     5  C   -0.051117  -0.064866  -0.013128   0.556346   4.631237   0.006834
     6  C    0.323420  -0.084351   0.009260   0.001630   0.006834   5.021053
     7  C   -0.084277  -0.008751   0.000444  -0.000105  -0.000037   0.476896
     8  C    0.009267   0.000448  -0.000047   0.000002   0.000002  -0.008286
     9  C    0.001624  -0.000105   0.000002   0.000000  -0.000000  -0.046917
    10  C    0.006842  -0.000037   0.000002  -0.000000   0.000051  -0.051084
    11  H   -0.045228   0.403302  -0.050321   0.010190   0.000562  -0.024675
    12  H    0.010746  -0.043666   0.388391  -0.059650   0.010721  -0.000384
    13  H    0.000625   0.010486  -0.046640   0.394548  -0.050510   0.000030
    14  H    0.002932   0.002565   0.005753  -0.039488   0.374144  -0.000978
    15  H   -0.024738   0.002771   0.001391  -0.000050  -0.000016  -0.045056
    16  H   -0.000383   0.000031  -0.000001   0.000000  -0.000000   0.010749
    17  H    0.000030  -0.000001   0.000000  -0.000000   0.000000   0.000628
    18  H   -0.000978   0.000016   0.000000  -0.000000   0.000003   0.002919
    19  N   -0.027484   0.004150  -0.000118  -0.000011  -0.000731   0.343304
    20  N    0.343224  -0.025239  -0.031578  -0.027165   0.478048  -0.027439
    21  Re  -0.071732  -0.000322   0.001545  -0.001843  -0.029059  -0.071741
    22  C   -0.000601   0.000011   0.000019   0.000008  -0.002524  -0.000570
    23  C    0.000808   0.000001  -0.000001   0.000001   0.000162  -0.001010
    24  C   -0.001008   0.000008   0.000006   0.000148  -0.003186   0.000808
    25  O    0.000029   0.000000  -0.000000   0.000001   0.000111   0.000029
    26  O   -0.000001  -0.000000   0.000000  -0.000000  -0.000000  -0.000004
    27  O   -0.000003   0.000000  -0.000000  -0.000001  -0.000829  -0.000001
    28  Cl   0.000949  -0.000524   0.000031  -0.000197   0.000497   0.000922
               7          8          9         10         11         12
     1  C   -0.084277   0.009267   0.001624   0.006842  -0.045228   0.010746
     2  C   -0.008751   0.000448  -0.000105  -0.000037   0.403302  -0.043666
     3  C    0.000444  -0.000047   0.000002   0.000002  -0.050321   0.388391
     4  C   -0.000105   0.000002   0.000000  -0.000000   0.010190  -0.059650
     5  C   -0.000037   0.000002  -0.000000   0.000051   0.000562   0.010721
     6  C    0.476896  -0.008286  -0.046917  -0.051084  -0.024675  -0.000384
     7  C    4.820542   0.507652   0.007691  -0.064938   0.002759   0.000031
     8  C    0.507652   4.732052   0.435363  -0.013150   0.001391  -0.000001
     9  C    0.007691   0.435363   4.815425   0.556297  -0.000050   0.000000
    10  C   -0.064938  -0.013150   0.556297   4.631960  -0.000016  -0.000000
    11  H    0.002759   0.001391  -0.000050  -0.000016   0.751967  -0.017124
    12  H    0.000031  -0.000001   0.000000  -0.000000  -0.017124   0.761305
    13  H   -0.000001   0.000000  -0.000000   0.000000  -0.000290  -0.015206
    14  H    0.000017   0.000000  -0.000000   0.000003   0.000137  -0.000412
    15  H    0.403225  -0.050488   0.010191   0.000563  -0.008889   0.000095
    16  H   -0.043769   0.388388  -0.059546   0.010724   0.000095  -0.000000
    17  H    0.010482  -0.046499   0.394523  -0.050574  -0.000001  -0.000000
    18  H    0.002568   0.005752  -0.039516   0.374113  -0.000001   0.000000
    19  N   -0.025225  -0.031584  -0.027132   0.477823   0.000189   0.000002
    20  N    0.004158  -0.000119  -0.000011  -0.000733   0.004760  -0.000210
    21  Re  -0.000305   0.001546  -0.001829  -0.029076  -0.000810   0.000444
    22  C    0.000013   0.000018   0.000009  -0.002516  -0.000004   0.000000
    23  C    0.000008   0.000006   0.000149  -0.003250   0.000001  -0.000000
    24  C    0.000001  -0.000001   0.000001   0.000163  -0.000001   0.000000
    25  O    0.000000  -0.000000   0.000001   0.000109   0.000000  -0.000000
    26  O    0.000000  -0.000000  -0.000001  -0.000852  -0.000000   0.000000
    27  O   -0.000000   0.000000  -0.000000  -0.000000   0.000000  -0.000000
    28  Cl  -0.000539   0.000033  -0.000205   0.000529   0.000001  -0.000000
              13         14         15         16         17         18
     1  C    0.000625   0.002932  -0.024738  -0.000383   0.000030  -0.000978
     2  C    0.010486   0.002565   0.002771   0.000031  -0.000001   0.000016
     3  C   -0.046640   0.005753   0.001391  -0.000001   0.000000   0.000000
     4  C    0.394548  -0.039488  -0.000050   0.000000  -0.000000  -0.000000
     5  C   -0.050510   0.374144  -0.000016  -0.000000   0.000000   0.000003
     6  C    0.000030  -0.000978  -0.045056   0.010749   0.000628   0.002919
     7  C   -0.000001   0.000017   0.403225  -0.043769   0.010482   0.002568
     8  C    0.000000   0.000000  -0.050488   0.388388  -0.046499   0.005752
     9  C   -0.000000  -0.000000   0.010191  -0.059546   0.394523  -0.039516
    10  C    0.000000   0.000003   0.000563   0.010724  -0.050574   0.374113
    11  H   -0.000290   0.000137  -0.008889   0.000095  -0.000001  -0.000001
    12  H   -0.015206  -0.000412   0.000095  -0.000000  -0.000000   0.000000
    13  H    0.752047  -0.010654  -0.000001  -0.000000  -0.000000  -0.000000
    14  H   -0.010654   0.715848  -0.000001   0.000000  -0.000000   0.000000
    15  H   -0.000001  -0.000001   0.752311  -0.017113  -0.000291   0.000137
    16  H   -0.000000   0.000000  -0.017113   0.761324  -0.015203  -0.000412
    17  H   -0.000000  -0.000000  -0.000291  -0.015203   0.751879  -0.010644
    18  H   -0.000000   0.000000   0.000137  -0.000412  -0.010644   0.715901
    19  N    0.000001  -0.000039   0.004775  -0.000210   0.005041  -0.035624
    20  N    0.005042  -0.035628   0.000192   0.000002   0.000001  -0.000039
    21  Re  -0.000323  -0.020355  -0.000813   0.000445  -0.000325  -0.020459
    22  C   -0.000007  -0.001322  -0.000004   0.000000  -0.000006  -0.001311
    23  C    0.000000   0.000241  -0.000001   0.000000  -0.000036  -0.001953
    24  C   -0.000036  -0.001966   0.000001  -0.000000   0.000000   0.000243
    25  O    0.000000  -0.000029   0.000000  -0.000000   0.000000  -0.000029
    26  O   -0.000000  -0.000001   0.000000  -0.000000  -0.000001   0.003742
    27  O   -0.000001   0.003659  -0.000000   0.000000  -0.000000  -0.000001
    28  Cl  -0.000002  -0.000806   0.000001  -0.000000  -0.000002  -0.000809
              19         20         21         22         23         24
     1  C   -0.027484   0.343224  -0.071732  -0.000601   0.000808  -0.001008
     2  C    0.004150  -0.025239  -0.000322   0.000011   0.000001   0.000008
     3  C   -0.000118  -0.031578   0.001545   0.000019  -0.000001   0.000006
     4  C   -0.000011  -0.027165  -0.001843   0.000008   0.000001   0.000148
     5  C   -0.000731   0.478048  -0.029059  -0.002524   0.000162  -0.003186
     6  C    0.343304  -0.027439  -0.071741  -0.000570  -0.001010   0.000808
     7  C   -0.025225   0.004158  -0.000305   0.000013   0.000008   0.000001
     8  C   -0.031584  -0.000119   0.001546   0.000018   0.000006  -0.000001
     9  C   -0.027132  -0.000011  -0.001829   0.000009   0.000149   0.000001
    10  C    0.477823  -0.000733  -0.029076  -0.002516  -0.003250   0.000163
    11  H    0.000189   0.004760  -0.000810  -0.000004   0.000001  -0.000001
    12  H    0.000002  -0.000210   0.000444   0.000000  -0.000000   0.000000
    13  H    0.000001   0.005042  -0.000323  -0.000007   0.000000  -0.000036
    14  H   -0.000039  -0.035628  -0.020355  -0.001322   0.000241  -0.001966
    15  H    0.004775   0.000192  -0.000813  -0.000004  -0.000001   0.000001
    16  H   -0.000210   0.000002   0.000445   0.000000   0.000000  -0.000000
    17  H    0.005041   0.000001  -0.000325  -0.000006  -0.000036   0.000000
    18  H   -0.035624  -0.000039  -0.020459  -0.001311  -0.001953   0.000243
    19  N    6.435214  -0.012818   0.239673  -0.001470   0.006074  -0.004653
    20  N   -0.012818   6.434689   0.239669  -0.001440  -0.004641   0.006060
    21  Re   0.239673   0.239669  13.784811   0.095686   0.064471   0.064343
    22  C   -0.001470  -0.001440   0.095686   5.425680  -0.042214  -0.042088
    23  C    0.006074  -0.004641   0.064471  -0.042214   5.511909  -0.060188
    24  C   -0.004653   0.006060   0.064343  -0.042088  -0.060188   5.511722
    25  O   -0.000015  -0.000016  -0.010562   0.691031  -0.000810  -0.000808
    26  O   -0.000047   0.000002  -0.008714  -0.000876   0.686313  -0.001233
    27  O    0.000002  -0.000046  -0.008693  -0.000869  -0.001239   0.686388
    28  Cl  -0.012681  -0.012596   0.217105  -0.004881   0.003662   0.003596
              25         26         27         28
     1  C    0.000029  -0.000001  -0.000003   0.000949
     2  C    0.000000  -0.000000   0.000000  -0.000524
     3  C   -0.000000   0.000000  -0.000000   0.000031
     4  C    0.000001  -0.000000  -0.000001  -0.000197
     5  C    0.000111  -0.000000  -0.000829   0.000497
     6  C    0.000029  -0.000004  -0.000001   0.000922
     7  C    0.000000   0.000000  -0.000000  -0.000539
     8  C   -0.000000  -0.000000   0.000000   0.000033
     9  C    0.000001  -0.000001  -0.000000  -0.000205
    10  C    0.000109  -0.000852  -0.000000   0.000529
    11  H    0.000000  -0.000000   0.000000   0.000001
    12  H   -0.000000   0.000000  -0.000000  -0.000000
    13  H    0.000000  -0.000000  -0.000001  -0.000002
    14  H   -0.000029  -0.000001   0.003659  -0.000806
    15  H    0.000000   0.000000  -0.000000   0.000001
    16  H   -0.000000  -0.000000   0.000000  -0.000000
    17  H    0.000000  -0.000001  -0.000000  -0.000002
    18  H   -0.000029   0.003742  -0.000001  -0.000809
    19  N   -0.000015  -0.000047   0.000002  -0.012681
    20  N   -0.000016   0.000002  -0.000046  -0.012596
    21  Re  -0.010562  -0.008714  -0.008693   0.217105
    22  C    0.691031  -0.000876  -0.000869  -0.004881
    23  C   -0.000810   0.686313  -0.001239   0.003662
    24  C   -0.000808  -0.001233   0.686388   0.003596
    25  O    7.462652   0.000034   0.000034   0.000007
    26  O    0.000034   7.462493   0.000036   0.000293
    27  O    0.000034   0.000036   7.462343   0.000292
    28  Cl   0.000007   0.000293   0.000292  17.327639
          Atomic-Atomic Spin Densities.
               1          2          3          4          5          6
     1  C    0.179488  -0.028132  -0.013168   0.007725   0.002856   0.065427
     2  C   -0.028132  -0.003161   0.031007  -0.007319   0.001232  -0.005681
     3  C   -0.013168   0.031007   0.131052  -0.060307  -0.003939  -0.001301
     4  C    0.007725  -0.007319  -0.060307   0.191160   0.018282   0.000406
     5  C    0.002856   0.001232  -0.003939   0.018282  -0.043900   0.000180
     6  C    0.065427  -0.005681  -0.001301   0.000406   0.000180   0.179924
     7  C   -0.005664   0.001525   0.000090  -0.000014  -0.000006  -0.028110
     8  C   -0.001302   0.000091   0.000006  -0.000000  -0.000000  -0.013202
     9  C    0.000406  -0.000014  -0.000000   0.000000   0.000000   0.007733
    10  C    0.000182  -0.000006  -0.000000   0.000000  -0.000000   0.002867
    11  H    0.000329   0.000626  -0.000112   0.000024   0.000003   0.000183
    12  H   -0.000023  -0.000382   0.002271   0.000066  -0.000124   0.000001
    13  H   -0.000023  -0.000116   0.000022   0.002712  -0.000057   0.000001
    14  H   -0.000004  -0.000013   0.000037  -0.000420   0.000449   0.000002
    15  H    0.000185   0.000125   0.000012   0.000000   0.000001   0.000330
    16  H    0.000001  -0.000000  -0.000000  -0.000000   0.000000  -0.000023
    17  H    0.000001  -0.000000  -0.000000  -0.000000  -0.000000  -0.000023
    18  H    0.000002   0.000000   0.000000  -0.000000  -0.000000  -0.000004
    19  N   -0.010961   0.000221   0.000028  -0.000019  -0.000040  -0.054460
    20  N   -0.054367   0.004259   0.004933  -0.010169  -0.010721  -0.010967
    21  Re  -0.007187   0.000380   0.000359  -0.000901  -0.000876  -0.007209
    22  C    0.000866  -0.000019  -0.000009   0.000044   0.000170   0.000861
    23  C   -0.000029   0.000000   0.000000  -0.000000  -0.000002  -0.000019
    24  C   -0.000019   0.000002   0.000001  -0.000022  -0.000091  -0.000028
    25  O   -0.000001  -0.000000   0.000000   0.000000  -0.000001  -0.000001
    26  O    0.000000  -0.000000  -0.000000   0.000000   0.000000   0.000000
    27  O    0.000000  -0.000000  -0.000000   0.000001   0.000009   0.000000
    28  Cl   0.001654  -0.000033  -0.000017   0.000059   0.000234   0.001673
               7          8          9         10         11         12
     1  C   -0.005664  -0.001302   0.000406   0.000182   0.000329  -0.000023
     2  C    0.001525   0.000091  -0.000014  -0.000006   0.000626  -0.000382
     3  C    0.000090   0.000006  -0.000000  -0.000000  -0.000112   0.002271
     4  C   -0.000014  -0.000000   0.000000   0.000000   0.000024   0.000066
     5  C   -0.000006  -0.000000   0.000000  -0.000000   0.000003  -0.000124
     6  C   -0.028110  -0.013202   0.007733   0.002867   0.000183   0.000001
     7  C   -0.003505   0.030999  -0.007305   0.001229   0.000126  -0.000000
     8  C    0.030999   0.131613  -0.060397  -0.003961   0.000012  -0.000000
     9  C   -0.007305  -0.060397   0.191071   0.018360   0.000000  -0.000000
    10  C    0.001229  -0.003961   0.018360  -0.043765   0.000001   0.000000
    11  H    0.000126   0.000012   0.000000   0.000001  -0.001559   0.000175
    12  H   -0.000000  -0.000000  -0.000000   0.000000   0.000175  -0.007228
    13  H   -0.000000  -0.000000  -0.000000  -0.000000   0.000003   0.000211
    14  H    0.000000   0.000000  -0.000000  -0.000000  -0.000001   0.000003
    15  H    0.000623  -0.000112   0.000024   0.000002  -0.000027  -0.000002
    16  H   -0.000381   0.002278   0.000066  -0.000124  -0.000002   0.000000
    17  H   -0.000117   0.000021   0.002713  -0.000056   0.000000   0.000000
    18  H   -0.000013   0.000037  -0.000419   0.000450  -0.000000   0.000000
    19  N    0.004260   0.004941  -0.010177  -0.010789  -0.000006   0.000000
    20  N    0.000220   0.000028  -0.000018  -0.000041  -0.000028  -0.000003
    21  Re   0.000378   0.000361  -0.000904  -0.000889  -0.000010  -0.000006
    22  C   -0.000018  -0.000009   0.000043   0.000166   0.000000  -0.000000
    23  C    0.000002   0.000001  -0.000022  -0.000092  -0.000000   0.000000
    24  C    0.000000   0.000000  -0.000000  -0.000003   0.000000  -0.000000
    25  O   -0.000000   0.000000  -0.000000  -0.000001  -0.000000   0.000000
    26  O   -0.000000  -0.000000   0.000001   0.000009   0.000000  -0.000000
    27  O   -0.000000  -0.000000   0.000000   0.000000  -0.000000   0.000000
    28  Cl  -0.000034  -0.000017   0.000062   0.000243   0.000000   0.000000
              13         14         15         16         17         18
     1  C   -0.000023  -0.000004   0.000185   0.000001   0.000001   0.000002
     2  C   -0.000116  -0.000013   0.000125  -0.000000  -0.000000   0.000000
     3  C    0.000022   0.000037   0.000012  -0.000000  -0.000000   0.000000
     4  C    0.002712  -0.000420   0.000000  -0.000000  -0.000000  -0.000000
     5  C   -0.000057   0.000449   0.000001   0.000000  -0.000000  -0.000000
     6  C    0.000001   0.000002   0.000330  -0.000023  -0.000023  -0.000004
     7  C   -0.000000   0.000000   0.000623  -0.000381  -0.000117  -0.000013
     8  C   -0.000000   0.000000  -0.000112   0.002278   0.000021   0.000037
     9  C   -0.000000  -0.000000   0.000024   0.000066   0.002713  -0.000419
    10  C   -0.000000  -0.000000   0.000002  -0.000124  -0.000056   0.000450
    11  H    0.000003  -0.000001  -0.000027  -0.000002   0.000000  -0.000000
    12  H    0.000211   0.000003  -0.000002   0.000000   0.000000   0.000000
    13  H   -0.009885   0.000152   0.000000   0.000000   0.000000   0.000000
    14  H    0.000152   0.000225  -0.000000   0.000000   0.000000  -0.000000
    15  H    0.000000  -0.000000  -0.001544   0.000175   0.000003  -0.000001
    16  H    0.000000   0.000000   0.000175  -0.007257   0.000211   0.000003
    17  H    0.000000   0.000000   0.000003   0.000211  -0.009882   0.000152
    18  H    0.000000  -0.000000  -0.000001   0.000003   0.000152   0.000214
    19  N   -0.000000   0.000000  -0.000028  -0.000003  -0.000026   0.000157
    20  N   -0.000026   0.000155  -0.000006   0.000000  -0.000000   0.000000
    21  Re   0.000016   0.000301  -0.000010  -0.000006   0.000016   0.000300
    22  C   -0.000000   0.000019   0.000000  -0.000000   0.000000   0.000020
    23  C   -0.000000  -0.000005   0.000000  -0.000000   0.000000   0.000033
    24  C    0.000000   0.000033  -0.000000   0.000000  -0.000000  -0.000005
    25  O   -0.000000  -0.000000  -0.000000   0.000000  -0.000000  -0.000000
    26  O    0.000000   0.000000  -0.000000   0.000000  -0.000000  -0.000009
    27  O   -0.000000  -0.000009   0.000000  -0.000000   0.000000   0.000000
    28  Cl   0.000000  -0.000002   0.000000   0.000000   0.000000  -0.000003
              19         20         21         22         23         24
     1  C   -0.010961  -0.054367  -0.007187   0.000866  -0.000029  -0.000019
     2  C    0.000221   0.004259   0.000380  -0.000019   0.000000   0.000002
     3  C    0.000028   0.004933   0.000359  -0.000009   0.000000   0.000001
     4  C   -0.000019  -0.010169  -0.000901   0.000044  -0.000000  -0.000022
     5  C   -0.000040  -0.010721  -0.000876   0.000170  -0.000002  -0.000091
     6  C   -0.054460  -0.010967  -0.007209   0.000861  -0.000019  -0.000028
     7  C    0.004260   0.000220   0.000378  -0.000018   0.000002   0.000000
     8  C    0.004941   0.000028   0.000361  -0.000009   0.000001   0.000000
     9  C   -0.010177  -0.000018  -0.000904   0.000043  -0.000022  -0.000000
    10  C   -0.010789  -0.000041  -0.000889   0.000166  -0.000092  -0.000003
    11  H   -0.000006  -0.000028  -0.000010   0.000000  -0.000000   0.000000
    12  H    0.000000  -0.000003  -0.000006  -0.000000   0.000000  -0.000000
    13  H   -0.000000  -0.000026   0.000016  -0.000000  -0.000000   0.000000
    14  H    0.000000   0.000155   0.000301   0.000019  -0.000005   0.000033
    15  H   -0.000028  -0.000006  -0.000010   0.000000   0.000000  -0.000000
    16  H   -0.000003   0.000000  -0.000006  -0.000000  -0.000000   0.000000
    17  H   -0.000026  -0.000000   0.000016   0.000000   0.000000  -0.000000
    18  H    0.000157   0.000000   0.000300   0.000020   0.000033  -0.000005
    19  N    0.220896   0.003614   0.012107  -0.002793   0.000275   0.000083
    20  N    0.003614   0.220607   0.012061  -0.002792   0.000083   0.000270
    21  Re   0.012107   0.012061   0.026365  -0.022950   0.010557   0.010586
    22  C   -0.002793  -0.002792  -0.022950   0.020336  -0.001245  -0.001284
    23  C    0.000275   0.000083   0.010557  -0.001245   0.008380   0.000815
    24  C    0.000083   0.000270   0.010586  -0.001284   0.000815   0.008391
    25  O    0.000005   0.000005   0.000246   0.000544  -0.000009  -0.000009
    26  O   -0.000008  -0.000000  -0.001348   0.000100  -0.004115  -0.000027
    27  O   -0.000000  -0.000008  -0.001349   0.000100  -0.000027  -0.004120
    28  Cl  -0.003434  -0.003402  -0.019490  -0.000320  -0.001379  -0.001361
              25         26         27         28
     1  C   -0.000001   0.000000   0.000000   0.001654
     2  C   -0.000000  -0.000000  -0.000000  -0.000033
     3  C    0.000000  -0.000000  -0.000000  -0.000017
     4  C    0.000000   0.000000   0.000001   0.000059
     5  C   -0.000001   0.000000   0.000009   0.000234
     6  C   -0.000001   0.000000   0.000000   0.001673
     7  C   -0.000000  -0.000000  -0.000000  -0.000034
     8  C    0.000000  -0.000000  -0.000000  -0.000017
     9  C   -0.000000   0.000001   0.000000   0.000062
    10  C   -0.000001   0.000009   0.000000   0.000243
    11  H   -0.000000   0.000000  -0.000000   0.000000
    12  H    0.000000  -0.000000   0.000000   0.000000
    13  H   -0.000000   0.000000  -0.000000   0.000000
    14  H   -0.000000   0.000000  -0.000009  -0.000002
    15  H   -0.000000  -0.000000   0.000000   0.000000
    16  H    0.000000   0.000000  -0.000000   0.000000
    17  H   -0.000000  -0.000000   0.000000   0.000000
    18  H   -0.000000  -0.000009   0.000000  -0.000003
    19  N    0.000005  -0.000008  -0.000000  -0.003434
    20  N    0.000005  -0.000000  -0.000008  -0.003402
    21  Re   0.000246  -0.001348  -0.001349  -0.019490
    22  C    0.000544   0.000100   0.000100  -0.000320
    23  C   -0.000009  -0.004115  -0.000027  -0.001379
    24  C   -0.000009  -0.000027  -0.004120  -0.001361
    25  O   -0.002444  -0.000000  -0.000000   0.000000
    26  O   -0.000000   0.013900   0.000000   0.000069
    27  O   -0.000000   0.000000   0.013921   0.000069
    28  Cl   0.000000   0.000069   0.000069   0.038016
 Mulliken charges and spin densities:
               1          2
     1  C    0.164216   0.138243
     2  C   -0.008743  -0.005408
     3  C    0.068398   0.090965
     4  C   -0.046080   0.141309
     5  C    0.157288  -0.036343
     6  C    0.164015   0.138559
     7  C   -0.008538  -0.005714
     8  C    0.068254   0.091388
     9  C   -0.045964   0.141222
    10  C    0.157045  -0.036216
    11  H   -0.027944  -0.000264
    12  H   -0.035083  -0.005040
    13  H   -0.039110  -0.006989
    14  H    0.006379   0.000923
    15  H   -0.028193  -0.000249
    16  H   -0.035120  -0.005061
    17  H   -0.039003  -0.006986
    18  H    0.006383   0.000914
    19  N   -0.336404   0.153844
    20  N   -0.336128   0.153685
    21  Re   0.567226   0.010897
    22  C   -0.109775  -0.008170
    23  C   -0.158461   0.013201
    24  C   -0.158321   0.013211
    25  O   -0.141770  -0.001667
    26  O   -0.141184   0.008573
    27  O   -0.141070   0.008587
    28  Cl  -0.522315   0.012588
 Sum of Mulliken charges =  -1.00000   1.00000
 Mulliken charges and spin densities with hydrogens summed into heavy atoms:
               1          2
     1  C    0.164216   0.138243
     2  C   -0.036687  -0.005672
     3  C    0.033315   0.085925
     4  C   -0.085189   0.134320
     5  C    0.163667  -0.035420
     6  C    0.164015   0.138559
     7  C   -0.036731  -0.005963
     8  C    0.033135   0.086326
     9  C   -0.084966   0.134236
    10  C    0.163428  -0.035303
    19  N   -0.336404   0.153844
    20  N   -0.336128   0.153685
    21  Re   0.567226   0.010897
    22  C   -0.109775  -0.008170
    23  C   -0.158461   0.013201
    24  C   -0.158321   0.013211
    25  O   -0.141770  -0.001667
    26  O   -0.141184   0.008573
    27  O   -0.141070   0.008587
    28  Cl  -0.522315   0.012588
 Electronic spatial extent (au):  <R**2>=          15697.2335
 Charge=             -1.0000 electrons
 Dipole moment (field-independent basis, Debye):
    X=             27.1370    Y=             -7.0092    Z=              4.2169  Tot=             28.3431
 Quadrupole moment (field-independent basis, Debye-Ang):
   XX=           -294.0018   YY=           -151.1861   ZZ=           -169.5205
   XY=             39.3753   XZ=            -21.3808   YZ=              4.7455
 Traceless Quadrupole moment (field-independent basis, Debye-Ang):
   XX=            -89.0990   YY=             53.7167   ZZ=             35.3823
   XY=             39.3753   XZ=            -21.3808   YZ=              4.7455
 Octapole moment (field-independent basis, Debye-Ang**2):
  XXX=           2722.7264  YYY=           -317.4604  ZZZ=             -6.2007  XYY=            677.1827
  XXY=           -316.8027  XXZ=            100.4669  XZZ=            729.0175  YZZ=           -109.6688
  YYZ=              0.9440  XYZ=            -20.3900
 Hexadecapole moment (field-independent basis, Debye-Ang**3):
 XXXX=         -24678.4508 YYYY=          -3584.1706 ZZZZ=          -1345.7317 XXXY=           2603.2301
 XXXZ=           -414.2216 YYYX=           1619.5036 YYYZ=            -24.2551 ZZZX=             80.9080
 ZZZY=            -41.3088 XXYY=          -4160.7676 XXZZ=          -3941.1937 YYZZ=           -825.3593
 XXYZ=             76.7717 YYXZ=              7.4271 ZZXY=            519.9893
 N-N= 1.754393444417D+03 E-N=-6.733554147209D+03  KE= 1.314490455402D+03

 Atomic contributions to Alpha molecular orbitals:
 Alpha occ 60 OE=-0.366 is C9-p=0.1016 C4-p=0.1015
 Alpha occ 61 OE=-0.366 is N19-p=0.1323 N20-p=0.1315 C6-p=0.1287 O25-p=0.1286 C1-p=0.1283
 Alpha occ 62 OE=-0.346 is C8-p=0.1135 C3-p=0.1118 H16-s=0.1043 H12-s=0.1027
 Alpha occ 63 OE=-0.342 is C3-p=0.1158 C8-p=0.1139 H12-s=0.1084 H16-s=0.1065
 Alpha occ 64 OE=-0.334 is N20-p=0.1715 N19-p=0.1709 C5-p=0.1121 C10-p=0.1118
 Alpha occ 65 OE=-0.309 is C9-p=0.0955
 Alpha occ 66 OE=-0.300 is C3-p=0.0794
 Alpha occ 67 OE=-0.259 is N19-p=0.1244 N20-p=0.1231
 Alpha occ 68 OE=-0.250 is C8-p=0.1248 C3-p=0.1243 Cl28-p=0.1233
 Alpha occ 69 OE=-0.247 is N20-p=0.1505 N19-p=0.1491
 Alpha occ 70 OE=-0.238 is C3-p=0.1316 N19-p=0.1295 N20-p=0.1272 C8-p=0.1264
 Alpha occ 71 OE=-0.237 is Cl28-p=0.2922 C6-p=0.1061 C1-p=0.1052
 Alpha occ 72 OE=-0.230 is Cl28-p=0.3982
 Alpha occ 73 OE=-0.208 is Cl28-p=0.6124 Re21-d=0.1032
 Alpha occ 74 OE=-0.207 is Cl28-p=0.6213 Re21-d=0.1067
 Alpha occ 75 OE=-0.181 is Re21-d=0.6182 O26-p=0.1011 O27-p=0.1010
 Alpha occ 76 OE=-0.181 is C9-p=0.1468 C4-p=0.1466 C2-p=0.1323 C7-p=0.1320
 Alpha occ 77 OE=-0.168 is Re21-d=0.4487 Cl28-p=0.2526
 Alpha occ 78 OE=-0.165 is Re21-d=0.4676 Cl28-p=0.2175
 Alpha occ 79 OE=-0.045 is C6-p=0.1171 C1-p=0.1169 N19-p=0.1028 C9-p=0.1027 C4-p=0.1027 N20-p=0.1027
 Alpha vir 80 OE=0.028 is C2-p=0.1105 C7-p=0.1084 C5-p=0.1042 C10-p=0.1019
 Alpha vir 81 OE=0.028 is Re21-p=0.1881 C23-p=0.1661 C24-p=0.1625 C22-p=0.1054
 Alpha vir 82 OE=0.034 is C8-p=0.1526 C3-p=0.1392 C10-p=0.1093 C7-p=0.1020
 Alpha vir 83 OE=0.035 is Re21-p=0.1472 C22-p=0.1266
 Alpha vir 84 OE=0.066 is C24-p=0.2357 C23-p=0.2357 C22-p=0.2344
 Alpha vir 85 OE=0.074 is Re21-p=0.4905 Re21-d=0.1658 C22-p=0.1372
 Alpha vir 86 OE=0.081 is C9-p=0.1517 C4-p=0.1517 C1-p=0.1303 C6-p=0.1301
 Alpha vir 87 OE=0.082 is Re21-p=0.6054
 Alpha vir 88 OE=0.084 is Re21-p=0.5572 C22-p=0.1270
 Alpha vir 89 OE=0.097 is Re21-p=0.3690 Re21-d=0.1698 C23-p=0.1576 C24-p=0.1576
 Alpha vir 90 OE=0.102 is Re21-d=0.2239 C22-p=0.2013 Re21-p=0.1591 C23-p=0.1236 C24-p=0.1198
 Alpha vir 91 OE=0.103 is Re21-p=0.4287 Re21-d=0.1627 C22-p=0.1156
 Alpha vir 92 OE=0.121 is H15-s=0.1997 H11-s=0.1995 H16-s=0.1443 H12-s=0.1438 H17-s=0.1096 H13-s=0.1095
 Alpha vir 93 OE=0.133 is Re21-d=0.3686 Re21-p=0.1910 C22-s=0.1432
 Alpha vir 94 OE=0.137 is Re21-d=0.3287 Re21-p=0.2628
 Alpha vir 95 OE=0.144 is H16-s=0.2892 H12-s=0.2890 H13-s=0.1698 H17-s=0.1691
 Alpha vir 96 OE=0.153 is H15-s=0.1951 H11-s=0.1950 H18-s=0.1614 H14-s=0.1613 H17-s=0.1358 H13-s=0.1353
 Alpha vir 97 OE=0.173 is Re21-s=0.3195 H16-s=0.1407 H12-s=0.1391
 Alpha vir 98 OE=0.177 is C4-p=0.1119 C9-p=0.1119 C3-p=0.1019 C8-p=0.1018 C5-p=0.1008 C10-p=0.1008
 Alpha vir 99 OE=0.182 is H17-s=0.3186 H13-s=0.3175 H12-s=0.1732 H16-s=0.1718

 Atomic contributions to Beta  molecular orbitals:
 Beta  occ 59 OE=-0.370 is O27-p=0.2434 O26-p=0.2431 O25-p=0.1719
 Beta  occ 60 OE=-0.365 is C9-p=0.1036 C4-p=0.1035
 Beta  occ 61 OE=-0.354 is N19-p=0.1480 N20-p=0.1474 C6-p=0.1392 C1-p=0.1388
 Beta  occ 62 OE=-0.344 is C8-p=0.1134 C3-p=0.1118 H16-s=0.1063 H12-s=0.1046
 Beta  occ 63 OE=-0.340 is C3-p=0.1172 C8-p=0.1156 H12-s=0.1132 H16-s=0.1115
 Beta  occ 64 OE=-0.323 is N20-p=0.1550 N19-p=0.1545 C5-p=0.1239 C10-p=0.1235
 Beta  occ 65 OE=-0.308 is C9-p=0.0949
 Beta  occ 66 OE=-0.298 is C3-p=0.0784
 Beta  occ 67 OE=-0.256 is N19-p=0.1315 N20-p=0.1305
 Beta  occ 68 OE=-0.243 is N20-p=0.1612 N19-p=0.1599
 Beta  occ 69 OE=-0.242 is Cl28-p=0.3604
 Beta  occ 70 OE=-0.230 is Cl28-p=0.4812
 Beta  occ 71 OE=-0.228 is Cl28-p=0.1421 Re21-d=0.1162 C3-p=0.1100 C8-p=0.1100
 Beta  occ 72 OE=-0.221 is C5-p=0.1428 C10-p=0.1423 C6-p=0.1207 C1-p=0.1206
 Beta  occ 73 OE=-0.204 is Cl28-p=0.5105
 Beta  occ 74 OE=-0.203 is Cl28-p=0.5636
 Beta  occ 75 OE=-0.181 is Re21-d=0.6188 O26-p=0.1010 O27-p=0.1010
 Beta  occ 76 OE=-0.170 is C4-p=0.1190 C9-p=0.1190 C2-p=0.1096 C7-p=0.1094
 Beta  occ 77 OE=-0.167 is Re21-d=0.4552 Cl28-p=0.2380
 Beta  occ 78 OE=-0.163 is Re21-d=0.4000 Cl28-p=0.1598
 Beta  vir 79 OE=0.008 is C6-p=0.0995
 Beta  vir 80 OE=0.029 is Re21-p=0.1890 C24-p=0.1690 C23-p=0.1678 C22-p=0.1054
 Beta  vir 81 OE=0.032 is C7-p=0.1423 C2-p=0.1422 C10-p=0.1069 C5-p=0.1067
 Beta  vir 82 OE=0.039 is C22-p=0.1539 Re21-p=0.1447
 Beta  vir 83 OE=0.044 is C5-p=0.1326 C10-p=0.1307 C3-p=0.1210 C8-p=0.1189 C2-p=0.1066 C7-p=0.1051
 Beta  vir 84 OE=0.067 is C22-p=0.2492 C23-p=0.2292 C24-p=0.2291
 Beta  vir 85 OE=0.075 is Re21-p=0.4975 Re21-d=0.1620 C22-p=0.1320
 Beta  vir 86 OE=0.083 is Re21-p=0.6658
 Beta  vir 87 OE=0.084 is Re21-p=0.5545 C22-p=0.1248
 Beta  vir 88 OE=0.097 is C4-p=0.1613 C9-p=0.1612 C1-p=0.1374 C6-p=0.1374
 Beta  vir 89 OE=0.097 is Re21-p=0.3721 Re21-d=0.1682 C24-p=0.1573 C23-p=0.1570
 Beta  vir 90 OE=0.103 is Re21-d=0.2168 C22-p=0.1671 C23-p=0.1303 Re21-p=0.1264 C24-p=0.1231
 Beta  vir 91 OE=0.104 is Re21-p=0.4214 Re21-d=0.1631 C22-p=0.1084
 Beta  vir 92 OE=0.122 is H15-s=0.2036 H11-s=0.2033 H16-s=0.1432 H12-s=0.1428 H17-s=0.1077 H13-s=0.1076
 Beta  vir 93 OE=0.134 is Re21-d=0.3723 Re21-p=0.1877 C22-s=0.1451
 Beta  vir 94 OE=0.138 is Re21-d=0.3278 Re21-p=0.2617
 Beta  vir 95 OE=0.145 is H16-s=0.2903 H12-s=0.2901 H13-s=0.1677 H17-s=0.1669
 Beta  vir 96 OE=0.153 is H15-s=0.1938 H11-s=0.1937 H18-s=0.1654 H14-s=0.1653 H17-s=0.1311 H13-s=0.1306
 Beta  vir 97 OE=0.174 is Re21-s=0.3128 H16-s=0.1428 H12-s=0.1412
 Beta  vir 98 OE=0.183 is H17-s=0.3180 H13-s=0.3169 H12-s=0.1706 H16-s=0.1693
 
                          Isotropic Fermi Contact Couplings
        Atom                 a.u.       MegaHertz       Gauss      10(-4) cm-1
     1  C(13)              0.01004      11.28161       4.02556       3.76314
     2  C(13)             -0.00496      -5.57143      -1.98803      -1.85843
     3  C(13)              0.00799       8.97915       3.20398       2.99512
     4  C(13)              0.01504      16.90792       6.03317       5.63988
     5  C(13)             -0.00996     -11.19568      -3.99490      -3.73448
     6  C(13)              0.01007      11.32504       4.04106       3.77763
     7  C(13)             -0.00500      -5.62458      -2.00699      -1.87616
     8  C(13)              0.00804       9.04076       3.22597       3.01567
     9  C(13)              0.01502      16.88561       6.02520       5.63243
    10  C(13)             -0.00995     -11.18284      -3.99032      -3.73020
    11  H(1)              -0.00018      -0.80280      -0.28646      -0.26779
    12  H(1)              -0.00157      -7.00453      -2.49939      -2.33646
    13  H(1)              -0.00219      -9.80175      -3.49751      -3.26951
    14  H(1)               0.00023       1.02987       0.36748       0.34353
    15  H(1)              -0.00018      -0.78458      -0.27996      -0.26171
    16  H(1)              -0.00157      -7.03329      -2.50965      -2.34605
    17  H(1)              -0.00219      -9.79861      -3.49639      -3.26846
    18  H(1)               0.00023       1.02013       0.36401       0.34028
    19  N(14)              0.03345      10.80945       3.85708       3.60564
    20  N(14)              0.03348      10.81598       3.85941       3.60782
    21  Re(187            -0.00000      -0.00005      -0.00002      -0.00002
    22  C(13)              0.00153       1.71968       0.61362       0.57362
    23  C(13)              0.00027       0.30165       0.10764       0.10062
    24  C(13)              0.00026       0.29372       0.10481       0.09797
    25  O(17)             -0.00020       0.11825       0.04220       0.03945
    26  O(17)              0.00215      -1.30368      -0.46519      -0.43486
    27  O(17)              0.00215      -1.30274      -0.46485      -0.43455
    28  Cl(35)             0.02586      11.33666       4.04520       3.78150
 --------------------------------------------------------
       Center         ----  Spin Dipole Couplings  ----
                      3XX-RR        3YY-RR        3ZZ-RR
 --------------------------------------------------------
     1   Atom       -0.092247     -0.084422      0.176669
     2   Atom        0.001270     -0.004827      0.003558
     3   Atom       -0.050700     -0.051485      0.102185
     4   Atom       -0.076948     -0.074334      0.151282
     5   Atom        0.016638      0.017421     -0.034059
     6   Atom       -0.087540     -0.089243      0.176782
     7   Atom       -0.007659      0.004437      0.003222
     8   Atom       -0.050984     -0.051516      0.102499
     9   Atom       -0.075439     -0.075591      0.151030
    10   Atom        0.010545      0.023350     -0.033894
    11   Atom        0.002125      0.001899     -0.004024
    12   Atom        0.009388     -0.007887     -0.001501
    13   Atom       -0.006024      0.007051     -0.001027
    14   Atom        0.001395      0.002605     -0.004000
    15   Atom        0.002510      0.001519     -0.004029
    16   Atom       -0.006113      0.007597     -0.001484
    17   Atom       -0.004187      0.005232     -0.001045
    18   Atom        0.002163      0.001837     -0.004000
    19   Atom       -0.186077     -0.186742      0.372818
    20   Atom       -0.184602     -0.188240      0.372843
    21   Atom        0.002731      0.000524     -0.003255
    22   Atom       -0.001016     -0.001616      0.002632
    23   Atom       -0.007598     -0.009974      0.017572
    24   Atom       -0.008845     -0.008741      0.017586
    25   Atom       -0.002867     -0.001487      0.004354
    26   Atom       -0.020518     -0.020716      0.041235
    27   Atom       -0.020404     -0.020891      0.041295
    28   Atom       -0.042135     -0.047676      0.089811
 --------------------------------------------------------
                        XY            XZ            YZ
 --------------------------------------------------------
     1   Atom        0.001537      0.020358     -0.014655
     2   Atom        0.005216      0.001004     -0.000653
     3   Atom       -0.000621      0.010966     -0.008694
     4   Atom        0.000761      0.014652     -0.013043
     5   Atom        0.008041     -0.002746      0.003410
     6   Atom        0.003918      0.022418     -0.013428
     7   Atom        0.000429      0.001004     -0.000615
     8   Atom       -0.000792      0.013123     -0.006782
     9   Atom        0.001337      0.018683     -0.008764
    10   Atom        0.004907     -0.004238      0.001322
    11   Atom       -0.000701     -0.000426      0.000362
    12   Atom        0.002374     -0.000576     -0.000521
    13   Atom        0.010184      0.000899     -0.000203
    14   Atom        0.000229     -0.000252      0.000446
    15   Atom       -0.000484     -0.000516      0.000251
    16   Atom       -0.005804      0.000152      0.000843
    17   Atom        0.011141      0.000696     -0.000666
    18   Atom        0.000628     -0.000516      0.000058
    19   Atom       -0.002865      0.052901     -0.038846
    20   Atom       -0.001835      0.056172     -0.029557
    21   Atom       -0.002020     -0.000244      0.000159
    22   Atom       -0.000580     -0.002275      0.001415
    23   Atom       -0.000749     -0.002161     -0.002147
    24   Atom       -0.001389      0.001024      0.002879
    25   Atom        0.001307     -0.000542      0.000317
    26   Atom       -0.000347     -0.004558     -0.004817
    27   Atom       -0.000245      0.002414      0.006209
    28   Atom       -0.005134     -0.025641      0.015162
 --------------------------------------------------------


 ---------------------------------------------------------------------------------
              Anisotropic Spin Dipole Couplings in Principal Axis System
 ---------------------------------------------------------------------------------

       Atom             a.u.   MegaHertz   Gauss  10(-4) cm-1        Axes

              Baa    -0.0945   -12.684    -4.526    -4.231  0.9585 -0.2716 -0.0866
     1 C(13)  Bbb    -0.0845   -11.336    -4.045    -3.781  0.2752  0.9608  0.0325
              Bcc     0.1790    24.020     8.571     8.012  0.0744 -0.0550  0.9957
 
              Baa    -0.0079    -1.063    -0.379    -0.354 -0.4991  0.8616  0.0927
     2 C(13)  Bbb     0.0033     0.448     0.160     0.149 -0.3985 -0.3232  0.8583
              Bcc     0.0046     0.615     0.219     0.205  0.7695  0.3915  0.5046
 
              Baa    -0.0520    -6.975    -2.489    -2.326  0.0053  0.9984  0.0559
     3 C(13)  Bbb    -0.0515    -6.908    -2.465    -2.304  0.9975 -0.0013 -0.0713
              Bcc     0.1035    13.883     4.954     4.631  0.0711 -0.0562  0.9959
 
              Baa    -0.0786   -10.547    -3.764    -3.518  0.9084 -0.4101 -0.0812
     4 C(13)  Bbb    -0.0744    -9.978    -3.560    -3.328  0.4132  0.9103  0.0258
              Bcc     0.1530    20.526     7.324     6.847  0.0633 -0.0570  0.9964
 
              Baa    -0.0345    -4.629    -1.652    -1.544  0.0653 -0.0755  0.9950
     5 C(13)  Bbb     0.0094     1.263     0.451     0.421  0.7230 -0.6837 -0.0993
              Bcc     0.0251     3.366     1.201     1.123  0.6877  0.7259  0.0099
 
              Baa    -0.0947   -12.705    -4.534    -4.238 -0.6858  0.7219  0.0923
     6 C(13)  Bbb    -0.0846   -11.356    -4.052    -3.788  0.7231  0.6903 -0.0265
              Bcc     0.1793    24.061     8.586     8.026  0.0829 -0.0486  0.9954
 
              Baa    -0.0078    -1.043    -0.372    -0.348  0.9949 -0.0397 -0.0930
     7 C(13)  Bbb     0.0031     0.413     0.147     0.138  0.1011  0.3829  0.9182
              Bcc     0.0047     0.630     0.225     0.210  0.0008  0.9229 -0.3850
 
              Baa    -0.0522    -7.007    -2.500    -2.337  0.8783  0.4751 -0.0537
     8 C(13)  Bbb    -0.0517    -6.937    -2.475    -2.314 -0.4706  0.8788  0.0787
              Bcc     0.1039    13.944     4.976     4.651  0.0846 -0.0439  0.9955
 
              Baa    -0.0786   -10.542    -3.761    -3.516  0.7858 -0.6123 -0.0873
     9 C(13)  Bbb    -0.0743    -9.974    -3.559    -3.327  0.6131  0.7897 -0.0201
              Bcc     0.1529    20.516     7.321     6.843  0.0813 -0.0377  0.9960
 
              Baa    -0.0344    -4.609    -1.645    -1.538  0.0973 -0.0311  0.9948
    10 C(13)  Bbb     0.0093     1.253     0.447     0.418  0.9418 -0.3202 -0.1021
              Bcc     0.0250     3.357     1.198     1.120  0.3217  0.9469 -0.0019
 
              Baa    -0.0041    -2.171    -0.775    -0.724  0.0625 -0.0530  0.9966
    11 H(1)   Bbb     0.0013     0.695     0.248     0.232  0.6482  0.7615 -0.0001
              Bcc     0.0028     1.477     0.527     0.493  0.7589 -0.6460 -0.0820
 
              Baa    -0.0082    -4.394    -1.568    -1.466 -0.1311  0.9892  0.0653
    12 H(1)   Bbb    -0.0015    -0.805    -0.287    -0.269  0.0651 -0.0572  0.9962
              Bcc     0.0097     5.199     1.855     1.734  0.9892  0.1349 -0.0569
 
              Baa    -0.0117    -6.222    -2.220    -2.076  0.8749 -0.4771 -0.0831
    13 H(1)   Bbb    -0.0010    -0.511    -0.182    -0.171  0.0640 -0.0561  0.9964
              Bcc     0.0126     6.734     2.403     2.246  0.4800  0.8771  0.0185
 
              Baa    -0.0040    -2.157    -0.770    -0.720  0.0490 -0.0685  0.9964
    14 H(1)   Bbb     0.0014     0.733     0.261     0.244  0.9850 -0.1617 -0.0596
              Bcc     0.0027     1.425     0.508     0.475  0.1652  0.9845  0.0596
 
              Baa    -0.0041    -2.176    -0.776    -0.726  0.0752 -0.0382  0.9964
    15 H(1)   Bbb     0.0013     0.706     0.252     0.235  0.3799  0.9250  0.0068
              Bcc     0.0028     1.470     0.525     0.490  0.9220 -0.3781 -0.0841
 
              Baa    -0.0083    -4.411    -1.574    -1.471  0.9361  0.3459 -0.0640
    16 H(1)   Bbb    -0.0015    -0.803    -0.287    -0.268  0.0827 -0.0395  0.9958
              Bcc     0.0098     5.214     1.861     1.739 -0.3419  0.9374  0.0656
 
              Baa    -0.0117    -6.220    -2.219    -2.075  0.8298 -0.5509 -0.0890
    17 H(1)   Bbb    -0.0010    -0.513    -0.183    -0.171  0.0811 -0.0388  0.9960
              Bcc     0.0126     6.733     2.403     2.246  0.5521  0.8337 -0.0125
 
              Baa    -0.0040    -2.158    -0.770    -0.720  0.0846 -0.0188  0.9962
    18 H(1)   Bbb     0.0014     0.734     0.262     0.245 -0.5950  0.8010  0.0657
              Bcc     0.0027     1.425     0.508     0.475  0.7992  0.5984 -0.0566
 
              Baa    -0.1913    -7.380    -2.633    -2.462  0.9220 -0.3708 -0.1120
    19 N(14)  Bbb    -0.1891    -7.293    -2.602    -2.433  0.3759  0.9262  0.0286
              Bcc     0.3805    14.673     5.236     4.894  0.0931 -0.0685  0.9933
 
              Baa    -0.1911    -7.371    -2.630    -2.459  0.7637 -0.6362 -0.1094
    20 N(14)  Bbb    -0.1889    -7.284    -2.599    -2.430  0.6379  0.7698 -0.0233
              Bcc     0.3800    14.655     5.229     4.888  0.0990 -0.0520  0.9937
 
              Baa    -0.0033    -0.402    -0.143    -0.134  0.0324 -0.0246  0.9992
    21 Re(187 Bbb    -0.0007    -0.083    -0.030    -0.028  0.5104  0.8599  0.0046
              Bcc     0.0039     0.485     0.173     0.162  0.8593 -0.5098 -0.0404
 
              Baa    -0.0022    -0.290    -0.104    -0.097  0.7083 -0.5110  0.4870
    22 C(13)  Bbb    -0.0020    -0.264    -0.094    -0.088  0.5711  0.8203  0.0301
              Bcc     0.0041     0.554     0.198     0.185 -0.4149  0.2568  0.8729
 
              Baa    -0.0105    -1.402    -0.500    -0.468  0.3211  0.9421  0.0970
    23 C(13)  Bbb    -0.0075    -1.001    -0.357    -0.334  0.9435 -0.3271  0.0534
              Bcc     0.0179     2.403     0.858     0.802 -0.0820 -0.0743  0.9939
 
              Baa    -0.0105    -1.403    -0.501    -0.468  0.6852  0.7216 -0.0991
    24 C(13)  Bbb    -0.0075    -1.002    -0.358    -0.334  0.7277 -0.6842  0.0489
              Bcc     0.0179     2.405     0.858     0.802  0.0325  0.1056  0.9939
 
              Baa    -0.0037     0.268     0.096     0.089  0.8539 -0.5146  0.0778
    25 O(17)  Bbb    -0.0007     0.051     0.018     0.017  0.5161  0.8565  0.0016
              Bcc     0.0044    -0.319    -0.114    -0.106 -0.0674  0.0387  0.9970
 
              Baa    -0.0217     1.568     0.560     0.523  0.6416  0.7599  0.1047
    26 O(17)  Bbb    -0.0203     1.466     0.523     0.489  0.7637 -0.6456  0.0060
              Bcc     0.0419    -3.034    -1.083    -1.012 -0.0722 -0.0761  0.9945
 
              Baa    -0.0217     1.570     0.560     0.524  0.3709  0.9227 -0.1052
    27 O(17)  Bbb    -0.0203     1.469     0.524     0.490  0.9279 -0.3729  0.0012
              Bcc     0.0420    -3.039    -1.084    -1.014  0.0381  0.0980  0.9945
 
              Baa    -0.0507    -2.656    -0.948    -0.886  0.5164  0.8564  0.0018
    28 Cl(35) Bbb    -0.0456    -2.388    -0.852    -0.796  0.8362 -0.5047  0.2148
              Bcc     0.0964     5.043     1.800     1.682 -0.1849  0.1094  0.9767
 

 ---------------------------------------------------------------------------------

 No NMR shielding tensors so no spin-rotation constants.
 Leave Link  601 at Tue Mar 24 18:24:02 2026, MaxMem=  2684354560 cpu:               6.3 elap:               0.2
 (Enter /home/programes/qq/gaussian/g16.A03/g16/l9999.exe)
 1\1\GINC-MAGINET227\SP\UB3LYP\Gen\C13H8Cl1N2O3Re1(1-,2)\SOLE\24-Mar-20
 26\0\\#p b3lyp/gen EmpiricalDispersion=GD3BJ pseudo=read scrf=(solvent
 =n,n-DiMethylFormamide,pcm,read) nosymm pop=(Orbitals=20) geom=checkpo
 int guess=read\\Title Card Required\\-1,2\C,0,-2.2880266509,0.29886528
 42,0.0311475714\C,0,-0.8924967331,0.3393964159,-0.0631217962\C,0,-0.23
 56121312,1.5672969524,-0.0421086541\C,0,-0.9874220774,2.7357501852,0.0
 764625776\C,0,-2.371562948,2.6275987672,0.1654333467\C,0,-3.0539644551
 ,-0.9697512511,0.0265230483\C,0,-2.439795453,-2.2225567073,-0.07828903
 4\C,0,-3.2199410535,-3.3762027767,-0.0659977548\C,0,-4.6039749221,-3.2
 564189475,0.0551692196\C,0,-5.1531498563,-1.9820942702,0.1547353178\H,
 0,-0.3171354464,-0.5792141707,-0.1527305196\H,0,0.8516207263,1.6072938
 805,-0.1160557831\H,0,-0.5186464222,3.7189782436,0.0994615959\H,0,-3.0
 011318228,3.5118097425,0.2573895377\H,0,-1.359121573,-2.3020972057,-0.
 1695088857\H,0,-2.7487260257,-4.35615048,-0.1486646735\H,0,-5.25526927
 91,-4.1296382501,0.0719772943\H,0,-6.2287935947,-1.8377918561,0.249068
 8572\N,0,-4.4036237695,-0.865277818,0.1383537565\N,0,-3.0101881008,1.4
 440431517,0.1416537733\Re,0,-5.2988952352,1.248895156,0.1911892607\C,0
 ,-5.3528335234,1.2810997004,2.0923045513\C,0,-7.1521006114,0.798898600
 6,0.1184802738\C,0,-5.7688714708,3.0973576167,0.1181086182\O,0,-5.3774
 445578,1.2959013272,3.2554192347\O,0,-8.2697872937,0.4868504537,0.0658
 669455\O,0,-6.0169925226,4.2308828804,0.0645410065\Cl,0,-5.0191131966,
 1.0812853751,-2.3938386862\\Version=ES64L-G16RevA.03\HF=-1375.1376608\
 S2=0.756319\S2-1=0.\S2A=0.750035\RMSD=3.141e-09\Dipole=2.7576737,-1.66
 08261,1.7419618\Quadrupole=-66.2429111,39.9370316,26.3058795,29.274576
 2,-15.8961062,3.5281933\PG=C01 [X(C13H8Cl1N2O3Re1)]\\@


 MY DESCRIPTION OF EXPERIENCE IS NOT WHAT HAPPENS
 TO A MAN.  EXPERIENCE IS WHAT A MAN DOES WITH WHAT
 HAPPENS TO HIM.
                         - CHUCK KNOX, SEATTLE SEAHAWKS, 1985
 Job cpu time:       0 days  0 hours 27 minutes 18.5 seconds.
 Elapsed time:       0 days  0 hours  0 minutes 53.7 seconds.
 File lengths (MBytes):  RWF=    508 Int=      0 D2E=      0 Chk=     21 Scr=      1
 Normal termination of Gaussian 16 at Tue Mar 24 18:24:02 2026.
