%mem=20GB
%chk=re-bpy-co3-cl.chk
#p opt freq b3lyp/gen EmpiricalDispersion=GD3BJ pseudo=read scrf=(solvent=n,n-DiMethylFormamide,pcm) nosymm pop=(Orbitals=20)

Title Card Required

0 1
C      -2.29454      0.25004      0.02949
C      -0.86319      0.36734     -0.04423
C      -0.24348      1.58517     -0.03063
C      -1.05191      2.77702      0.06806
C      -2.41330      2.63435      0.14980
C      -3.01396     -0.94179      0.02482
C      -2.45036     -2.26248     -0.05239
C      -3.23895     -3.37847     -0.05144
C      -4.67107     -3.21934      0.03674
C      -5.17978     -1.94907      0.12424
H      -0.26911     -0.54632     -0.11338
H       0.84517      1.65625     -0.09049
H      -0.60558      3.77216      0.07710
H      -3.05523      3.51448      0.23297
H      -1.36462     -2.36182     -0.11308
H      -2.79381     -4.37443     -0.11225
H      -5.34353     -4.07802      0.03565
H      -6.25807     -1.79219      0.20268
N      -4.43170     -0.80332      0.12084
N      -3.07814      1.43885      0.13179
Re     -5.17292      1.17165      0.30627
C      -5.30779      1.26459      2.16278
C      -7.02745      0.69521      0.15067
C      -5.62149      3.03183      0.14005
O      -5.37391      1.31363      3.33702
O      -8.15036      0.37088      0.05005
O      -5.86295      4.17457      0.03030
Cl     -5.20097      1.18424     -2.66046

-Re 0
lanl2dz
F    1   1.00
      0.8690000              1.0000000
****
-C O N H Cl 0
cc-pVDZ
****

-Re 0
lanl2dz









