%mem=20GB
%chk=alkene_triplet_eq.chk
#p b3lyp/gen EmpiricalDispersion=GD3BJ pseudo=read scrf=(solvent=acetonitrile,pcm,read) nosymm pop=(Orbitals=20)

Title Card Required

0 3
C        -1.283080        0.598280        0.676600
C        -0.617730        1.612220       -0.133270
H        -0.114230        1.358480       -1.072700
C        -0.489150       -0.091720        1.747720
H        -0.134950        0.645330        2.493990
H        -1.087690       -0.854400        2.264660
H         0.418800       -0.566440        1.332470
C        -0.630460        3.006350        0.274830
O        -1.182420        3.431490        1.285860
O         0.038670        3.798440       -0.597630
C         0.068820        5.207330       -0.276250
H        -0.966420        5.576790       -0.201510
H         0.539840        5.336720        0.711360
B        -2.789930        0.350960        0.497960
O        -3.555170        0.992700       -0.450740
O        -3.509660       -0.523090        1.281720
C        -4.953710        0.699430       -0.139350
C        -4.841490       -0.635120        0.685600
C        -5.471200        1.878070        0.687760
C        -5.728890        0.582950       -1.444130
C        -4.823060       -1.887330       -0.192930
C        -5.861980       -0.783580        1.805310
H        -4.922750        1.971370        1.636660
H        -5.324130        2.805740        0.115360
H        -6.543180        1.773400        0.909950
H        -5.272180       -0.148160       -2.123440
H        -6.769000        0.280130       -1.248210
H        -5.748420        1.558950       -1.951750
H        -4.531390       -2.750530        0.423240
H        -5.814020       -2.088980       -0.625230
H        -4.096350       -1.789160       -1.012780
H        -5.704470       -1.739870        2.326210
H        -5.776650        0.026280        2.541130
H        -6.884310       -0.782270        1.397000
C         0.844730        5.905140       -1.372430
H         0.359320        5.760070       -2.350090
H         0.892100        6.985360       -1.165460
H         1.873820        5.517990       -1.432450

-C B O H 0
cc-pVDZ
****


NonEq=write




