 Entering Gaussian System, Link 0=g16
 Initial command:
 /mnt/data/applications/G16/g16/l1.exe "/scratch/Gau-8705.inp" -scrdir="/scratch/"
 Entering Link 1 = /mnt/data/applications/G16/g16/l1.exe PID=      8706.
  
 Copyright (c) 1988,1990,1992,1993,1995,1998,2003,2009,2016,
            Gaussian, Inc.  All Rights Reserved.
  
 This is part of the Gaussian(R) 16 program.  It is based on
 the Gaussian(R) 09 system (copyright 2009, Gaussian, Inc.),
 the Gaussian(R) 03 system (copyright 2003, Gaussian, Inc.),
 the Gaussian(R) 98 system (copyright 1998, Gaussian, Inc.),
 the Gaussian(R) 94 system (copyright 1995, Gaussian, Inc.),
 the Gaussian 92(TM) system (copyright 1992, Gaussian, Inc.),
 the Gaussian 90(TM) system (copyright 1990, Gaussian, Inc.),
 the Gaussian 88(TM) system (copyright 1988, Gaussian, Inc.),
 the Gaussian 86(TM) system (copyright 1986, Carnegie Mellon
 University), and the Gaussian 82(TM) system (copyright 1983,
 Carnegie Mellon University). Gaussian is a federally registered
 trademark of Gaussian, Inc.
  
 This software contains proprietary and confidential information,
 including trade secrets, belonging to Gaussian, Inc.
  
 This software is provided under written license and may be
 used, copied, transmitted, or stored only in accord with that
 written license.
  
 The following legend is applicable only to US Government
 contracts under FAR:
  
                    RESTRICTED RIGHTS LEGEND
  
 Use, reproduction and disclosure by the US Government is
 subject to restrictions as set forth in subparagraphs (a)
 and (c) of the Commercial Computer Software - Restricted
 Rights clause in FAR 52.227-19.
  
 Gaussian, Inc.
 340 Quinnipiac St., Bldg. 40, Wallingford CT 06492
  
  
 ---------------------------------------------------------------
 Warning -- This program may not be used in any manner that
 competes with the business of Gaussian, Inc. or will provide
 assistance to any competitor of Gaussian, Inc.  The licensee
 of this program is prohibited from giving any competitor of
 Gaussian, Inc. access to this program.  By using this program,
 the user acknowledges that Gaussian, Inc. is engaged in the
 business of creating and licensing software in the field of
 computational chemistry and represents and warrants to the
 licensee that it is not a competitor of Gaussian, Inc. and that
 it will not use this program in any manner prohibited above.
 ---------------------------------------------------------------
  

 Cite this work as:
 Gaussian 16, Revision A.03,
 M. J. Frisch, G. W. Trucks, H. B. Schlegel, G. E. Scuseria, 
 M. A. Robb, J. R. Cheeseman, G. Scalmani, V. Barone, 
 G. A. Petersson, H. Nakatsuji, X. Li, M. Caricato, A. V. Marenich, 
 J. Bloino, B. G. Janesko, R. Gomperts, B. Mennucci, H. P. Hratchian, 
 J. V. Ortiz, A. F. Izmaylov, J. L. Sonnenberg, D. Williams-Young, 
 F. Ding, F. Lipparini, F. Egidi, J. Goings, B. Peng, A. Petrone, 
 T. Henderson, D. Ranasinghe, V. G. Zakrzewski, J. Gao, N. Rega, 
 G. Zheng, W. Liang, M. Hada, M. Ehara, K. Toyota, R. Fukuda, 
 J. Hasegawa, M. Ishida, T. Nakajima, Y. Honda, O. Kitao, H. Nakai, 
 T. Vreven, K. Throssell, J. A. Montgomery, Jr., J. E. Peralta, 
 F. Ogliaro, M. J. Bearpark, J. J. Heyd, E. N. Brothers, K. N. Kudin, 
 V. N. Staroverov, T. A. Keith, R. Kobayashi, J. Normand, 
 K. Raghavachari, A. P. Rendell, J. C. Burant, S. S. Iyengar, 
 J. Tomasi, M. Cossi, J. M. Millam, M. Klene, C. Adamo, R. Cammi, 
 J. W. Ochterski, R. L. Martin, K. Morokuma, O. Farkas, 
 J. B. Foresman, and D. J. Fox, Gaussian, Inc., Wallingford CT, 2016.
 
 ******************************************
 Gaussian 16:  AM64L-G16RevA.03 25-Dec-2016
                18-Aug-2026 
 ******************************************
 %nprocshared=24
 Will use up to   24 processors via shared memory.
 %mem=20GB
 %chk=alkene_eq.chk
 ----------------------------------------------------------------------
 #p b3lyp/gen EmpiricalDispersion=GD3BJ pseudo=read scrf=(solvent=aceto
 nitrile,pcm,read) nosymm pop=(Orbitals=20) geom=checkpoint guess=read
 ----------------------------------------------------------------------
 1/29=2,38=1,40=2,172=1/1;
 2/12=2,15=1,40=1/2;
 3/5=7,11=2,14=-4,16=1,17=8,25=1,30=1,70=2203,72=2,74=-5,116=-2,124=41/1,2,3;
 4/5=1/1;
 5/5=2,38=6,53=2/2;
 6/7=2,8=2,9=2,10=2,28=1,96=20/1;
 99/5=1,9=1/99;
 Leave Link    1 at Tue Aug 18 20:49:09 2026, MaxMem=  2684354560 cpu:               1.5 elap:               0.1
 (Enter /mnt/data/applications/G16/g16/l101.exe)
 -------------------
 Title Card Required
 -------------------
 Structure from the checkpoint file:  "alkene_eq.chk"
 Charge =  0 Multiplicity = 3
 Z-Matrix found in chk file.
 C,0,-1.01812,0.37875,0.0131
 C,0,-0.2812,1.50594,0.02905
 H,0,0.81018,1.50169,-0.03712
 C,0,-0.38702,-0.98049,-0.10321
 H,0,0.71029,-0.93275,-0.16581
 H,0,-0.66798,-1.60789,0.76074
 H,0,-0.77251,-1.50391,-0.99558
 C,0,-0.95089,2.81339,0.13557
 O,0,-2.16379,2.96832,0.21011
 O,0,-0.07685,3.83391,0.14094
 C,0,-0.64363,5.16426,0.24187
 H,0,-1.3281,5.31961,-0.60651
 H,0,-1.23701,5.22395,1.16743
 B,0,-2.58891,0.42048,0.11713
 O,0,-3.40014,0.32186,-0.98412
 O,0,-3.25688,0.31948,1.31029
 C,0,-4.78248,0.42482,-0.50848
 C,0,-4.65266,0.00126,1.00394
 C,0,-5.20652,1.88178,-0.70064
 C,0,-5.64944,-0.49681,-1.35568
 C,0,-4.80966,-1.50312,1.23072
 C,0,-5.5439,0.78035,1.96158
 H,0,-4.56559,2.56038,-0.12325
 H,0,-5.10364,2.14102,-1.7652
 H,0,-6.25648,2.03311,-0.41023
 H,0,-5.26681,-1.52548,-1.36121
 H,0,-6.68324,-0.50777,-0.97721
 H,0,-5.67113,-0.13237,-2.39362
 H,0,-4.51067,-1.73995,2.26252
 H,0,-5.85143,-1.82597,1.08918
 H,0,-4.16779,-2.07915,0.54807
 H,0,-5.38002,0.42697,2.99066
 H,0,-5.3278,1.8558,1.9284
 H,0,-6.60517,0.62613,1.71284
 C,0,0.5069,6.14666,0.23556
 H,0,1.08944,6.0634,-0.69505
 H,0,0.11789,7.17373,0.31047
 H,0,1.18076,5.96794,1.08777
 Recover connectivity data from disk.
 ITRead=  0  0  0  0  0  0  0  0  0  0  0  0  0  0  0  0  0  0  0  0
 ITRead=  0  0  0  0  0  0  0  0  0  0  0  0  0  0  0  0  0  0
 MicOpt= -1 -1 -1 -1 -1 -1 -1 -1 -1 -1 -1 -1 -1 -1 -1 -1 -1 -1 -1 -1
 MicOpt= -1 -1 -1 -1 -1 -1 -1 -1 -1 -1 -1 -1 -1 -1 -1 -1 -1 -1
 NAtoms=     38 NQM=       38 NQMF=       0 NMMI=      0 NMMIF=      0
                NMic=       0 NMicF=      0.
                    Isotopes and Nuclear Properties:
 (Nuclear quadrupole moments (NQMom) in fm**2, nuclear magnetic moments (NMagM)
  in nuclear magnetons)

  Atom         1           2           3           4           5           6           7           8           9          10
 IAtWgt=          12          12           1          12           1           1           1          12          16          16
 AtmWgt=  12.0000000  12.0000000   1.0078250  12.0000000   1.0078250   1.0078250   1.0078250  12.0000000  15.9949146  15.9949146
 NucSpn=           0           0           1           0           1           1           1           0           0           0
 AtZEff=   3.6000000   3.6000000   1.0000000   3.6000000   1.0000000   1.0000000   1.0000000   3.6000000   5.6000000   5.6000000
 NQMom=    0.0000000   0.0000000   0.0000000   0.0000000   0.0000000   0.0000000   0.0000000   0.0000000   0.0000000   0.0000000
 NMagM=    0.0000000   0.0000000   2.7928460   0.0000000   2.7928460   2.7928460   2.7928460   0.0000000   0.0000000   0.0000000
 AtZNuc=   6.0000000   6.0000000   1.0000000   6.0000000   1.0000000   1.0000000   1.0000000   6.0000000   8.0000000   8.0000000

  Atom        11          12          13          14          15          16          17          18          19          20
 IAtWgt=          12           1           1          11          16          16          12          12          12          12
 AtmWgt=  12.0000000   1.0078250   1.0078250  11.0093053  15.9949146  15.9949146  12.0000000  12.0000000  12.0000000  12.0000000
 NucSpn=           0           1           1           3           0           0           0           0           0           0
 AtZEff=   3.6000000   1.0000000   1.0000000   2.7500000   5.6000000   5.6000000   3.6000000   3.6000000   3.6000000   3.6000000
 NQMom=    0.0000000   0.0000000   0.0000000   4.0590000   0.0000000   0.0000000   0.0000000   0.0000000   0.0000000   0.0000000
 NMagM=    0.0000000   2.7928460   2.7928460   2.6886370   0.0000000   0.0000000   0.0000000   0.0000000   0.0000000   0.0000000
 AtZNuc=   6.0000000   1.0000000   1.0000000   5.0000000   8.0000000   8.0000000   6.0000000   6.0000000   6.0000000   6.0000000

  Atom        21          22          23          24          25          26          27          28          29          30
 IAtWgt=          12          12           1           1           1           1           1           1           1           1
 AtmWgt=  12.0000000  12.0000000   1.0078250   1.0078250   1.0078250   1.0078250   1.0078250   1.0078250   1.0078250   1.0078250
 NucSpn=           0           0           1           1           1           1           1           1           1           1
 AtZEff=   3.6000000   3.6000000   1.0000000   1.0000000   1.0000000   1.0000000   1.0000000   1.0000000   1.0000000   1.0000000
 NQMom=    0.0000000   0.0000000   0.0000000   0.0000000   0.0000000   0.0000000   0.0000000   0.0000000   0.0000000   0.0000000
 NMagM=    0.0000000   0.0000000   2.7928460   2.7928460   2.7928460   2.7928460   2.7928460   2.7928460   2.7928460   2.7928460
 AtZNuc=   6.0000000   6.0000000   1.0000000   1.0000000   1.0000000   1.0000000   1.0000000   1.0000000   1.0000000   1.0000000

  Atom        31          32          33          34          35          36          37          38
 IAtWgt=           1           1           1           1          12           1           1           1
 AtmWgt=   1.0078250   1.0078250   1.0078250   1.0078250  12.0000000   1.0078250   1.0078250   1.0078250
 NucSpn=           1           1           1           1           0           1           1           1
 AtZEff=   1.0000000   1.0000000   1.0000000   1.0000000   3.6000000   1.0000000   1.0000000   1.0000000
 NQMom=    0.0000000   0.0000000   0.0000000   0.0000000   0.0000000   0.0000000   0.0000000   0.0000000
 NMagM=    2.7928460   2.7928460   2.7928460   2.7928460   0.0000000   2.7928460   2.7928460   2.7928460
 AtZNuc=   1.0000000   1.0000000   1.0000000   1.0000000   6.0000000   1.0000000   1.0000000   1.0000000
 Leave Link  101 at Tue Aug 18 20:49:09 2026, MaxMem=  2684354560 cpu:               2.4 elap:               0.1
 (Enter /mnt/data/applications/G16/g16/l202.exe)
                          Input orientation:                          
 ---------------------------------------------------------------------
 Center     Atomic      Atomic             Coordinates (Angstroms)
 Number     Number       Type             X           Y           Z
 ---------------------------------------------------------------------
      1          6           0       -1.018120    0.378750    0.013100
      2          6           0       -0.281200    1.505940    0.029050
      3          1           0        0.810180    1.501690   -0.037120
      4          6           0       -0.387020   -0.980490   -0.103210
      5          1           0        0.710290   -0.932750   -0.165810
      6          1           0       -0.667980   -1.607890    0.760740
      7          1           0       -0.772510   -1.503910   -0.995580
      8          6           0       -0.950890    2.813390    0.135570
      9          8           0       -2.163790    2.968320    0.210110
     10          8           0       -0.076850    3.833910    0.140940
     11          6           0       -0.643630    5.164260    0.241870
     12          1           0       -1.328100    5.319610   -0.606510
     13          1           0       -1.237010    5.223950    1.167430
     14          5           0       -2.588910    0.420480    0.117130
     15          8           0       -3.400140    0.321860   -0.984120
     16          8           0       -3.256880    0.319480    1.310290
     17          6           0       -4.782480    0.424820   -0.508480
     18          6           0       -4.652660    0.001260    1.003940
     19          6           0       -5.206520    1.881780   -0.700640
     20          6           0       -5.649440   -0.496810   -1.355680
     21          6           0       -4.809660   -1.503120    1.230720
     22          6           0       -5.543900    0.780350    1.961580
     23          1           0       -4.565590    2.560380   -0.123250
     24          1           0       -5.103640    2.141020   -1.765200
     25          1           0       -6.256480    2.033110   -0.410230
     26          1           0       -5.266810   -1.525480   -1.361210
     27          1           0       -6.683240   -0.507770   -0.977210
     28          1           0       -5.671130   -0.132370   -2.393620
     29          1           0       -4.510670   -1.739950    2.262520
     30          1           0       -5.851430   -1.825970    1.089180
     31          1           0       -4.167790   -2.079150    0.548070
     32          1           0       -5.380020    0.426970    2.990660
     33          1           0       -5.327800    1.855800    1.928400
     34          1           0       -6.605170    0.626130    1.712840
     35          6           0        0.506900    6.146660    0.235560
     36          1           0        1.089440    6.063400   -0.695050
     37          1           0        0.117890    7.173730    0.310470
     38          1           0        1.180760    5.967940    1.087770
 ---------------------------------------------------------------------
                    Distance matrix (angstroms):
                    1          2          3          4          5
     1  C    0.000000
     2  C    1.346797   0.000000
     3  H    2.146205   1.093392   0.000000
     4  C    1.503113   2.492193   2.756605   0.000000
     5  H    2.177026   2.639741   2.439885   1.100130   0.000000
     6  H    2.151349   3.221941   3.534264   1.104074   1.792746
     7  H    2.149923   3.217211   3.529474   1.104036   1.792606
     8  C    2.438645   1.472840   2.202668   3.842979   4.109004
     9  O    2.838529   2.390708   3.325150   4.341449   4.860041
    10  O    3.583359   2.339599   2.501555   4.830555   4.840943
    11  C    4.805589   3.682384   3.950420   6.159779   6.258820
    12  H    4.989199   4.005498   4.412818   6.389852   6.590998
    13  H    4.985615   4.004133   4.415557   6.389999   6.593517
    14  B    1.574784   2.551765   3.570241   2.619081   3.577151
    15  O    2.582964   3.486595   4.473880   3.398678   4.374850
    16  O    2.588100   3.450208   4.444560   3.453115   4.414226
    17  C    3.800602   4.660395   5.714864   4.632409   5.668416
    18  C    3.786046   4.724842   5.760010   4.515008   5.567937
    19  C    4.506797   4.993243   6.065097   5.637117   6.573908
    20  C    4.908084   5.894615   6.889071   5.430994   6.484751
    21  C    4.404521   5.568250   6.497607   4.648898   5.722365
    22  C    4.943738   5.653067   6.699960   5.827292   6.824617
    23  H    4.166851   4.414865   5.479703   5.477099   6.327612
    24  H    4.791599   5.184456   6.194213   5.895128   6.768153
    25  H    5.509676   6.014553   7.096429   6.605044   7.575748
    26  H    4.854502   5.998219   6.917137   5.068721   6.124217
    27  H    5.818953   6.786288   7.814924   6.374145   7.450051
    28  H    5.263463   6.132270   7.087357   5.821263   6.806340
    29  H    4.663334   5.780364   6.641387   4.814348   5.814360
    30  H    5.420297   6.576698   7.531196   5.656537   6.740105
    31  H    4.030867   5.312987   6.159955   3.990669   5.061573
    32  H    5.281511   5.994437   6.974314   6.040118   6.993141
    33  H    4.942003   5.403527   6.454724   6.048412   6.972823
    34  H    5.845121   6.603167   7.669184   6.674178   7.712029
    35  C    5.970256   4.711691   4.662840   7.190975   7.093695
    36  H    6.103977   4.813877   4.617365   7.221260   7.026376
    37  H    6.895702   5.688788   5.724694   8.180304   8.142039
    38  H    6.101560   4.813279   4.620616   7.221984   7.029390
                    6          7          8          9         10
     6  H    0.000000
     7  H    1.762498   0.000000
     8  C    4.474214   4.466587   0.000000
     9  O    4.845858   4.836341   1.225025   0.000000
    10  O    5.508791   5.501631   1.343665   2.260387   0.000000
    11  C    6.792042   6.783243   2.373246   2.670964   1.449572
    12  H    7.091924   6.857148   2.640854   2.625607   2.081253
    13  H    6.867549   7.082265   2.637688   2.619780   2.081313
    14  B    2.866791   2.870664   2.899908   2.584736   4.238221
    15  O    3.772687   3.199689   3.668822   3.155709   4.964324
    16  O    3.274013   3.848881   3.594043   3.069462   4.881720
    17  C    4.761506   4.476285   4.560828   3.720659   5.846930
    18  C    4.304205   4.617270   4.729190   3.953237   6.030921
    19  C    5.908619   5.586621   4.435936   3.356820   5.552709
    20  C    5.525276   4.992832   5.937813   5.158351   7.214483
    21  C    4.169577   4.610314   5.892514   5.294908   7.216024
    22  C    5.560603   6.060429   5.344465   4.390900   6.521318
    23  H    5.774710   5.627332   3.632776   2.458900   4.673378
    24  H    6.333228   5.712838   4.616312   3.637168   5.636299
    25  H    6.771956   6.551875   5.390364   4.243766   6.460224
    26  H    5.065442   4.509200   6.300263   5.682607   7.610204
    27  H    6.357207   5.994111   6.717754   5.823947   7.984036
    28  H    6.095790   5.275615   6.111871   5.356783   7.311042
    29  H    4.127838   4.964350   6.158641   5.646950   7.431539
    30  H    5.198421   5.499580   6.815301   6.112010   8.141202
    31  H    3.537794   3.773815   5.869885   5.441249   7.201793
    32  H    5.596116   6.391209   5.784785   4.953186   6.917496
    33  H    5.922373   6.370869   4.825822   3.768445   5.889007
    34  H    6.414637   6.774403   6.264405   5.241174   7.441753
    35  C    7.860611   7.853905   3.639483   4.151515   2.387159
    36  H    8.003533   7.798805   3.926250   4.580648   2.651365
    37  H    8.828204   8.820432   4.492822   4.785563   3.349785
    38  H    7.804998   7.999010   3.924513   4.577556   2.651821
                   11         12         13         14         15
    11  C    0.000000
    12  H    1.101082   0.000000
    13  H    1.101056   1.778851   0.000000
    14  B    5.128657   5.110261   5.099420   0.000000
    15  O    5.705281   5.423416   5.773975   1.371339   0.000000
    16  O    5.607360   5.691715   5.306045   1.371137   2.298879
    17  C    6.336829   5.991771   6.197635   2.281043   1.465503
    18  C    6.581006   6.475422   6.242586   2.285004   2.371492
    19  C    5.699383   5.183597   5.515142   3.107415   2.403481
    20  C    7.723860   7.284640   7.652628   3.518158   2.422319
    21  C    7.923862   7.876949   7.617172   3.141982   3.197314
    22  C    6.796228   6.706186   6.239035   3.501923   3.671930
    23  H    4.721787   4.281148   4.454201   2.923049   2.666523
    24  H    5.749783   5.069586   5.749400   3.581521   2.611770
    25  H    6.460141   5.926933   6.153499   4.041009   3.378817
    26  H    8.288322   7.933364   8.257609   3.625382   2.653171
    27  H    8.374662   7.922960   8.192284   4.338521   3.386308
    28  H    7.763753   7.195815   7.812340   4.013675   2.711164
    29  H    8.167322   8.258176   7.772514   3.600461   4.003125
    30  H    8.757992   8.625265   8.426172   4.078659   3.862715
    31  H    8.061045   8.008654   7.893564   2.987762   2.949871
    32  H    7.240936   7.300385   6.595431   4.005935   4.441829
    33  H    5.977603   5.866971   5.353324   3.583624   3.814658
    34  H    7.635335   7.433412   7.089045   4.326537   4.199808
    35  C    1.512901   2.181815   2.181971   6.510545   7.119050
    36  H    2.165595   2.530921   3.096107   6.784721   7.294188
    37  H    2.150021   2.523787   2.524238   7.278086   7.810289
    38  H    2.165606   3.096013   2.530905   6.776936   7.560132
                   16         17         18         19         20
    16  O    0.000000
    17  C    2.376232   0.000000
    18  C    1.464007   1.575967   0.000000
    19  C    3.207135   1.529532   2.597828   0.000000
    20  C    3.673972   1.522751   2.609492   2.506581   0.000000
    21  C    2.395689   2.596634   1.529457   3.917295   2.899544
    22  C    2.422197   2.609091   1.522618   2.900757   3.556190
    23  H    2.964691   2.180839   2.797719   1.097574   3.469874
    24  H    4.023328   2.151239   3.528469   1.100490   2.724656
    25  H    3.859316   2.183787   2.949666   1.099843   2.768189
    26  H    3.818456   2.182978   2.881328   3.471226   1.097542
    27  H    4.202016   2.168483   2.882243   2.822613   1.100955
    28  H    4.444291   2.157293   3.549444   2.671862   1.100276
    29  H    2.592293   3.526833   2.153137   4.730904   3.991687
    30  H    3.373949   2.959937   2.187026   4.167346   2.790127
    31  H    2.676595   2.786397   2.184267   4.281028   2.885022
    32  H    2.709782   3.549794   2.158087   3.971432   4.451587
    33  H    2.651612   2.878100   2.179394   2.631964   4.052580
    34  H    3.386315   2.880449   2.169170   3.059046   3.404443
    35  C    7.019766   7.827553   8.060857   7.190886   9.196100
    36  H    7.476931   8.142962   8.521022   7.558114   9.427900
    37  H    7.705158   8.380459   8.641954   7.574722   9.740397
    38  H    7.186603   8.296651   8.344884   7.790537   9.716742
                   21         22         23         24         25
    21  C    0.000000
    22  C    2.507489   0.000000
    23  H    4.290086   2.910690   0.000000
    24  H    4.726703   3.991759   1.778021   0.000000
    25  H    4.158236   2.775367   1.794291   1.782310   0.000000
    26  H    2.632031   4.053957   4.326489   3.692297   3.814102
    27  H    3.062022   3.404972   3.824557   3.183104   2.638117
    28  H    3.969500   4.451630   3.691572   2.425955   2.994290
    29  H    1.100043   2.740445   4.918105   5.624595   4.942411
    30  H    1.099796   2.765603   4.729000   4.944055   4.159903
    31  H    1.099918   3.473965   4.704695   4.902741   4.710801
    32  H    2.673564   1.100336   3.861498   5.062861   3.861855
    33  H    3.469520   1.097448   2.299275   3.711372   2.522514
    34  H    2.826659   1.100886   3.357445   4.079981   2.570720
    35  C    9.368847   8.269741   6.222564   7.178186   7.942396
    36  H    9.785714   8.886478   6.676636   7.408409   8.383728
    37  H   10.020745   8.698123   6.588330   7.543272   8.220582
    38  H    9.577176   8.537897   6.789593   7.891669   8.546311
                   26         27         28         29         30
    26  H    0.000000
    27  H    1.785907   0.000000
    28  H    1.780478   1.780873   0.000000
    29  H    3.707987   4.090743   5.060694   0.000000
    30  H    2.537023   2.588344   3.876943   1.783750   0.000000
    31  H    2.271507   3.335147   3.834517   1.781000   1.786489
    32  H    4.771127   4.279733   5.421077   2.445710   2.985564
    33  H    4.717871   3.983246   4.769754   3.702534   3.812336
    34  H    3.983769   2.920307   4.279108   3.207400   2.640051
    35  C    9.733814   9.871695   9.192761   9.564685  10.233272
    36  H    9.921531  10.182065   9.326200  10.049912  10.658392
    37  H   10.366569  10.340161   9.705872  10.231704  10.827454
    38  H   10.184302  10.394299   9.812352   9.653185  10.497463
                   31         32         33         34         35
    31  H    0.000000
    32  H    3.703564   0.000000
    33  H    4.328368   1.781201   0.000000
    34  H    3.823094   1.781427   1.786121   0.000000
    35  C    9.466485   8.658017   7.437803   9.123604   0.000000
    36  H    9.771639   9.338507   8.109708   9.724652   1.101054
    37  H   10.199965   9.106547   7.781620   9.488796   1.100824
    38  H    9.677496   8.795861   7.744528   9.462893   1.101040
                   36         37         38
    36  H    0.000000
    37  H    1.785445   0.000000
    38  H    1.787708   1.785446   0.000000
 Symmetry turned off by external request.
 Stoichiometry    C12H21BO4(3)
 Framework group  C1[X(C12H21BO4)]
 Deg. of freedom   108
 Full point group                 C1      NOp   1
 Rotational constants (GHZ):           0.7886102           0.2618504           0.2295270
 Leave Link  202 at Tue Aug 18 20:49:09 2026, MaxMem=  2684354560 cpu:               1.7 elap:               0.1
 (Enter /mnt/data/applications/G16/g16/l301.exe)
 General basis read from cards:  (5D, 7F)
 Centers:       1      2      4      8     11     17     18     19     20     21
 Centers:      22     35     14      9     10     15     16      3      5      6
 Centers:       7     12     13     23     24     25     26     27     28     29
 Centers:      30     31     32     33     34     36     37     38
 cc-pVDZ
 ****
 ======================================================================================================
                                       Pseudopotential Parameters
 ======================================================================================================
  Center     Atomic      Valence      Angular      Power
  Number     Number     Electrons     Momentum     of R      Exponent        Coefficient   SO-Coeffient
 ======================================================================================================
    1          6
                                   No pseudopotential on this center.
    2          6
                                   No pseudopotential on this center.
    3          1
                                   No pseudopotential on this center.
    4          6
                                   No pseudopotential on this center.
    5          1
                                   No pseudopotential on this center.
    6          1
                                   No pseudopotential on this center.
    7          1
                                   No pseudopotential on this center.
    8          6
                                   No pseudopotential on this center.
    9          8
                                   No pseudopotential on this center.
   10          8
                                   No pseudopotential on this center.
   11          6
                                   No pseudopotential on this center.
   12          1
                                   No pseudopotential on this center.
   13          1
                                   No pseudopotential on this center.
   14          5
                                   No pseudopotential on this center.
   15          8
                                   No pseudopotential on this center.
   16          8
                                   No pseudopotential on this center.
   17          6
                                   No pseudopotential on this center.
   18          6
                                   No pseudopotential on this center.
   19          6
                                   No pseudopotential on this center.
   20          6
                                   No pseudopotential on this center.
   21          6
                                   No pseudopotential on this center.
   22          6
                                   No pseudopotential on this center.
   23          1
                                   No pseudopotential on this center.
   24          1
                                   No pseudopotential on this center.
   25          1
                                   No pseudopotential on this center.
   26          1
                                   No pseudopotential on this center.
   27          1
                                   No pseudopotential on this center.
   28          1
                                   No pseudopotential on this center.
   29          1
                                   No pseudopotential on this center.
   30          1
                                   No pseudopotential on this center.
   31          1
                                   No pseudopotential on this center.
   32          1
                                   No pseudopotential on this center.
   33          1
                                   No pseudopotential on this center.
   34          1
                                   No pseudopotential on this center.
   35          6
                                   No pseudopotential on this center.
   36          1
                                   No pseudopotential on this center.
   37          1
                                   No pseudopotential on this center.
   38          1
                                   No pseudopotential on this center.
 ======================================================================================================
 Ernie: Thresh=  0.10000D-02 Tol=  0.10000D-05 Strict=F.
 Ernie:  34 primitive shells out of 479 were deleted.
   343 basis functions,   708 primitive gaussians,   360 cartesian basis functions
    66 alpha electrons       64 beta electrons
       nuclear repulsion energy      1291.6792614994 Hartrees.
 IExCor=  402 DFT=T Ex+Corr=B3LYP ExCW=0 ScaHFX=  0.200000
 ScaDFX=  0.800000  0.720000  1.000000  0.810000 ScalE2=  1.000000  1.000000
 IRadAn=      5 IRanWt=     -1 IRanGd=            0 ICorTp=0 IEmpDi=141
 NAtoms=   38 NActive=   38 NUniq=   38 SFac= 1.00D+00 NAtFMM=   60 NAOKFM=F Big=F
 Integral buffers will be    131072 words long.
 Raffenetti 2 integral format.
 Two-electron integral symmetry is turned off.
 R6Disp:  Grimme-D3(BJ) Dispersion energy=       -0.0669663793 Hartrees.
 Nuclear repulsion after empirical dispersion term =     1291.6122951202 Hartrees.
 Using the following non-standard input for PCM:
 NonEq=read
 --- end of non-standard input.
 ------------------------------------------------------------------------------
 Polarizable Continuum Model (PCM)
 =================================
 Model                : PCM.
 Atomic radii         : UFF (Universal Force Field).
 Polarization charges : Total charges.
 Charge compensation  : None.
 Solution method      : On-the-fly selection.
 Cavity type          : Scaled VdW (van der Waals Surface) (Alpha=1.100).
 Cavity algorithm     : GePol (No added spheres)
                        Default sphere list used, NSphG=   38.
                        Lebedev-Laikov grids with approx.  5.0 points / Ang**2.
                        Smoothing algorithm: York/Karplus (Gamma=1.0000).
                        Polarization charges: spherical gaussians, with
                                              point-specific exponents (IZeta= 3).
                        Self-potential: point-specific (ISelfS= 7).
                        Self-field    : sphere-specific E.n sum rule (ISelfD= 2).
 Solvent              : Acetonitrile, Eps=  35.688000 Eps(inf)=   1.806874
 ------------------------------------------------------------------------------
 GePol: Number of generator spheres                  =      38
 GePol: Total number of spheres                      =      38
 GePol: Number of exposed spheres                    =      38 (100.00%)
 GePol: Number of points                             =    2608
 GePol: Average weight of points                     =       0.13
 GePol: Minimum weight of points                     =   0.19D-09
 GePol: Maximum weight of points                     =    0.20577
 GePol: Number of points with low weight             =     173
 GePol: Fraction of low-weight points (<1% of avg)   =       6.63%
 GePol: Cavity surface area                          =    344.687 Ang**2
 GePol: Cavity volume                                =    369.435 Ang**3
 Leave Link  301 at Tue Aug 18 20:49:09 2026, MaxMem=  2684354560 cpu:               2.2 elap:               0.1
 (Enter /mnt/data/applications/G16/g16/l302.exe)
 NPDir=0 NMtPBC=     1 NCelOv=     1 NCel=       1 NClECP=     1 NCelD=      1
         NCelK=      1 NCelE2=     1 NClLst=     1 CellRange=     0.0.
 One-electron integrals computed using PRISM.
   1 Symmetry operations used in ECPInt.
 ECPInt:  NShTT=   13695 NPrTT=  100063 LenC2=   12592 LenP2D=   52306.
 LDataN:  DoStor=T MaxTD1= 4 Len=   56
 NBasis=   343 RedAO= T EigKep=  9.91D-04  NBF=   343
 NBsUse=   343 1.00D-06 EigRej= -1.00D+00 NBFU=   343
 Precomputing XC quadrature grid using
 IXCGrd= 4 IRadAn=           5 IRanWt=          -1 IRanGd=           0 AccXCQ= 0.00D+00.
 Generated NRdTot=       0 NPtTot=           0 NUsed=           0 NTot=          32
 NSgBfM=   358   358   358   358   358 MxSgAt=    38 MxSgA2=    38.
 Leave Link  302 at Tue Aug 18 20:49:10 2026, MaxMem=  2684354560 cpu:              15.8 elap:               0.7
 (Enter /mnt/data/applications/G16/g16/l303.exe)
 DipDrv:  MaxL=1.
 Leave Link  303 at Tue Aug 18 20:49:10 2026, MaxMem=  2684354560 cpu:               1.5 elap:               0.1
 (Enter /mnt/data/applications/G16/g16/l401.exe)
 Initial guess from the checkpoint file:  "alkene_eq.chk"
 B after Tr=     0.000000    0.000000    0.000000
         Rot=    1.000000    0.000000    0.000000    0.000000 Ang=   0.00 deg.
 Guess basis will be translated and rotated to current coordinates.
 JPrj=2 DoOrth=T DoCkMO=T.
 Initial guess <Sx>= 0.0000 <Sy>= 0.0000 <Sz>= 1.0000 <S**2>= 2.0000 S= 1.0000
 Leave Link  401 at Tue Aug 18 20:49:11 2026, MaxMem=  2684354560 cpu:              17.3 elap:               0.7
 (Enter /mnt/data/applications/G16/g16/l502.exe)
 Two-electron integral symmetry not used.
 UHF open shell SCF:
 Using DIIS extrapolation, IDIIS=  1040.
 NGot=  2684354560 LenX=  2684083570 LenY=  2683953529
 Requested convergence on RMS density matrix=1.00D-08 within 128 cycles.
 Requested convergence on MAX density matrix=1.00D-06.
 Requested convergence on             energy=1.00D-06.
 No special actions if energy rises.
 Fock matrices will be formed incrementally for  20 cycles.

 Cycle   1  Pass 1  IDiag  1:
 FoFJK:  IHMeth= 1 ICntrl=       0 DoSepK=F KAlg= 0 I1Cent=           0 FoldK=F
 IRaf= 860000000 NMat=       1 IRICut=       1 DoRegI=T DoRafI=F ISym2E= 0 IDoP0=0 IntGTp=1.
 FoFCou: FMM=F IPFlag=           0 FMFlag=      100000 FMFlg1=           0
         NFxFlg=           0 DoJE=F BraDBF=F KetDBF=F FulRan=T
         wScrn=  0.000000 ICntrl=         0 IOpCl=  1 I1Cent=           0 NGrid=           0
         NMat0=    1 NMatS0=      1 NMatT0=    0 NMatD0=    1 NMtDS0=    0 NMtDT0=    0
 Symmetry not used in FoFCou.
 Inv3:  Mode=1 IEnd=    20404992.
 Iteration    1 A*A^-1 deviation from unit magnitude is 2.89D-15 for   2554.
 Iteration    1 A*A^-1 deviation from orthogonality  is 1.76D-15 for   2191    235.
 Iteration    1 A^-1*A deviation from unit magnitude is 2.66D-15 for   2554.
 Iteration    1 A^-1*A deviation from orthogonality  is 8.37D-13 for   2255   2199.
 NEqPCM:  Using non-equilibrium solvation (IEInf=1, Eps=  35.6880, EpsInf=   1.8069)
 Inv3:  Mode=1 IEnd=    20404992.
 Iteration    1 A*A^-1 deviation from unit magnitude is 2.66D-15 for    355.
 Iteration    1 A*A^-1 deviation from orthogonality  is 1.73D-15 for   1924    723.
 Iteration    1 A^-1*A deviation from unit magnitude is 2.44D-15 for    355.
 Iteration    1 A^-1*A deviation from orthogonality  is 1.48D-15 for   2529    872.
 E= -795.747993264115    
 DIIS: error= 5.38D-03 at cycle   1 NSaved=   1.
 NSaved= 1 IEnMin= 1 EnMin= -795.747993264115     IErMin= 1 ErrMin= 5.38D-03
 ErrMax= 5.38D-03  0.00D+00 EMaxC= 1.00D-01 BMatC= 4.53D-02 BMatP= 4.53D-02
 IDIUse=3 WtCom= 9.46D-01 WtEn= 5.38D-02
 Coeff-Com:  0.100D+01
 Coeff-En:   0.100D+01
 Coeff:      0.100D+01
 Gap=     0.169 Goal=   None    Shift=    0.000
 Gap=     0.053 Goal=   None    Shift=    0.000
 GapD=    0.053 DampG=0.500 DampE=1.000 DampFc=0.5000 IDamp=-1.
 Damping current iteration by 5.00D-01
 RMSDP=1.05D-03 MaxDP=1.18D-01              OVMax= 2.25D-01

 Cycle   2  Pass 1  IDiag  1:
 RMSU=  5.27D-04    CP:  1.00D+00
 E= -795.752605697257     Delta-E=       -0.004612433142 Rises=F Damp=T
 DIIS: error= 4.67D-03 at cycle   2 NSaved=   2.
 NSaved= 2 IEnMin= 2 EnMin= -795.752605697257     IErMin= 2 ErrMin= 4.67D-03
 ErrMax= 4.67D-03  0.00D+00 EMaxC= 1.00D-01 BMatC= 1.14D-02 BMatP= 4.53D-02
 IDIUse=3 WtCom= 9.53D-01 WtEn= 4.67D-02
 Coeff-Com:  0.266D+00 0.734D+00
 Coeff-En:   0.310D+00 0.690D+00
 Coeff:      0.268D+00 0.732D+00
 Gap=     0.172 Goal=   None    Shift=    0.000
 Gap=     0.088 Goal=   None    Shift=    0.000
 RMSDP=2.91D-04 MaxDP=1.76D-02 DE=-4.61D-03 OVMax= 1.03D-01

 Cycle   3  Pass 1  IDiag  1:
 RMSU=  2.91D-04    CP:  1.00D+00  1.01D+00
 E= -795.764851062864     Delta-E=       -0.012245365608 Rises=F Damp=F
 DIIS: error= 3.52D-03 at cycle   3 NSaved=   3.
 NSaved= 3 IEnMin= 3 EnMin= -795.764851062864     IErMin= 3 ErrMin= 3.52D-03
 ErrMax= 3.52D-03  0.00D+00 EMaxC= 1.00D-01 BMatC= 7.36D-03 BMatP= 1.14D-02
 IDIUse=3 WtCom= 9.65D-01 WtEn= 3.52D-02
 Coeff-Com:  0.101D+00 0.416D+00 0.482D+00
 Coeff-En:   0.000D+00 0.000D+00 0.100D+01
 Coeff:      0.978D-01 0.402D+00 0.501D+00
 Gap=     0.178 Goal=   None    Shift=    0.000
 Gap=     0.080 Goal=   None    Shift=    0.000
 RMSDP=1.69D-04 MaxDP=1.74D-02 DE=-1.22D-02 OVMax= 3.15D-02

 Cycle   4  Pass 1  IDiag  1:
 RMSU=  1.35D-04    CP:  1.00D+00  1.19D+00  8.76D-01
 E= -795.766195450186     Delta-E=       -0.001344387322 Rises=F Damp=F
 DIIS: error= 2.21D-03 at cycle   4 NSaved=   4.
 NSaved= 4 IEnMin= 4 EnMin= -795.766195450186     IErMin= 4 ErrMin= 2.21D-03
 ErrMax= 2.21D-03  0.00D+00 EMaxC= 1.00D-01 BMatC= 2.43D-03 BMatP= 7.36D-03
 IDIUse=3 WtCom= 9.78D-01 WtEn= 2.21D-02
 Coeff-Com: -0.234D-01-0.529D-02 0.359D+00 0.669D+00
 Coeff-En:   0.000D+00 0.000D+00 0.198D+00 0.802D+00
 Coeff:     -0.229D-01-0.517D-02 0.356D+00 0.672D+00
 Gap=     0.181 Goal=   None    Shift=    0.000
 Gap=     0.084 Goal=   None    Shift=    0.000
 RMSDP=1.07D-04 MaxDP=8.37D-03 DE=-1.34D-03 OVMax= 1.78D-02

 Cycle   5  Pass 1  IDiag  1:
 RMSU=  6.75D-05    CP:  9.99D-01  1.26D+00  1.12D+00  8.63D-01
 E= -795.766835579031     Delta-E=       -0.000640128844 Rises=F Damp=F
 DIIS: error= 9.47D-04 at cycle   5 NSaved=   5.
 NSaved= 5 IEnMin= 5 EnMin= -795.766835579031     IErMin= 5 ErrMin= 9.47D-04
 ErrMax= 9.47D-04  0.00D+00 EMaxC= 1.00D-01 BMatC= 5.02D-04 BMatP= 2.43D-03
 IDIUse=3 WtCom= 9.91D-01 WtEn= 9.47D-03
 Coeff-Com: -0.232D-01-0.894D-01 0.122D+00 0.423D+00 0.568D+00
 Coeff-En:   0.000D+00 0.000D+00 0.000D+00 0.000D+00 0.100D+01
 Coeff:     -0.229D-01-0.885D-01 0.120D+00 0.419D+00 0.572D+00
 Gap=     0.182 Goal=   None    Shift=    0.000
 Gap=     0.086 Goal=   None    Shift=    0.000
 RMSDP=4.30D-05 MaxDP=3.54D-03 DE=-6.40D-04 OVMax= 6.30D-03

 Cycle   6  Pass 1  IDiag  1:
 RMSU=  3.00D-05    CP:  9.99D-01  1.28D+00  1.18D+00  1.02D+00  9.60D-01
 E= -795.766980784652     Delta-E=       -0.000145205621 Rises=F Damp=F
 DIIS: error= 1.64D-04 at cycle   6 NSaved=   6.
 NSaved= 6 IEnMin= 6 EnMin= -795.766980784652     IErMin= 6 ErrMin= 1.64D-04
 ErrMax= 1.64D-04  0.00D+00 EMaxC= 1.00D-01 BMatC= 4.24D-05 BMatP= 5.02D-04
 IDIUse=3 WtCom= 9.98D-01 WtEn= 1.64D-03
 Coeff-Com:  0.184D-02-0.417D-01-0.226D-01 0.445D-01 0.218D+00 0.800D+00
 Coeff-En:   0.000D+00 0.000D+00 0.000D+00 0.000D+00 0.000D+00 0.100D+01
 Coeff:      0.184D-02-0.416D-01-0.226D-01 0.444D-01 0.217D+00 0.801D+00
 Gap=     0.182 Goal=   None    Shift=    0.000
 Gap=     0.086 Goal=   None    Shift=    0.000
 RMSDP=2.36D-05 MaxDP=1.68D-03 DE=-1.45D-04 OVMax= 4.50D-03

 Cycle   7  Pass 1  IDiag  1:
 RMSU=  1.11D-05    CP:  9.99D-01  1.30D+00  1.22D+00  1.08D+00  1.15D+00
                    CP:  1.17D+00
 E= -795.767004514922     Delta-E=       -0.000023730270 Rises=F Damp=F
 DIIS: error= 1.16D-04 at cycle   7 NSaved=   7.
 NSaved= 7 IEnMin= 7 EnMin= -795.767004514922     IErMin= 7 ErrMin= 1.16D-04
 ErrMax= 1.16D-04  0.00D+00 EMaxC= 1.00D-01 BMatC= 1.23D-05 BMatP= 4.24D-05
 IDIUse=3 WtCom= 9.99D-01 WtEn= 1.16D-03
 Coeff-Com:  0.865D-02-0.346D-02-0.291D-01-0.492D-01-0.276D-01 0.370D+00
 Coeff-Com:  0.731D+00
 Coeff-En:   0.000D+00 0.000D+00 0.000D+00 0.000D+00 0.000D+00 0.000D+00
 Coeff-En:   0.100D+01
 Coeff:      0.864D-02-0.345D-02-0.290D-01-0.492D-01-0.276D-01 0.369D+00
 Coeff:      0.731D+00
 Gap=     0.182 Goal=   None    Shift=    0.000
 Gap=     0.086 Goal=   None    Shift=    0.000
 RMSDP=1.14D-05 MaxDP=9.70D-04 DE=-2.37D-05 OVMax= 2.81D-03

 Cycle   8  Pass 1  IDiag  1:
 RMSU=  5.67D-06    CP:  9.99D-01  1.30D+00  1.23D+00  1.10D+00  1.24D+00
                    CP:  1.33D+00  1.08D+00
 E= -795.767010197170     Delta-E=       -0.000005682249 Rises=F Damp=F
 DIIS: error= 5.08D-05 at cycle   8 NSaved=   8.
 NSaved= 8 IEnMin= 8 EnMin= -795.767010197170     IErMin= 8 ErrMin= 5.08D-05
 ErrMax= 5.08D-05  0.00D+00 EMaxC= 1.00D-01 BMatC= 2.48D-06 BMatP= 1.23D-05
 IDIUse=1 WtCom= 1.00D+00 WtEn= 0.00D+00
 Coeff-Com:  0.480D-02 0.615D-02-0.963D-02-0.304D-01-0.746D-01-0.126D-01
 Coeff-Com:  0.335D+00 0.782D+00
 Coeff:      0.480D-02 0.615D-02-0.963D-02-0.304D-01-0.746D-01-0.126D-01
 Coeff:      0.335D+00 0.782D+00
 Gap=     0.182 Goal=   None    Shift=    0.000
 Gap=     0.086 Goal=   None    Shift=    0.000
 RMSDP=6.44D-06 MaxDP=5.23D-04 DE=-5.68D-06 OVMax= 2.13D-03

 Cycle   9  Pass 1  IDiag  1:
 RMSU=  2.43D-06    CP:  9.99D-01  1.30D+00  1.24D+00  1.12D+00  1.27D+00
                    CP:  1.44D+00  1.34D+00  1.17D+00
 E= -795.767011930773     Delta-E=       -0.000001733602 Rises=F Damp=F
 DIIS: error= 2.65D-05 at cycle   9 NSaved=   9.
 NSaved= 9 IEnMin= 9 EnMin= -795.767011930773     IErMin= 9 ErrMin= 2.65D-05
 ErrMax= 2.65D-05  0.00D+00 EMaxC= 1.00D-01 BMatC= 2.12D-07 BMatP= 2.48D-06
 IDIUse=1 WtCom= 1.00D+00 WtEn= 0.00D+00
 Coeff-Com: -0.754D-03 0.700D-03 0.208D-02 0.715D-02-0.312D-02-0.363D-01
 Coeff-Com: -0.716D-01 0.258D-01 0.108D+01
 Coeff:     -0.754D-03 0.700D-03 0.208D-02 0.715D-02-0.312D-02-0.363D-01
 Coeff:     -0.716D-01 0.258D-01 0.108D+01
 Gap=     0.182 Goal=   None    Shift=    0.000
 Gap=     0.086 Goal=   None    Shift=    0.000
 RMSDP=3.13D-06 MaxDP=3.12D-04 DE=-1.73D-06 OVMax= 1.31D-03

 Cycle  10  Pass 1  IDiag  1:
 RMSU=  1.16D-06    CP:  9.99D-01  1.30D+00  1.24D+00  1.12D+00  1.29D+00
                    CP:  1.48D+00  1.46D+00  1.43D+00  1.51D+00
 E= -795.767012265815     Delta-E=       -0.000000335042 Rises=F Damp=F
 DIIS: error= 1.15D-05 at cycle  10 NSaved=  10.
 NSaved=10 IEnMin=10 EnMin= -795.767012265815     IErMin=10 ErrMin= 1.15D-05
 ErrMax= 1.15D-05  0.00D+00 EMaxC= 1.00D-01 BMatC= 1.12D-07 BMatP= 2.12D-07
 IDIUse=1 WtCom= 1.00D+00 WtEn= 0.00D+00
 Coeff-Com: -0.184D-02-0.996D-03 0.345D-02 0.132D-01 0.184D-01-0.149D-01
 Coeff-Com: -0.135D+00-0.206D+00 0.605D+00 0.719D+00
 Coeff:     -0.184D-02-0.996D-03 0.345D-02 0.132D-01 0.184D-01-0.149D-01
 Coeff:     -0.135D+00-0.206D+00 0.605D+00 0.719D+00
 Gap=     0.182 Goal=   None    Shift=    0.000
 Gap=     0.086 Goal=   None    Shift=    0.000
 RMSDP=1.74D-06 MaxDP=1.75D-04 DE=-3.35D-07 OVMax= 7.50D-04

 Cycle  11  Pass 1  IDiag  1:
 RMSU=  5.74D-07    CP:  9.99D-01  1.30D+00  1.24D+00  1.12D+00  1.29D+00
                    CP:  1.49D+00  1.53D+00  1.59D+00  1.89D+00  1.08D+00
 E= -795.767012370390     Delta-E=       -0.000000104576 Rises=F Damp=F
 DIIS: error= 4.21D-06 at cycle  11 NSaved=  11.
 NSaved=11 IEnMin=11 EnMin= -795.767012370390     IErMin=11 ErrMin= 4.21D-06
 ErrMax= 4.21D-06  0.00D+00 EMaxC= 1.00D-01 BMatC= 2.00D-08 BMatP= 1.12D-07
 IDIUse=1 WtCom= 1.00D+00 WtEn= 0.00D+00
 Coeff-Com: -0.683D-03-0.402D-03 0.747D-03 0.416D-02 0.871D-02 0.312D-02
 Coeff-Com: -0.410D-01-0.955D-01-0.571D-02 0.304D+00 0.822D+00
 Coeff:     -0.683D-03-0.402D-03 0.747D-03 0.416D-02 0.871D-02 0.312D-02
 Coeff:     -0.410D-01-0.955D-01-0.571D-02 0.304D+00 0.822D+00
 Gap=     0.182 Goal=   None    Shift=    0.000
 Gap=     0.086 Goal=   None    Shift=    0.000
 RMSDP=8.77D-07 MaxDP=9.24D-05 DE=-1.05D-07 OVMax= 3.96D-04

 Cycle  12  Pass 1  IDiag  1:
 RMSU=  2.40D-07    CP:  9.99D-01  1.30D+00  1.24D+00  1.13D+00  1.30D+00
                    CP:  1.50D+00  1.56D+00  1.67D+00  2.09D+00  1.34D+00
                    CP:  1.15D+00
 E= -795.767012392565     Delta-E=       -0.000000022175 Rises=F Damp=F
 DIIS: error= 1.79D-06 at cycle  12 NSaved=  12.
 NSaved=12 IEnMin=12 EnMin= -795.767012392565     IErMin=12 ErrMin= 1.79D-06
 ErrMax= 1.79D-06  0.00D+00 EMaxC= 1.00D-01 BMatC= 5.97D-09 BMatP= 2.00D-08
 IDIUse=1 WtCom= 1.00D+00 WtEn= 0.00D+00
 Coeff-Com: -0.542D-04-0.109D-04-0.256D-03-0.181D-03 0.153D-02 0.442D-02
 Coeff-Com:  0.292D-02-0.152D-01-0.123D+00 0.309D-01 0.473D+00 0.626D+00
 Coeff:     -0.542D-04-0.109D-04-0.256D-03-0.181D-03 0.153D-02 0.442D-02
 Coeff:      0.292D-02-0.152D-01-0.123D+00 0.309D-01 0.473D+00 0.626D+00
 Gap=     0.182 Goal=   None    Shift=    0.000
 Gap=     0.086 Goal=   None    Shift=    0.000
 RMSDP=3.44D-07 MaxDP=3.65D-05 DE=-2.22D-08 OVMax= 1.57D-04

 Cycle  13  Pass 1  IDiag  1:
 RMSU=  1.19D-07    CP:  9.99D-01  1.30D+00  1.24D+00  1.13D+00  1.30D+00
                    CP:  1.50D+00  1.57D+00  1.69D+00  2.16D+00  1.45D+00
                    CP:  1.32D+00  9.49D-01
 E= -795.767012396759     Delta-E=       -0.000000004193 Rises=F Damp=F
 DIIS: error= 8.11D-07 at cycle  13 NSaved=  13.
 NSaved=13 IEnMin=13 EnMin= -795.767012396759     IErMin=13 ErrMin= 8.11D-07
 ErrMax= 8.11D-07  0.00D+00 EMaxC= 1.00D-01 BMatC= 1.14D-09 BMatP= 5.97D-09
 IDIUse=1 WtCom= 1.00D+00 WtEn= 0.00D+00
 Coeff-Com:  0.165D-03 0.120D-03-0.314D-03-0.134D-02-0.161D-02 0.104D-02
 Coeff-Com:  0.129D-01 0.186D-01-0.604D-01-0.685D-01 0.886D-02 0.318D+00
 Coeff-Com:  0.773D+00
 Coeff:      0.165D-03 0.120D-03-0.314D-03-0.134D-02-0.161D-02 0.104D-02
 Coeff:      0.129D-01 0.186D-01-0.604D-01-0.685D-01 0.886D-02 0.318D+00
 Coeff:      0.773D+00
 Gap=     0.182 Goal=   None    Shift=    0.000
 Gap=     0.086 Goal=   None    Shift=    0.000
 RMSDP=1.92D-07 MaxDP=2.11D-05 DE=-4.19D-09 OVMax= 9.03D-05

 Cycle  14  Pass 1  IDiag  1:
 RMSU=  6.24D-08    CP:  9.99D-01  1.30D+00  1.24D+00  1.13D+00  1.30D+00
                    CP:  1.50D+00  1.58D+00  1.71D+00  2.20D+00  1.50D+00
                    CP:  1.43D+00  1.16D+00  1.08D+00
 E= -795.767012397806     Delta-E=       -0.000000001048 Rises=F Damp=F
 DIIS: error= 6.34D-07 at cycle  14 NSaved=  14.
 NSaved=14 IEnMin=14 EnMin= -795.767012397806     IErMin=14 ErrMin= 6.34D-07
 ErrMax= 6.34D-07  0.00D+00 EMaxC= 1.00D-01 BMatC= 1.98D-10 BMatP= 1.14D-09
 IDIUse=1 WtCom= 1.00D+00 WtEn= 0.00D+00
 Coeff-Com:  0.748D-04 0.411D-04-0.606D-04-0.532D-03-0.802D-03-0.345D-03
 Coeff-Com:  0.453D-02 0.930D-02-0.509D-02-0.313D-01-0.698D-01 0.234D-01
 Coeff-Com:  0.310D+00 0.760D+00
 Coeff:      0.748D-04 0.411D-04-0.606D-04-0.532D-03-0.802D-03-0.345D-03
 Coeff:      0.453D-02 0.930D-02-0.509D-02-0.313D-01-0.698D-01 0.234D-01
 Coeff:      0.310D+00 0.760D+00
 Gap=     0.182 Goal=   None    Shift=    0.000
 Gap=     0.086 Goal=   None    Shift=    0.000
 RMSDP=7.33D-08 MaxDP=7.68D-06 DE=-1.05D-09 OVMax= 3.35D-05

 Cycle  15  Pass 1  IDiag  1:
 RMSU=  2.58D-08    CP:  9.99D-01  1.30D+00  1.24D+00  1.13D+00  1.30D+00
                    CP:  1.50D+00  1.58D+00  1.71D+00  2.21D+00  1.52D+00
                    CP:  1.46D+00  1.26D+00  1.29D+00  1.09D+00
 E= -795.767012397995     Delta-E=       -0.000000000189 Rises=F Damp=F
 DIIS: error= 3.74D-07 at cycle  15 NSaved=  15.
 NSaved=15 IEnMin=15 EnMin= -795.767012397995     IErMin=15 ErrMin= 3.74D-07
 ErrMax= 3.74D-07  0.00D+00 EMaxC= 1.00D-01 BMatC= 4.44D-11 BMatP= 1.98D-10
 IDIUse=1 WtCom= 1.00D+00 WtEn= 0.00D+00
 Coeff-Com: -0.175D-04-0.207D-04 0.755D-04 0.144D-03 0.191D-03-0.463D-03
 Coeff-Com: -0.183D-02-0.162D-02 0.137D-01 0.731D-02-0.249D-01-0.765D-01
 Coeff-Com: -0.104D+00 0.252D+00 0.935D+00
 Coeff:     -0.175D-04-0.207D-04 0.755D-04 0.144D-03 0.191D-03-0.463D-03
 Coeff:     -0.183D-02-0.162D-02 0.137D-01 0.731D-02-0.249D-01-0.765D-01
 Coeff:     -0.104D+00 0.252D+00 0.935D+00
 Gap=     0.182 Goal=   None    Shift=    0.000
 Gap=     0.086 Goal=   None    Shift=    0.000
 RMSDP=4.26D-08 MaxDP=4.28D-06 DE=-1.89D-10 OVMax= 1.90D-05

 Cycle  16  Pass 1  IDiag  1:
 RMSU=  1.08D-08    CP:  9.99D-01  1.30D+00  1.24D+00  1.13D+00  1.30D+00
                    CP:  1.50D+00  1.58D+00  1.71D+00  2.22D+00  1.53D+00
                    CP:  1.48D+00  1.30D+00  1.42D+00  1.37D+00  1.23D+00
 E= -795.767012398032     Delta-E=       -0.000000000037 Rises=F Damp=F
 DIIS: error= 1.87D-07 at cycle  16 NSaved=  16.
 NSaved=16 IEnMin=16 EnMin= -795.767012398032     IErMin=16 ErrMin= 1.87D-07
 ErrMax= 1.87D-07  0.00D+00 EMaxC= 1.00D-01 BMatC= 9.91D-12 BMatP= 4.44D-11
 IDIUse=1 WtCom= 1.00D+00 WtEn= 0.00D+00
 Coeff-Com: -0.188D-04-0.134D-04 0.406D-04 0.120D-03 0.216D-03-0.129D-03
 Coeff-Com: -0.131D-02-0.194D-02 0.534D-02 0.724D-02 0.381D-02-0.259D-01
 Coeff-Com: -0.857D-01-0.565D-01 0.301D+00 0.854D+00
 Coeff:     -0.188D-04-0.134D-04 0.406D-04 0.120D-03 0.216D-03-0.129D-03
 Coeff:     -0.131D-02-0.194D-02 0.534D-02 0.724D-02 0.381D-02-0.259D-01
 Coeff:     -0.857D-01-0.565D-01 0.301D+00 0.854D+00
 Gap=     0.182 Goal=   None    Shift=    0.000
 Gap=     0.086 Goal=   None    Shift=    0.000
 RMSDP=1.44D-08 MaxDP=1.22D-06 DE=-3.68D-11 OVMax= 5.20D-06

 Cycle  17  Pass 1  IDiag  1:
 RMSU=  4.97D-09    CP:  9.99D-01  1.30D+00  1.24D+00  1.13D+00  1.30D+00
                    CP:  1.50D+00  1.58D+00  1.71D+00  2.22D+00  1.53D+00
                    CP:  1.49D+00  1.32D+00  1.46D+00  1.47D+00  1.42D+00
                    CP:  1.16D+00
 E= -795.767012398049     Delta-E=       -0.000000000017 Rises=F Damp=F
 DIIS: error= 7.99D-08 at cycle  17 NSaved=  17.
 NSaved=17 IEnMin=17 EnMin= -795.767012398049     IErMin=17 ErrMin= 7.99D-08
 ErrMax= 7.99D-08  0.00D+00 EMaxC= 1.00D-01 BMatC= 2.45D-12 BMatP= 9.91D-12
 IDIUse=1 WtCom= 1.00D+00 WtEn= 0.00D+00
 Coeff-Com: -0.438D-05-0.498D-06 0.355D-05 0.136D-04 0.604D-04 0.490D-04
 Coeff-Com: -0.143D-03-0.438D-03-0.898D-03 0.133D-02 0.778D-02 0.779D-02
 Coeff-Com: -0.124D-01-0.875D-01-0.887D-01 0.377D+00 0.796D+00
 Coeff:     -0.438D-05-0.498D-06 0.355D-05 0.136D-04 0.604D-04 0.490D-04
 Coeff:     -0.143D-03-0.438D-03-0.898D-03 0.133D-02 0.778D-02 0.779D-02
 Coeff:     -0.124D-01-0.875D-01-0.887D-01 0.377D+00 0.796D+00
 Gap=     0.182 Goal=   None    Shift=    0.000
 Gap=     0.086 Goal=   None    Shift=    0.000
 RMSDP=6.22D-09 MaxDP=6.41D-07 DE=-1.73D-11 OVMax= 1.61D-06

 Error on total polarization charges =  0.00024
 SCF Done:  E(UB3LYP) =  -795.767012398     A.U. after   17 cycles
            NFock= 17  Conv=0.62D-08     -V/T= 2.0064
 <Sx>= 0.0000 <Sy>= 0.0000 <Sz>= 1.0000 <S**2>= 2.0074 S= 1.0025
 <L.S>= 0.000000000000E+00
 KE= 7.907070789438D+02 PE=-4.440606034997D+03 EE= 1.562519648535D+03
 Annihilation of the first spin contaminant:
 S**2 before annihilation     2.0074,   after     2.0000
 Leave Link  502 at Tue Aug 18 20:51:50 2026, MaxMem=  2684354560 cpu:            3650.4 elap:             159.5
 (Enter /mnt/data/applications/G16/g16/l601.exe)
 Copying SCF densities to generalized density rwf, IOpCl= 1 IROHF=0.

 **********************************************************************

            Population analysis using the SCF density.

 **********************************************************************

 Alpha  occ. eigenvalues --  -19.17436 -19.13847 -19.13754 -19.13349 -10.30017
 Alpha  occ. eigenvalues --  -10.24539 -10.24466 -10.24044 -10.23154 -10.19446
 Alpha  occ. eigenvalues --  -10.18503 -10.18392 -10.17900 -10.17899 -10.17812
 Alpha  occ. eigenvalues --  -10.17282  -6.78036  -1.10126  -1.05703  -1.01701
 Alpha  occ. eigenvalues --   -0.99015  -0.83965  -0.80469  -0.77347  -0.74948
 Alpha  occ. eigenvalues --   -0.72304  -0.70362  -0.67555  -0.64975  -0.61951
 Alpha  occ. eigenvalues --   -0.58902  -0.55799  -0.55230  -0.53458  -0.51898
 Alpha  occ. eigenvalues --   -0.49085  -0.47816  -0.46824  -0.46288  -0.45004
 Alpha  occ. eigenvalues --   -0.43897  -0.43422  -0.43330  -0.41956  -0.41646
 Alpha  occ. eigenvalues --   -0.40046  -0.39558  -0.39521  -0.39305  -0.39145
 Alpha  occ. eigenvalues --   -0.38052  -0.37529  -0.36593  -0.36525  -0.36208
 Alpha  occ. eigenvalues --   -0.34909  -0.34604  -0.33320  -0.33179  -0.33089
 Alpha  occ. eigenvalues --   -0.32069  -0.30807  -0.30662  -0.28246  -0.27040
 Alpha  occ. eigenvalues --   -0.13394
 Alpha virt. eigenvalues --    0.04823   0.04930   0.05774   0.06990   0.07677
 Alpha virt. eigenvalues --    0.08773   0.09547   0.09757   0.10469   0.11153
 Alpha virt. eigenvalues --    0.11560   0.11810   0.11983   0.12850   0.13548
 Alpha virt. eigenvalues --    0.13796   0.14027   0.14574   0.15341   0.15955
 Alpha virt. eigenvalues --    0.16049   0.16121   0.16521   0.17805   0.18885
 Alpha virt. eigenvalues --    0.20399   0.21013   0.21882   0.22165   0.22826
 Alpha virt. eigenvalues --    0.23445   0.23985   0.25957   0.26231   0.27150
 Alpha virt. eigenvalues --    0.29265   0.31346   0.31535   0.33646   0.37366
 Alpha virt. eigenvalues --    0.39575   0.39672   0.41020   0.41243   0.41702
 Alpha virt. eigenvalues --    0.42486   0.43204   0.44510   0.45704   0.46774
 Alpha virt. eigenvalues --    0.48238   0.48353   0.48845   0.49265   0.49964
 Alpha virt. eigenvalues --    0.50584   0.52905   0.53145   0.54152   0.55067
 Alpha virt. eigenvalues --    0.55968   0.56578   0.57955   0.58418   0.58989
 Alpha virt. eigenvalues --    0.59505   0.59653   0.61191   0.61441   0.62019
 Alpha virt. eigenvalues --    0.62421   0.62786   0.62999   0.63681   0.64047
 Alpha virt. eigenvalues --    0.64539   0.65034   0.65187   0.65536   0.65992
 Alpha virt. eigenvalues --    0.66246   0.66495   0.67611   0.67858   0.68329
 Alpha virt. eigenvalues --    0.68598   0.68821   0.70361   0.70582   0.71353
 Alpha virt. eigenvalues --    0.72547   0.73436   0.74135   0.75758   0.76286
 Alpha virt. eigenvalues --    0.77868   0.78631   0.78997   0.81537   0.82726
 Alpha virt. eigenvalues --    0.84041   0.85881   0.88940   0.89471   0.90526
 Alpha virt. eigenvalues --    0.90943   0.91744   0.93089   0.96647   0.97166
 Alpha virt. eigenvalues --    0.99147   0.99972   1.02517   1.04545   1.04824
 Alpha virt. eigenvalues --    1.07227   1.10058   1.11284   1.13811   1.14531
 Alpha virt. eigenvalues --    1.15453   1.15763   1.18307   1.19915   1.20476
 Alpha virt. eigenvalues --    1.21183   1.22553   1.24545   1.26569   1.27269
 Alpha virt. eigenvalues --    1.28758   1.29427   1.29925   1.31312   1.32055
 Alpha virt. eigenvalues --    1.33200   1.34471   1.35294   1.36134   1.37847
 Alpha virt. eigenvalues --    1.39161   1.40369   1.41115   1.41322   1.41703
 Alpha virt. eigenvalues --    1.43157   1.43883   1.44710   1.45582   1.46026
 Alpha virt. eigenvalues --    1.48225   1.49422   1.51133   1.51922   1.53575
 Alpha virt. eigenvalues --    1.54603   1.55972   1.56587   1.57617   1.59149
 Alpha virt. eigenvalues --    1.59711   1.60594   1.60971   1.61247   1.62021
 Alpha virt. eigenvalues --    1.63115   1.63371   1.63583   1.63966   1.64736
 Alpha virt. eigenvalues --    1.65061   1.65239   1.67282   1.68434   1.69314
 Alpha virt. eigenvalues --    1.69488   1.69913   1.71370   1.71828   1.72652
 Alpha virt. eigenvalues --    1.73194   1.74734   1.75320   1.75719   1.76423
 Alpha virt. eigenvalues --    1.77054   1.77259   1.79383   1.80019   1.80786
 Alpha virt. eigenvalues --    1.81975   1.82711   1.83349   1.83710   1.85813
 Alpha virt. eigenvalues --    1.87493   1.87889   1.88305   1.89615   1.91557
 Alpha virt. eigenvalues --    1.93981   1.94347   1.95132   1.99270   1.99868
 Alpha virt. eigenvalues --    1.99952   2.00539   2.02462   2.03025   2.03714
 Alpha virt. eigenvalues --    2.06066   2.08523   2.08994   2.09997   2.10876
 Alpha virt. eigenvalues --    2.13853   2.14878   2.15666   2.17083   2.18523
 Alpha virt. eigenvalues --    2.19999   2.20547   2.23967   2.24220   2.24936
 Alpha virt. eigenvalues --    2.25828   2.28897   2.30214   2.32014   2.32761
 Alpha virt. eigenvalues --    2.34294   2.36044   2.36988   2.39383   2.40873
 Alpha virt. eigenvalues --    2.40997   2.42173   2.42768   2.43369   2.44378
 Alpha virt. eigenvalues --    2.45862   2.46621   2.47183   2.48520   2.48811
 Alpha virt. eigenvalues --    2.49656   2.49879   2.51226   2.54007   2.54259
 Alpha virt. eigenvalues --    2.55825   2.56092   2.56549   2.57424   2.60202
 Alpha virt. eigenvalues --    2.63895   2.65047   2.72883   2.74833   2.87569
 Alpha virt. eigenvalues --    2.89156   2.91318   2.91947   2.97321   2.98603
 Alpha virt. eigenvalues --    3.01341   3.06331   3.15719   3.17619   3.19499
 Alpha virt. eigenvalues --    3.23129   3.35826   3.39963   3.41106   3.44574
 Alpha virt. eigenvalues --    3.54493   3.58307
  Beta  occ. eigenvalues --  -19.17273 -19.13801 -19.13708 -19.12795 -10.29942
  Beta  occ. eigenvalues --  -10.24530 -10.24457 -10.24050 -10.22061 -10.19513
  Beta  occ. eigenvalues --  -10.18393 -10.17898 -10.17897 -10.17812 -10.17283
  Beta  occ. eigenvalues --  -10.17224  -6.78093  -1.09574  -1.05614  -1.00820
  Beta  occ. eigenvalues --   -0.98911  -0.81033  -0.79968  -0.77018  -0.74919
  Beta  occ. eigenvalues --   -0.71100  -0.70356  -0.67551  -0.64383  -0.61806
  Beta  occ. eigenvalues --   -0.57929  -0.55128  -0.55045  -0.52701  -0.51234
  Beta  occ. eigenvalues --   -0.48370  -0.47348  -0.46577  -0.46169  -0.44658
  Beta  occ. eigenvalues --   -0.43376  -0.42987  -0.41466  -0.41219  -0.40552
  Beta  occ. eigenvalues --   -0.40025  -0.39502  -0.39497  -0.39171  -0.39051
  Beta  occ. eigenvalues --   -0.37576  -0.37453  -0.36590  -0.36314  -0.35452
  Beta  occ. eigenvalues --   -0.34790  -0.34460  -0.33210  -0.33041  -0.32430
  Beta  occ. eigenvalues --   -0.30740  -0.29035  -0.27660  -0.26941
  Beta virt. eigenvalues --   -0.18317  -0.01242   0.04846   0.05805   0.07043
  Beta virt. eigenvalues --    0.07878   0.08874   0.09603   0.09835   0.09907
  Beta virt. eigenvalues --    0.10504   0.11237   0.11605   0.11895   0.12230
  Beta virt. eigenvalues --    0.13025   0.13693   0.13921   0.14212   0.14718
  Beta virt. eigenvalues --    0.15412   0.16061   0.16126   0.16244   0.16662
  Beta virt. eigenvalues --    0.17864   0.19055   0.20762   0.21104   0.22053
  Beta virt. eigenvalues --    0.22428   0.23002   0.24079   0.24434   0.26822
  Beta virt. eigenvalues --    0.27212   0.27509   0.29332   0.31697   0.31832
  Beta virt. eigenvalues --    0.34103   0.37921   0.39643   0.40054   0.41282
  Beta virt. eigenvalues --    0.42169   0.42971   0.43022   0.43876   0.44777
  Beta virt. eigenvalues --    0.46009   0.46928   0.48478   0.49138   0.49472
  Beta virt. eigenvalues --    0.49867   0.50673   0.50908   0.53353   0.53672
  Beta virt. eigenvalues --    0.55244   0.56203   0.56341   0.57176   0.58238
  Beta virt. eigenvalues --    0.58674   0.59156   0.59589   0.60008   0.61673
  Beta virt. eigenvalues --    0.61871   0.62256   0.62666   0.62846   0.63094
  Beta virt. eigenvalues --    0.63938   0.64515   0.64929   0.65130   0.65688
  Beta virt. eigenvalues --    0.65928   0.66079   0.66438   0.66750   0.67753
  Beta virt. eigenvalues --    0.67953   0.68422   0.68864   0.69013   0.70767
  Beta virt. eigenvalues --    0.71187   0.72524   0.73075   0.73694   0.74572
  Beta virt. eigenvalues --    0.75900   0.76603   0.78280   0.79055   0.79787
  Beta virt. eigenvalues --    0.82117   0.82883   0.84581   0.86119   0.89045
  Beta virt. eigenvalues --    0.89791   0.90744   0.91905   0.92220   0.94201
  Beta virt. eigenvalues --    0.97484   0.98052   1.00709   1.01002   1.03196
  Beta virt. eigenvalues --    1.05379   1.05628   1.07402   1.10514   1.11822
  Beta virt. eigenvalues --    1.14227   1.14924   1.16018   1.16865   1.18798
  Beta virt. eigenvalues --    1.20333   1.20726   1.21359   1.22819   1.25041
  Beta virt. eigenvalues --    1.26777   1.27714   1.29037   1.29616   1.30271
  Beta virt. eigenvalues --    1.31771   1.32745   1.34139   1.35235   1.35717
  Beta virt. eigenvalues --    1.36443   1.37971   1.39356   1.40771   1.41300
  Beta virt. eigenvalues --    1.41690   1.41737   1.43299   1.44166   1.45084
  Beta virt. eigenvalues --    1.45752   1.46454   1.48559   1.49671   1.51782
  Beta virt. eigenvalues --    1.53326   1.53732   1.55198   1.56236   1.56817
  Beta virt. eigenvalues --    1.57781   1.59431   1.59800   1.60812   1.61182
  Beta virt. eigenvalues --    1.61399   1.62210   1.63465   1.63674   1.63743
  Beta virt. eigenvalues --    1.64146   1.64872   1.65155   1.65856   1.67437
  Beta virt. eigenvalues --    1.68609   1.69501   1.69751   1.69995   1.71634
  Beta virt. eigenvalues --    1.72302   1.72958   1.73327   1.75051   1.75720
  Beta virt. eigenvalues --    1.76573   1.76726   1.77771   1.78056   1.79464
  Beta virt. eigenvalues --    1.80550   1.81118   1.82185   1.82968   1.83590
  Beta virt. eigenvalues --    1.84869   1.86069   1.87725   1.88217   1.88530
  Beta virt. eigenvalues --    1.90601   1.92903   1.94070   1.94492   1.95227
  Beta virt. eigenvalues --    1.99530   2.00132   2.00273   2.00928   2.02668
  Beta virt. eigenvalues --    2.03187   2.04001   2.06168   2.08756   2.09054
  Beta virt. eigenvalues --    2.10932   2.12022   2.14484   2.15515   2.16572
  Beta virt. eigenvalues --    2.18078   2.18551   2.20155   2.20676   2.24106
  Beta virt. eigenvalues --    2.24711   2.25953   2.26436   2.29000   2.30380
  Beta virt. eigenvalues --    2.32229   2.32824   2.34589   2.36419   2.37182
  Beta virt. eigenvalues --    2.39878   2.40962   2.41127   2.42325   2.42795
  Beta virt. eigenvalues --    2.43864   2.44455   2.46016   2.46843   2.47588
  Beta virt. eigenvalues --    2.48704   2.49166   2.49750   2.49950   2.51312
  Beta virt. eigenvalues --    2.54228   2.54333   2.55987   2.56215   2.56707
  Beta virt. eigenvalues --    2.57596   2.60264   2.65000   2.65380   2.74251
  Beta virt. eigenvalues --    2.75766   2.87689   2.89935   2.91689   2.92434
  Beta virt. eigenvalues --    2.97473   2.98698   3.01813   3.06432   3.16903
  Beta virt. eigenvalues --    3.17748   3.19833   3.23189   3.35918   3.40287
  Beta virt. eigenvalues --    3.41260   3.44700   3.55018   3.58640
          Condensed to atoms (all electrons):
               1          2          3          4          5          6
     1  C    5.223377   0.277679  -0.033754   0.438820  -0.013371  -0.022427
     2  C    0.277679   5.138124   0.365088  -0.045164  -0.013006   0.005672
     3  H   -0.033754   0.365088   0.685430  -0.016771   0.007776   0.000131
     4  C    0.438820  -0.045164  -0.016771   4.545550   0.376897   0.370116
     5  H   -0.013371  -0.013006   0.007776   0.376897   0.670133  -0.027436
     6  H   -0.022427   0.005672   0.000131   0.370116  -0.027436   0.652101
     7  H   -0.021649   0.005636   0.000120   0.370763  -0.027121  -0.033435
     8  C   -0.059608   0.426188  -0.037371   0.008543   0.000401  -0.000141
     9  O    0.000977  -0.073730   0.003641   0.000427  -0.000010   0.000009
    10  O    0.002307  -0.056039   0.007777  -0.000055  -0.000009   0.000001
    11  C   -0.000171   0.007226  -0.000849   0.000002   0.000002  -0.000000
    12  H    0.000037   0.001237   0.000045   0.000000  -0.000000  -0.000000
    13  H    0.000033   0.001279   0.000047   0.000000  -0.000000   0.000000
    14  B    0.374771  -0.065359   0.011955  -0.049271   0.003868  -0.000696
    15  O   -0.021126   0.001800  -0.000052  -0.000016  -0.000007  -0.000467
    16  O   -0.020735   0.001704  -0.000053  -0.000922  -0.000023   0.001927
    17  C    0.002271   0.000111   0.000009  -0.000328   0.000010  -0.000068
    18  C    0.002337  -0.000209   0.000011  -0.000053   0.000014  -0.000173
    19  C    0.000069  -0.000102   0.000001   0.000013  -0.000000  -0.000001
    20  C    0.000126   0.000002  -0.000000   0.000009  -0.000001   0.000005
    21  C   -0.000262  -0.000007  -0.000000   0.000072  -0.000002   0.000110
    22  C    0.000065  -0.000014  -0.000000   0.000004  -0.000000   0.000007
    23  H    0.000076   0.000345  -0.000022   0.000004  -0.000000  -0.000000
    24  H   -0.000239   0.000030   0.000000  -0.000004  -0.000000   0.000000
    25  H    0.000002  -0.000002   0.000000   0.000000  -0.000000   0.000000
    26  H   -0.000048  -0.000001  -0.000000   0.000001   0.000000  -0.000014
    27  H    0.000005  -0.000000   0.000000  -0.000000   0.000000   0.000000
    28  H   -0.000067   0.000001   0.000000  -0.000003  -0.000000   0.000000
    29  H   -0.000246   0.000002   0.000000  -0.000033  -0.000001   0.000115
    30  H    0.000011   0.000001   0.000000  -0.000006   0.000000   0.000002
    31  H   -0.000027  -0.000019  -0.000001   0.000326  -0.000003   0.000335
    32  H   -0.000065   0.000003   0.000000  -0.000002  -0.000000   0.000000
    33  H    0.000004  -0.000006   0.000000   0.000002  -0.000000  -0.000002
    34  H    0.000006   0.000000   0.000000   0.000000   0.000000  -0.000001
    35  C    0.000004   0.000031  -0.000117  -0.000000   0.000000  -0.000000
    36  H    0.000003  -0.000040   0.000053  -0.000000  -0.000000   0.000000
    37  H   -0.000000   0.000021   0.000003   0.000000  -0.000000  -0.000000
    38  H    0.000003  -0.000040   0.000050  -0.000000  -0.000000  -0.000000
               7          8          9         10         11         12
     1  C   -0.021649  -0.059608   0.000977   0.002307  -0.000171   0.000037
     2  C    0.005636   0.426188  -0.073730  -0.056039   0.007226   0.001237
     3  H    0.000120  -0.037371   0.003641   0.007777  -0.000849   0.000045
     4  C    0.370763   0.008543   0.000427  -0.000055   0.000002   0.000000
     5  H   -0.027121   0.000401  -0.000010  -0.000009   0.000002  -0.000000
     6  H   -0.033435  -0.000141   0.000009   0.000001  -0.000000  -0.000000
     7  H    0.653427  -0.000120   0.000006   0.000001  -0.000000   0.000000
     8  C   -0.000120   4.530848   0.619069   0.387262  -0.052003  -0.000499
     9  O    0.000006   0.619069   7.708088  -0.054054   0.000393   0.007400
    10  O    0.000001   0.387262  -0.054054   7.784581   0.297135  -0.030904
    11  C   -0.000000  -0.052003   0.000393   0.297135   4.479627   0.378452
    12  H    0.000000  -0.000499   0.007400  -0.030904   0.378452   0.694037
    13  H   -0.000000  -0.000573   0.007661  -0.030900   0.378452  -0.050420
    14  B   -0.003773  -0.045579   0.061230   0.000918  -0.000272   0.000041
    15  O    0.002090  -0.000353  -0.002552  -0.000001   0.000001  -0.000000
    16  O   -0.000514   0.000234  -0.003607  -0.000001   0.000002   0.000001
    17  C   -0.000033  -0.000152  -0.002100  -0.000001   0.000001  -0.000002
    18  C   -0.000126  -0.000128  -0.000535  -0.000000  -0.000000   0.000000
    19  C    0.000012   0.000043  -0.004074  -0.000001  -0.000011   0.000000
    20  C   -0.000001   0.000000  -0.000010  -0.000000   0.000000   0.000000
    21  C    0.000011   0.000002  -0.000001  -0.000000   0.000000   0.000000
    22  C   -0.000003   0.000021  -0.000016  -0.000000   0.000000   0.000000
    23  H   -0.000000  -0.000007   0.017963   0.000004   0.000065   0.000081
    24  H   -0.000001  -0.000026  -0.000003  -0.000000  -0.000002   0.000006
    25  H   -0.000001  -0.000006   0.000078   0.000000   0.000000   0.000000
    26  H    0.000072   0.000001   0.000001   0.000000  -0.000000  -0.000000
    27  H   -0.000001  -0.000000   0.000000   0.000000  -0.000000  -0.000000
    28  H   -0.000000  -0.000001  -0.000002  -0.000000  -0.000000  -0.000000
    29  H   -0.000012  -0.000002  -0.000000   0.000000  -0.000000   0.000000
    30  H   -0.000004  -0.000000   0.000000   0.000000  -0.000000  -0.000000
    31  H    0.000084   0.000005   0.000003   0.000000  -0.000000   0.000000
    32  H   -0.000000  -0.000003  -0.000001   0.000000  -0.000000   0.000000
    33  H    0.000000   0.000014  -0.000040  -0.000000  -0.000001  -0.000002
    34  H    0.000000  -0.000001  -0.000002  -0.000000   0.000000   0.000000
    35  C   -0.000000   0.002524   0.001114  -0.033873   0.451905  -0.026018
    36  H   -0.000000   0.000211  -0.000017   0.003032  -0.019200  -0.010883
    37  H   -0.000000  -0.000010   0.000038   0.002942  -0.011577  -0.001261
    38  H    0.000000   0.000213  -0.000017   0.003054  -0.019333   0.009109
              13         14         15         16         17         18
     1  C    0.000033   0.374771  -0.021126  -0.020735   0.002271   0.002337
     2  C    0.001279  -0.065359   0.001800   0.001704   0.000111  -0.000209
     3  H    0.000047   0.011955  -0.000052  -0.000053   0.000009   0.000011
     4  C    0.000000  -0.049271  -0.000016  -0.000922  -0.000328  -0.000053
     5  H   -0.000000   0.003868  -0.000007  -0.000023   0.000010   0.000014
     6  H    0.000000  -0.000696  -0.000467   0.001927  -0.000068  -0.000173
     7  H   -0.000000  -0.003773   0.002090  -0.000514  -0.000033  -0.000126
     8  C   -0.000573  -0.045579  -0.000353   0.000234  -0.000152  -0.000128
     9  O    0.007661   0.061230  -0.002552  -0.003607  -0.002100  -0.000535
    10  O   -0.030900   0.000918  -0.000001  -0.000001  -0.000001  -0.000000
    11  C    0.378452  -0.000272   0.000001   0.000002   0.000001  -0.000000
    12  H   -0.050420   0.000041  -0.000000   0.000001  -0.000002   0.000000
    13  H    0.694074   0.000043   0.000000  -0.000001   0.000002  -0.000001
    14  B    0.000043   3.696591   0.532046   0.527514  -0.114142  -0.115221
    15  O    0.000000   0.532046   7.599140  -0.022609   0.263532  -0.058569
    16  O   -0.000001   0.527514  -0.022609   7.604872  -0.055559   0.259724
    17  C    0.000002  -0.114142   0.263532  -0.055559   4.989571   0.298466
    18  C   -0.000001  -0.115221  -0.058569   0.259724   0.298466   4.996609
    19  C   -0.000006   0.008552  -0.039072   0.000982   0.423527  -0.055884
    20  C   -0.000000   0.000546  -0.032308   0.003011   0.445582  -0.050817
    21  C   -0.000000   0.008243   0.000496  -0.039167  -0.054565   0.422677
    22  C   -0.000000   0.000651   0.002885  -0.031737  -0.051016   0.444948
    23  H    0.000036   0.002832  -0.003833   0.001163  -0.002367  -0.008092
    24  H   -0.000001  -0.000295   0.002061  -0.000197  -0.011488   0.008030
    25  H   -0.000000  -0.001104   0.004295  -0.000121  -0.010392  -0.007601
    26  H   -0.000000   0.002277   0.000896  -0.000055   0.000022  -0.014611
    27  H   -0.000000   0.000668   0.003589   0.000020  -0.012343  -0.002069
    28  H    0.000000  -0.001148   0.000149  -0.000138  -0.009684   0.007981
    29  H    0.000000  -0.001045  -0.000212   0.002489   0.007910  -0.011119
    30  H   -0.000000  -0.001034  -0.000098   0.004315  -0.006833  -0.009582
    31  H   -0.000000   0.007269   0.001990  -0.003386  -0.008639  -0.005727
    32  H    0.000000  -0.001102  -0.000141   0.000162   0.007915  -0.010227
    33  H    0.000005   0.002048  -0.000019   0.000733  -0.014025   0.000214
    34  H   -0.000000   0.000597   0.000017   0.003625  -0.002381  -0.012682
    35  C   -0.026074  -0.000012   0.000000   0.000000   0.000000  -0.000000
    36  H    0.009100   0.000001  -0.000000  -0.000000   0.000000  -0.000000
    37  H   -0.001285  -0.000000   0.000000   0.000000   0.000000   0.000000
    38  H   -0.010898   0.000001  -0.000000  -0.000000  -0.000000   0.000000
              19         20         21         22         23         24
     1  C    0.000069   0.000126  -0.000262   0.000065   0.000076  -0.000239
     2  C   -0.000102   0.000002  -0.000007  -0.000014   0.000345   0.000030
     3  H    0.000001  -0.000000  -0.000000  -0.000000  -0.000022   0.000000
     4  C    0.000013   0.000009   0.000072   0.000004   0.000004  -0.000004
     5  H   -0.000000  -0.000001  -0.000002  -0.000000  -0.000000  -0.000000
     6  H   -0.000001   0.000005   0.000110   0.000007  -0.000000   0.000000
     7  H    0.000012  -0.000001   0.000011  -0.000003  -0.000000  -0.000001
     8  C    0.000043   0.000000   0.000002   0.000021  -0.000007  -0.000026
     9  O   -0.004074  -0.000010  -0.000001  -0.000016   0.017963  -0.000003
    10  O   -0.000001  -0.000000  -0.000000  -0.000000   0.000004  -0.000000
    11  C   -0.000011   0.000000   0.000000   0.000000   0.000065  -0.000002
    12  H    0.000000   0.000000   0.000000   0.000000   0.000081   0.000006
    13  H   -0.000006  -0.000000  -0.000000  -0.000000   0.000036  -0.000001
    14  B    0.008552   0.000546   0.008243   0.000651   0.002832  -0.000295
    15  O   -0.039072  -0.032308   0.000496   0.002885  -0.003833   0.002061
    16  O    0.000982   0.003011  -0.039167  -0.031737   0.001163  -0.000197
    17  C    0.423527   0.445582  -0.054565  -0.051016  -0.002367  -0.011488
    18  C   -0.055884  -0.050817   0.422677   0.444948  -0.008092   0.008030
    19  C    4.556611  -0.059697   0.007206  -0.003182   0.368069   0.366213
    20  C   -0.059697   4.517707  -0.001724   0.003370   0.006610  -0.008668
    21  C    0.007206  -0.001724   4.534757  -0.058884   0.000045  -0.000326
    22  C   -0.003182   0.003370  -0.058884   4.513607  -0.000592   0.000240
    23  H    0.368069   0.006610   0.000045  -0.000592   0.634990  -0.025872
    24  H    0.366213  -0.008668  -0.000326   0.000240  -0.025872   0.676578
    25  H    0.363662  -0.001490  -0.000254   0.007395  -0.027721  -0.025400
    26  H    0.007860   0.362858   0.009567  -0.000192  -0.000510   0.000026
    27  H   -0.000127   0.368639  -0.000730  -0.000280   0.000047  -0.000366
    28  H   -0.008275   0.369283  -0.000103  -0.000289   0.000130   0.005277
    29  H   -0.000334   0.000246   0.367161  -0.008034  -0.000026   0.000017
    30  H   -0.000250   0.006563   0.365127  -0.001128  -0.000002   0.000006
    31  H    0.000136  -0.000795   0.374614   0.007271   0.000047  -0.000031
    32  H   -0.000091  -0.000302  -0.008085   0.369283  -0.000044  -0.000021
    33  H    0.010910  -0.000040   0.007508   0.364112   0.001031  -0.000087
    34  H   -0.000483  -0.000307  -0.000128   0.368677   0.000106   0.000005
    35  C   -0.000000   0.000000  -0.000000   0.000000   0.000002  -0.000000
    36  H    0.000000  -0.000000   0.000000  -0.000000  -0.000000  -0.000000
    37  H    0.000000   0.000000   0.000000   0.000000   0.000000  -0.000000
    38  H    0.000000   0.000000   0.000000   0.000000  -0.000000   0.000000
              25         26         27         28         29         30
     1  C    0.000002  -0.000048   0.000005  -0.000067  -0.000246   0.000011
     2  C   -0.000002  -0.000001  -0.000000   0.000001   0.000002   0.000001
     3  H    0.000000  -0.000000   0.000000   0.000000   0.000000   0.000000
     4  C    0.000000   0.000001  -0.000000  -0.000003  -0.000033  -0.000006
     5  H   -0.000000   0.000000   0.000000  -0.000000  -0.000001   0.000000
     6  H    0.000000  -0.000014   0.000000   0.000000   0.000115   0.000002
     7  H   -0.000001   0.000072  -0.000001  -0.000000  -0.000012  -0.000004
     8  C   -0.000006   0.000001  -0.000000  -0.000001  -0.000002  -0.000000
     9  O    0.000078   0.000001   0.000000  -0.000002  -0.000000   0.000000
    10  O    0.000000   0.000000   0.000000  -0.000000   0.000000   0.000000
    11  C    0.000000  -0.000000  -0.000000  -0.000000  -0.000000  -0.000000
    12  H    0.000000  -0.000000  -0.000000  -0.000000   0.000000  -0.000000
    13  H   -0.000000  -0.000000  -0.000000   0.000000   0.000000  -0.000000
    14  B   -0.001104   0.002277   0.000668  -0.001148  -0.001045  -0.001034
    15  O    0.004295   0.000896   0.003589   0.000149  -0.000212  -0.000098
    16  O   -0.000121  -0.000055   0.000020  -0.000138   0.002489   0.004315
    17  C   -0.010392   0.000022  -0.012343  -0.009684   0.007910  -0.006833
    18  C   -0.007601  -0.014611  -0.002069   0.007981  -0.011119  -0.009582
    19  C    0.363662   0.007860  -0.000127  -0.008275  -0.000334  -0.000250
    20  C   -0.001490   0.362858   0.368639   0.369283   0.000246   0.006563
    21  C   -0.000254   0.009567  -0.000730  -0.000103   0.367161   0.365127
    22  C    0.007395  -0.000192  -0.000280  -0.000289  -0.008034  -0.001128
    23  H   -0.027721  -0.000510   0.000047   0.000130  -0.000026  -0.000002
    24  H   -0.025400   0.000026  -0.000366   0.005277   0.000017   0.000006
    25  H    0.679238  -0.000036   0.001917  -0.000289   0.000006  -0.000025
    26  H   -0.000036   0.665740  -0.026069  -0.027913  -0.000072  -0.000387
    27  H    0.001917  -0.026069   0.661661  -0.025899   0.000003   0.000174
    28  H   -0.000289  -0.027913  -0.025899   0.671118  -0.000020   0.000166
    29  H    0.000006  -0.000072   0.000003  -0.000020   0.670225  -0.024264
    30  H   -0.000025  -0.000387   0.000174   0.000166  -0.024264   0.671690
    31  H   -0.000005   0.001169   0.000160  -0.000093  -0.027559  -0.029118
    32  H    0.000170  -0.000004  -0.000107   0.000023   0.005190  -0.000228
    33  H   -0.000659  -0.000020  -0.000092  -0.000004  -0.000008  -0.000031
    34  H   -0.000068  -0.000061   0.001419  -0.000107  -0.000378   0.001701
    35  C    0.000000  -0.000000  -0.000000  -0.000000  -0.000000  -0.000000
    36  H   -0.000000  -0.000000   0.000000   0.000000  -0.000000  -0.000000
    37  H   -0.000000  -0.000000  -0.000000   0.000000  -0.000000  -0.000000
    38  H    0.000000   0.000000  -0.000000  -0.000000  -0.000000   0.000000
              31         32         33         34         35         36
     1  C   -0.000027  -0.000065   0.000004   0.000006   0.000004   0.000003
     2  C   -0.000019   0.000003  -0.000006   0.000000   0.000031  -0.000040
     3  H   -0.000001   0.000000   0.000000   0.000000  -0.000117   0.000053
     4  C    0.000326  -0.000002   0.000002   0.000000  -0.000000  -0.000000
     5  H   -0.000003  -0.000000  -0.000000   0.000000   0.000000  -0.000000
     6  H    0.000335   0.000000  -0.000002  -0.000001  -0.000000   0.000000
     7  H    0.000084  -0.000000   0.000000   0.000000  -0.000000  -0.000000
     8  C    0.000005  -0.000003   0.000014  -0.000001   0.002524   0.000211
     9  O    0.000003  -0.000001  -0.000040  -0.000002   0.001114  -0.000017
    10  O    0.000000   0.000000  -0.000000  -0.000000  -0.033873   0.003032
    11  C   -0.000000  -0.000000  -0.000001   0.000000   0.451905  -0.019200
    12  H    0.000000   0.000000  -0.000002   0.000000  -0.026018  -0.010883
    13  H   -0.000000   0.000000   0.000005  -0.000000  -0.026074   0.009100
    14  B    0.007269  -0.001102   0.002048   0.000597  -0.000012   0.000001
    15  O    0.001990  -0.000141  -0.000019   0.000017   0.000000  -0.000000
    16  O   -0.003386   0.000162   0.000733   0.003625   0.000000  -0.000000
    17  C   -0.008639   0.007915  -0.014025  -0.002381   0.000000   0.000000
    18  C   -0.005727  -0.010227   0.000214  -0.012682  -0.000000  -0.000000
    19  C    0.000136  -0.000091   0.010910  -0.000483  -0.000000   0.000000
    20  C   -0.000795  -0.000302  -0.000040  -0.000307   0.000000  -0.000000
    21  C    0.374614  -0.008085   0.007508  -0.000128  -0.000000   0.000000
    22  C    0.007271   0.369283   0.364112   0.368677   0.000000  -0.000000
    23  H    0.000047  -0.000044   0.001031   0.000106   0.000002  -0.000000
    24  H   -0.000031  -0.000021  -0.000087   0.000005  -0.000000  -0.000000
    25  H   -0.000005   0.000170  -0.000659  -0.000068   0.000000  -0.000000
    26  H    0.001169  -0.000004  -0.000020  -0.000061  -0.000000  -0.000000
    27  H    0.000160  -0.000107  -0.000092   0.001419  -0.000000   0.000000
    28  H   -0.000093   0.000023  -0.000004  -0.000107  -0.000000   0.000000
    29  H   -0.027559   0.005190  -0.000008  -0.000378  -0.000000  -0.000000
    30  H   -0.029118  -0.000228  -0.000031   0.001701  -0.000000  -0.000000
    31  H    0.656498   0.000084  -0.000522   0.000012  -0.000000   0.000000
    32  H    0.000084   0.672000  -0.027557  -0.026058  -0.000000  -0.000000
    33  H   -0.000522  -0.027557   0.661620  -0.025649  -0.000000   0.000000
    34  H    0.000012  -0.026058  -0.025649   0.662578   0.000000  -0.000000
    35  C   -0.000000  -0.000000  -0.000000   0.000000   4.516814   0.381446
    36  H    0.000000  -0.000000   0.000000  -0.000000   0.381446   0.660511
    37  H   -0.000000   0.000000   0.000000   0.000000   0.373312  -0.024156
    38  H    0.000000  -0.000000  -0.000000   0.000000   0.381563  -0.032515
              37         38
     1  C   -0.000000   0.000003
     2  C    0.000021  -0.000040
     3  H    0.000003   0.000050
     4  C    0.000000  -0.000000
     5  H   -0.000000  -0.000000
     6  H   -0.000000  -0.000000
     7  H   -0.000000   0.000000
     8  C   -0.000010   0.000213
     9  O    0.000038  -0.000017
    10  O    0.002942   0.003054
    11  C   -0.011577  -0.019333
    12  H   -0.001261   0.009109
    13  H   -0.001285  -0.010898
    14  B   -0.000000   0.000001
    15  O    0.000000  -0.000000
    16  O    0.000000  -0.000000
    17  C    0.000000  -0.000000
    18  C    0.000000   0.000000
    19  C    0.000000   0.000000
    20  C    0.000000   0.000000
    21  C    0.000000   0.000000
    22  C    0.000000   0.000000
    23  H    0.000000  -0.000000
    24  H   -0.000000   0.000000
    25  H   -0.000000   0.000000
    26  H   -0.000000   0.000000
    27  H   -0.000000  -0.000000
    28  H    0.000000  -0.000000
    29  H   -0.000000  -0.000000
    30  H   -0.000000   0.000000
    31  H   -0.000000   0.000000
    32  H    0.000000  -0.000000
    33  H    0.000000  -0.000000
    34  H    0.000000   0.000000
    35  C    0.373312   0.381563
    36  H   -0.024156  -0.032515
    37  H    0.653765  -0.024127
    38  H   -0.024127   0.660467
          Atomic-Atomic Spin Densities.
               1          2          3          4          5          6
     1  C    1.059840  -0.105487   0.000123  -0.018320  -0.001353  -0.026847
     2  C   -0.105487   0.867388   0.010273  -0.003333   0.000817   0.001197
     3  H    0.000123   0.010273  -0.044431   0.001280  -0.000349   0.000022
     4  C   -0.018320  -0.003333   0.001280  -0.069478   0.002738   0.012010
     5  H   -0.001353   0.000817  -0.000349   0.002738  -0.001010  -0.000056
     6  H   -0.026847   0.001197   0.000022   0.012010  -0.000056   0.088772
     7  H   -0.026902   0.001336  -0.000008   0.013132  -0.000375  -0.023744
     8  C   -0.031875   0.065269   0.001664  -0.000014   0.000033   0.000100
     9  O    0.004791  -0.017834  -0.000113  -0.000003   0.000000  -0.000004
    10  O    0.000823  -0.013408   0.000070   0.000002  -0.000000  -0.000001
    11  C   -0.000002  -0.000361  -0.000015   0.000000  -0.000000  -0.000000
    12  H   -0.000027   0.000227   0.000005   0.000000   0.000000  -0.000000
    13  H   -0.000024   0.000225   0.000005   0.000000  -0.000000   0.000000
    14  B    0.040448  -0.008639  -0.000449  -0.000018  -0.000353  -0.000549
    15  O   -0.010027   0.000614   0.000000   0.000204   0.000000  -0.000278
    16  O   -0.010654   0.000708   0.000001   0.000177   0.000001   0.000925
    17  C    0.000330   0.000004   0.000000   0.000004  -0.000001   0.000019
    18  C    0.000515  -0.000009  -0.000000  -0.000027  -0.000000  -0.000080
    19  C   -0.000001  -0.000016  -0.000000   0.000000   0.000000  -0.000001
    20  C   -0.000032   0.000000   0.000000   0.000001   0.000000  -0.000004
    21  C   -0.000060   0.000001   0.000000   0.000010   0.000000   0.000027
    22  C   -0.000040   0.000003   0.000000   0.000000   0.000000   0.000006
    23  H   -0.000019   0.000020   0.000001  -0.000000   0.000000  -0.000000
    24  H   -0.000003  -0.000001  -0.000000   0.000000   0.000000  -0.000000
    25  H    0.000003  -0.000001  -0.000000  -0.000000  -0.000000   0.000000
    26  H   -0.000017   0.000000   0.000000   0.000002   0.000000  -0.000006
    27  H    0.000002  -0.000000  -0.000000  -0.000000  -0.000000   0.000000
    28  H   -0.000001   0.000000   0.000000  -0.000000   0.000000  -0.000000
    29  H   -0.000020   0.000001   0.000000   0.000001   0.000000   0.000021
    30  H    0.000002  -0.000000  -0.000000  -0.000000  -0.000000  -0.000003
    31  H   -0.000014  -0.000000   0.000000   0.000005   0.000000   0.000075
    32  H    0.000001   0.000000   0.000000  -0.000000   0.000000  -0.000000
    33  H    0.000008  -0.000005  -0.000000   0.000000   0.000000  -0.000000
    34  H    0.000002  -0.000000  -0.000000  -0.000000  -0.000000  -0.000000
    35  C   -0.000001   0.000033   0.000001   0.000000  -0.000000   0.000000
    36  H    0.000001  -0.000027  -0.000000   0.000000   0.000000   0.000000
    37  H   -0.000000  -0.000000  -0.000000   0.000000  -0.000000  -0.000000
    38  H    0.000001  -0.000029  -0.000000   0.000000   0.000000  -0.000000
               7          8          9         10         11         12
     1  C   -0.026902  -0.031875   0.004791   0.000823  -0.000002  -0.000027
     2  C    0.001336   0.065269  -0.017834  -0.013408  -0.000361   0.000227
     3  H   -0.000008   0.001664  -0.000113   0.000070  -0.000015   0.000005
     4  C    0.013132  -0.000014  -0.000003   0.000002   0.000000   0.000000
     5  H   -0.000375   0.000033   0.000000  -0.000000  -0.000000   0.000000
     6  H   -0.023744   0.000100  -0.000004  -0.000001  -0.000000  -0.000000
     7  H    0.089398   0.000111  -0.000006  -0.000001  -0.000000   0.000000
     8  C    0.000111   0.057113  -0.034545  -0.014822  -0.000612   0.000561
     9  O   -0.000006  -0.034545   0.252830   0.003817   0.000083  -0.000963
    10  O   -0.000001  -0.014822   0.003817   0.071452   0.001111  -0.000657
    11  C   -0.000000  -0.000612   0.000083   0.001111  -0.005727   0.000348
    12  H    0.000000   0.000561  -0.000963  -0.000657   0.000348   0.004489
    13  H   -0.000000   0.000502  -0.000942  -0.000634   0.000397  -0.000528
    14  B   -0.001980  -0.000776  -0.000322   0.000003   0.000029  -0.000010
    15  O    0.000884   0.000281  -0.000073  -0.000000  -0.000000   0.000001
    16  O   -0.000285   0.000305  -0.000093  -0.000000  -0.000000  -0.000000
    17  C   -0.000045  -0.000015   0.000042  -0.000000  -0.000000   0.000000
    18  C    0.000033  -0.000003   0.000037  -0.000000   0.000000  -0.000000
    19  C    0.000001   0.000008   0.000212   0.000000   0.000001  -0.000001
    20  C    0.000010   0.000001  -0.000000  -0.000000  -0.000000   0.000000
    21  C   -0.000013   0.000001  -0.000000  -0.000000  -0.000000  -0.000000
    22  C   -0.000002   0.000004  -0.000012  -0.000000  -0.000000  -0.000000
    23  H    0.000000  -0.000058  -0.000583   0.000001  -0.000004  -0.000004
    24  H    0.000000   0.000001   0.000005   0.000000   0.000000  -0.000000
    25  H   -0.000000  -0.000002   0.000007   0.000000   0.000000  -0.000000
    26  H    0.000019   0.000000  -0.000000  -0.000000  -0.000000   0.000000
    27  H   -0.000001  -0.000000   0.000000   0.000000   0.000000  -0.000000
    28  H    0.000000   0.000000  -0.000000  -0.000000  -0.000000   0.000000
    29  H   -0.000004   0.000000  -0.000000  -0.000000  -0.000000  -0.000000
    30  H    0.000001  -0.000000  -0.000000  -0.000000   0.000000   0.000000
    31  H   -0.000065   0.000000  -0.000000  -0.000000   0.000000  -0.000000
    32  H    0.000000  -0.000000  -0.000000  -0.000000   0.000000  -0.000000
    33  H    0.000000  -0.000004   0.000045   0.000000   0.000000   0.000000
    34  H    0.000000  -0.000000   0.000000   0.000000   0.000000   0.000000
    35  C    0.000000   0.000120  -0.000041  -0.000635   0.000712   0.000185
    36  H   -0.000000  -0.000054   0.000007   0.000209   0.000073  -0.000258
    37  H    0.000000  -0.000001  -0.000001  -0.000006   0.000183  -0.000008
    38  H    0.000000  -0.000052   0.000006   0.000210   0.000101   0.000110
              13         14         15         16         17         18
     1  C   -0.000024   0.040448  -0.010027  -0.010654   0.000330   0.000515
     2  C    0.000225  -0.008639   0.000614   0.000708   0.000004  -0.000009
     3  H    0.000005  -0.000449   0.000000   0.000001   0.000000  -0.000000
     4  C    0.000000  -0.000018   0.000204   0.000177   0.000004  -0.000027
     5  H   -0.000000  -0.000353   0.000000   0.000001  -0.000001  -0.000000
     6  H    0.000000  -0.000549  -0.000278   0.000925   0.000019  -0.000080
     7  H   -0.000000  -0.001980   0.000884  -0.000285  -0.000045   0.000033
     8  C    0.000502  -0.000776   0.000281   0.000305  -0.000015  -0.000003
     9  O   -0.000942  -0.000322  -0.000073  -0.000093   0.000042   0.000037
    10  O   -0.000634   0.000003  -0.000000  -0.000000  -0.000000  -0.000000
    11  C    0.000397   0.000029  -0.000000  -0.000000  -0.000000   0.000000
    12  H   -0.000528  -0.000010   0.000001  -0.000000   0.000000  -0.000000
    13  H    0.004287  -0.000012  -0.000000   0.000001  -0.000000   0.000000
    14  B   -0.000012  -0.030292  -0.003390  -0.003720   0.000307   0.000509
    15  O   -0.000000  -0.003390   0.020513  -0.000909   0.000031   0.000231
    16  O    0.000001  -0.003720  -0.000909   0.021466   0.000240  -0.000352
    17  C   -0.000000   0.000307   0.000031   0.000240   0.002730  -0.000146
    18  C    0.000000   0.000509   0.000231  -0.000352  -0.000146   0.003240
    19  C    0.000001   0.000066  -0.000082   0.000033   0.000057  -0.000012
    20  C   -0.000000  -0.000083  -0.000258  -0.000005  -0.000033  -0.000115
    21  C    0.000000   0.000043   0.000007   0.000030   0.000041  -0.000106
    22  C    0.000000  -0.000291  -0.000000  -0.000235  -0.000059  -0.000098
    23  H    0.000000   0.000027   0.000020   0.000010   0.000010   0.000054
    24  H    0.000000  -0.000010  -0.000012   0.000001  -0.000015  -0.000006
    25  H    0.000000  -0.000015   0.000003   0.000001   0.000033  -0.000002
    26  H   -0.000000  -0.000025  -0.000051  -0.000003  -0.000013  -0.000016
    27  H    0.000000   0.000009   0.000035  -0.000002  -0.000016   0.000074
    28  H   -0.000000  -0.000002  -0.000001   0.000000  -0.000001  -0.000004
    29  H    0.000000  -0.000025  -0.000000   0.000001  -0.000002  -0.000046
    30  H   -0.000000   0.000006  -0.000001  -0.000001  -0.000002   0.000001
    31  H    0.000000   0.000007  -0.000019   0.000043   0.000026  -0.000025
    32  H    0.000000  -0.000005   0.000000   0.000001  -0.000003   0.000013
    33  H   -0.000001   0.000057   0.000004  -0.000054  -0.000014   0.000095
    34  H   -0.000000   0.000035  -0.000003   0.000030   0.000053  -0.000045
    35  C    0.000250  -0.000000   0.000000   0.000000  -0.000000  -0.000000
    36  H    0.000108   0.000000  -0.000000   0.000000  -0.000000  -0.000000
    37  H   -0.000010   0.000000  -0.000000  -0.000000  -0.000000  -0.000000
    38  H   -0.000249  -0.000000   0.000000  -0.000000   0.000000   0.000000
              19         20         21         22         23         24
     1  C   -0.000001  -0.000032  -0.000060  -0.000040  -0.000019  -0.000003
     2  C   -0.000016   0.000000   0.000001   0.000003   0.000020  -0.000001
     3  H   -0.000000   0.000000   0.000000   0.000000   0.000001  -0.000000
     4  C    0.000000   0.000001   0.000010   0.000000  -0.000000   0.000000
     5  H    0.000000   0.000000   0.000000   0.000000   0.000000   0.000000
     6  H   -0.000001  -0.000004   0.000027   0.000006  -0.000000  -0.000000
     7  H    0.000001   0.000010  -0.000013  -0.000002   0.000000   0.000000
     8  C    0.000008   0.000001   0.000001   0.000004  -0.000058   0.000001
     9  O    0.000212  -0.000000  -0.000000  -0.000012  -0.000583   0.000005
    10  O    0.000000  -0.000000  -0.000000  -0.000000   0.000001   0.000000
    11  C    0.000001  -0.000000  -0.000000  -0.000000  -0.000004   0.000000
    12  H   -0.000001   0.000000  -0.000000  -0.000000  -0.000004  -0.000000
    13  H    0.000001  -0.000000   0.000000   0.000000   0.000000   0.000000
    14  B    0.000066  -0.000083   0.000043  -0.000291   0.000027  -0.000010
    15  O   -0.000082  -0.000258   0.000007  -0.000000   0.000020  -0.000012
    16  O    0.000033  -0.000005   0.000030  -0.000235   0.000010   0.000001
    17  C    0.000057  -0.000033   0.000041  -0.000059   0.000010  -0.000015
    18  C   -0.000012  -0.000115  -0.000106  -0.000098   0.000054  -0.000006
    19  C   -0.000761   0.000263  -0.000015  -0.000145   0.000561   0.000050
    20  C    0.000263   0.001536  -0.000082  -0.000129   0.000018   0.000026
    21  C   -0.000015  -0.000082  -0.000212   0.000194   0.000001  -0.000000
    22  C   -0.000145  -0.000129   0.000194   0.001990  -0.000033  -0.000003
    23  H    0.000561   0.000018   0.000001  -0.000033  -0.000578   0.000026
    24  H    0.000050   0.000026  -0.000000  -0.000003   0.000026   0.000033
    25  H   -0.000370  -0.000133   0.000008   0.000133  -0.000035  -0.000045
    26  H    0.000010   0.000142  -0.000005  -0.000014   0.000000   0.000001
    27  H   -0.000102  -0.000321   0.000023   0.000072  -0.000002  -0.000005
    28  H    0.000012   0.000028   0.000000  -0.000000   0.000001  -0.000004
    29  H   -0.000001  -0.000005   0.000042   0.000045   0.000000  -0.000000
    30  H    0.000004   0.000038   0.000039  -0.000048   0.000000   0.000000
    31  H   -0.000004  -0.000034   0.000037   0.000021  -0.000000  -0.000000
    32  H    0.000000   0.000000   0.000007   0.000021  -0.000000  -0.000000
    33  H    0.000002   0.000001  -0.000008  -0.000099   0.000031   0.000000
    34  H    0.000061   0.000073  -0.000070  -0.000442   0.000006   0.000002
    35  C    0.000000   0.000000   0.000000   0.000000  -0.000000   0.000000
    36  H    0.000000  -0.000000   0.000000   0.000000   0.000000   0.000000
    37  H    0.000000   0.000000   0.000000   0.000000  -0.000000   0.000000
    38  H   -0.000000   0.000000  -0.000000  -0.000000  -0.000000  -0.000000
              25         26         27         28         29         30
     1  C    0.000003  -0.000017   0.000002  -0.000001  -0.000020   0.000002
     2  C   -0.000001   0.000000  -0.000000   0.000000   0.000001  -0.000000
     3  H   -0.000000   0.000000  -0.000000   0.000000   0.000000  -0.000000
     4  C   -0.000000   0.000002  -0.000000  -0.000000   0.000001  -0.000000
     5  H   -0.000000   0.000000  -0.000000   0.000000   0.000000  -0.000000
     6  H    0.000000  -0.000006   0.000000  -0.000000   0.000021  -0.000003
     7  H   -0.000000   0.000019  -0.000001   0.000000  -0.000004   0.000001
     8  C   -0.000002   0.000000  -0.000000   0.000000   0.000000  -0.000000
     9  O    0.000007  -0.000000   0.000000  -0.000000  -0.000000  -0.000000
    10  O    0.000000  -0.000000   0.000000  -0.000000  -0.000000  -0.000000
    11  C    0.000000  -0.000000   0.000000  -0.000000  -0.000000   0.000000
    12  H   -0.000000   0.000000  -0.000000   0.000000  -0.000000   0.000000
    13  H    0.000000  -0.000000   0.000000  -0.000000   0.000000  -0.000000
    14  B   -0.000015  -0.000025   0.000009  -0.000002  -0.000025   0.000006
    15  O    0.000003  -0.000051   0.000035  -0.000001  -0.000000  -0.000001
    16  O    0.000001  -0.000003  -0.000002   0.000000   0.000001  -0.000001
    17  C    0.000033  -0.000013  -0.000016  -0.000001  -0.000002  -0.000002
    18  C   -0.000002  -0.000016   0.000074  -0.000004  -0.000046   0.000001
    19  C   -0.000370   0.000010  -0.000102   0.000012  -0.000001   0.000004
    20  C   -0.000133   0.000142  -0.000321   0.000028  -0.000005   0.000038
    21  C    0.000008  -0.000005   0.000023   0.000000   0.000042   0.000039
    22  C    0.000133  -0.000014   0.000072  -0.000000   0.000045  -0.000048
    23  H   -0.000035   0.000000  -0.000002   0.000001   0.000000   0.000000
    24  H   -0.000045   0.000001  -0.000005  -0.000004  -0.000000   0.000000
    25  H    0.000763  -0.000007   0.000088  -0.000004   0.000000  -0.000003
    26  H   -0.000007   0.000108  -0.000167   0.000008  -0.000003   0.000030
    27  H    0.000088  -0.000167   0.001068  -0.000008   0.000004  -0.000053
    28  H   -0.000004   0.000008  -0.000008  -0.000075  -0.000000   0.000001
    29  H    0.000000  -0.000003   0.000004  -0.000000   0.000011  -0.000032
    30  H   -0.000003   0.000030  -0.000053   0.000001  -0.000032   0.000113
    31  H    0.000001  -0.000038   0.000016   0.000000   0.000030  -0.000034
    32  H    0.000001   0.000000   0.000000  -0.000000  -0.000005   0.000001
    33  H   -0.000031   0.000000  -0.000001   0.000000  -0.000001   0.000002
    34  H   -0.000112   0.000008  -0.000094   0.000001  -0.000013   0.000039
    35  C   -0.000000   0.000000  -0.000000   0.000000   0.000000  -0.000000
    36  H    0.000000  -0.000000   0.000000  -0.000000   0.000000  -0.000000
    37  H    0.000000   0.000000   0.000000  -0.000000  -0.000000   0.000000
    38  H   -0.000000   0.000000  -0.000000   0.000000  -0.000000   0.000000
              31         32         33         34         35         36
     1  C   -0.000014   0.000001   0.000008   0.000002  -0.000001   0.000001
     2  C   -0.000000   0.000000  -0.000005  -0.000000   0.000033  -0.000027
     3  H    0.000000   0.000000  -0.000000  -0.000000   0.000001  -0.000000
     4  C    0.000005  -0.000000   0.000000  -0.000000   0.000000   0.000000
     5  H    0.000000   0.000000   0.000000  -0.000000  -0.000000   0.000000
     6  H    0.000075  -0.000000  -0.000000  -0.000000   0.000000   0.000000
     7  H   -0.000065   0.000000   0.000000   0.000000   0.000000  -0.000000
     8  C    0.000000  -0.000000  -0.000004  -0.000000   0.000120  -0.000054
     9  O   -0.000000  -0.000000   0.000045   0.000000  -0.000041   0.000007
    10  O   -0.000000  -0.000000   0.000000   0.000000  -0.000635   0.000209
    11  C    0.000000   0.000000   0.000000   0.000000   0.000712   0.000073
    12  H   -0.000000  -0.000000   0.000000   0.000000   0.000185  -0.000258
    13  H    0.000000   0.000000  -0.000001  -0.000000   0.000250   0.000108
    14  B    0.000007  -0.000005   0.000057   0.000035  -0.000000   0.000000
    15  O   -0.000019   0.000000   0.000004  -0.000003   0.000000  -0.000000
    16  O    0.000043   0.000001  -0.000054   0.000030   0.000000   0.000000
    17  C    0.000026  -0.000003  -0.000014   0.000053  -0.000000  -0.000000
    18  C   -0.000025   0.000013   0.000095  -0.000045  -0.000000  -0.000000
    19  C   -0.000004   0.000000   0.000002   0.000061   0.000000   0.000000
    20  C   -0.000034   0.000000   0.000001   0.000073   0.000000  -0.000000
    21  C    0.000037   0.000007  -0.000008  -0.000070   0.000000   0.000000
    22  C    0.000021   0.000021  -0.000099  -0.000442   0.000000   0.000000
    23  H   -0.000000  -0.000000   0.000031   0.000006  -0.000000   0.000000
    24  H   -0.000000  -0.000000   0.000000   0.000002   0.000000   0.000000
    25  H    0.000001   0.000001  -0.000031  -0.000112  -0.000000   0.000000
    26  H   -0.000038   0.000000   0.000000   0.000008   0.000000  -0.000000
    27  H    0.000016   0.000000  -0.000001  -0.000094  -0.000000   0.000000
    28  H    0.000000  -0.000000   0.000000   0.000001   0.000000  -0.000000
    29  H    0.000030  -0.000005  -0.000001  -0.000013   0.000000   0.000000
    30  H   -0.000034   0.000001   0.000002   0.000039  -0.000000  -0.000000
    31  H   -0.000001   0.000000  -0.000000  -0.000006   0.000000   0.000000
    32  H    0.000000  -0.000085  -0.000007   0.000010   0.000000   0.000000
    33  H   -0.000000  -0.000007   0.000018   0.000006  -0.000000  -0.000000
    34  H   -0.000006   0.000010   0.000006   0.001094  -0.000000  -0.000000
    35  C    0.000000   0.000000  -0.000000  -0.000000   0.000138  -0.000372
    36  H    0.000000   0.000000  -0.000000  -0.000000  -0.000372   0.000912
    37  H    0.000000  -0.000000  -0.000000   0.000000  -0.000029   0.000035
    38  H   -0.000000  -0.000000   0.000000   0.000000  -0.000404  -0.000437
              37         38
     1  C   -0.000000   0.000001
     2  C   -0.000000  -0.000029
     3  H   -0.000000  -0.000000
     4  C    0.000000   0.000000
     5  H   -0.000000   0.000000
     6  H   -0.000000  -0.000000
     7  H    0.000000   0.000000
     8  C   -0.000001  -0.000052
     9  O   -0.000001   0.000006
    10  O   -0.000006   0.000210
    11  C    0.000183   0.000101
    12  H   -0.000008   0.000110
    13  H   -0.000010  -0.000249
    14  B    0.000000  -0.000000
    15  O   -0.000000   0.000000
    16  O   -0.000000  -0.000000
    17  C   -0.000000   0.000000
    18  C   -0.000000   0.000000
    19  C    0.000000  -0.000000
    20  C    0.000000   0.000000
    21  C    0.000000  -0.000000
    22  C    0.000000  -0.000000
    23  H   -0.000000  -0.000000
    24  H    0.000000  -0.000000
    25  H    0.000000  -0.000000
    26  H    0.000000   0.000000
    27  H    0.000000  -0.000000
    28  H   -0.000000   0.000000
    29  H   -0.000000  -0.000000
    30  H    0.000000   0.000000
    31  H    0.000000  -0.000000
    32  H   -0.000000  -0.000000
    33  H   -0.000000   0.000000
    34  H    0.000000   0.000000
    35  C   -0.000029  -0.000404
    36  H    0.000035  -0.000437
    37  H   -0.000456   0.000035
    38  H    0.000035   0.000914
 Mulliken charges and spin densities:
               1          2
     1  C   -0.129189   0.875166
     2  C    0.021557   0.798966
     3  H    0.006853  -0.031922
     4  C    0.001079  -0.061627
     5  H    0.021888   0.000091
     6  H    0.054329   0.051601
     7  H    0.054572   0.051498
     8  C    0.221003   0.043244
     9  O   -0.287327   0.206346
    10  O   -0.283177   0.047534
    11  C    0.110155  -0.003683
    12  H    0.029543   0.003468
    13  H    0.029426   0.003375
    14  B    0.157389  -0.009419
    15  O   -0.233552   0.007723
    16  O   -0.233654   0.007662
    17  C   -0.082811   0.003564
    18  C   -0.077583   0.003711
    19  C    0.057722  -0.000166
    20  C    0.071602   0.000905
    21  C    0.066640  -0.000060
    22  C    0.072830   0.000838
    23  H    0.035443  -0.000528
    24  H    0.014534   0.000041
    25  H    0.018409   0.000281
    26  H    0.019502  -0.000035
    27  H    0.029780   0.000621
    28  H    0.019909  -0.000051
    29  H    0.020001  -0.000001
    30  H    0.023232   0.000101
    31  H    0.025920   0.000022
    32  H    0.019209  -0.000048
    33  H    0.020564   0.000044
    34  H    0.029564   0.000635
    35  C   -0.022622  -0.000043
    36  H    0.032455   0.000197
    37  H    0.032334  -0.000256
    38  H    0.032470   0.000206
 Sum of Mulliken charges =  -0.00000   2.00000
 Mulliken charges and spin densities with hydrogens summed into heavy atoms:
               1          2
     1  C   -0.129189   0.875166
     2  C    0.028410   0.767043
     4  C    0.131869   0.041563
     8  C    0.221003   0.043244
     9  O   -0.287327   0.206346
    10  O   -0.283177   0.047534
    11  C    0.169125   0.003160
    14  B    0.157389  -0.009419
    15  O   -0.233552   0.007723
    16  O   -0.233654   0.007662
    17  C   -0.082811   0.003564
    18  C   -0.077583   0.003711
    19  C    0.126108  -0.000373
    20  C    0.140794   0.001439
    21  C    0.135793   0.000061
    22  C    0.142167   0.001469
    35  C    0.074636   0.000104
 Electronic spatial extent (au):  <R**2>=           9508.7434
 Charge=              0.0000 electrons
 Dipole moment (field-independent basis, Debye):
    X=              0.0012    Y=             -0.5470    Z=              0.0406  Tot=              0.5485
 Quadrupole moment (field-independent basis, Debye-Ang):
   XX=            -88.6933   YY=            -91.2274   ZZ=           -105.3424
   XY=              5.7826   XZ=             -1.1098   YZ=             -0.1700
 Traceless Quadrupole moment (field-independent basis, Debye-Ang):
   XX=              6.3944   YY=              3.8603   ZZ=            -10.2547
   XY=              5.7826   XZ=             -1.1098   YZ=             -0.1700
 Octapole moment (field-independent basis, Debye-Ang**2):
  XXX=            709.4640  YYY=           -340.1666  ZZZ=            -55.5581  XYY=            280.3962
  XXY=           -165.2554  XXZ=            -10.0061  XZZ=            284.1301  YZZ=           -143.7752
  YYZ=            -14.5528  XYZ=              3.0522
 Hexadecapole moment (field-independent basis, Debye-Ang**3):
 XXXX=          -6840.6221 YYYY=          -3680.8482 ZZZZ=           -641.7353 XXXY=            366.4285
 XXXZ=            130.4389 YYYX=            293.6295 YYYZ=            -28.8396 ZZZX=            184.3566
 ZZZY=            -66.4440 XXYY=          -2055.6811 XXZZ=          -1394.8614 YYZZ=           -817.8868
 XXYZ=            -33.8771 YYXZ=             62.5649 ZZXY=            110.4369
 N-N= 1.291612295120D+03 E-N=-4.440606026123D+03  KE= 7.907070789438D+02

 Atomic contributions to Alpha molecular orbitals:
 Alpha occ 47 OE=-0.396 is C19-p=0.1188 C20-p=0.1062
 Alpha occ 48 OE=-0.395 is C21-p=0.1695 H29-s=0.1144 C19-p=0.1033
 Alpha occ 49 OE=-0.393 is C35-p=0.1911 C4-p=0.1312 H37-s=0.1306
 Alpha occ 50 OE=-0.391 is C35-p=0.1633 H37-s=0.1110 C21-p=0.1039
 Alpha occ 51 OE=-0.381 is C35-p=0.1966 C4-p=0.1402 C11-p=0.1330
 Alpha occ 52 OE=-0.375 is C20-p=0.1813 C22-p=0.1668 H27-s=0.1001
 Alpha occ 53 OE=-0.366 is C19-p=0.1737 C21-p=0.1355 H24-s=0.1285 H29-s=0.1029
 Alpha occ 54 OE=-0.365 is C35-p=0.1580
 Alpha occ 55 OE=-0.362 is C35-p=0.0989
 Alpha occ 56 OE=-0.349 is O10-p=0.2153 C11-p=0.1185
 Alpha occ 57 OE=-0.346 is O10-p=0.0953
 Alpha occ 58 OE=-0.333 is O15-p=0.1983 O16-p=0.1975 B14-p=0.1017
 Alpha occ 59 OE=-0.332 is O15-p=0.2033 O16-p=0.2012 C1-p=0.1222
 Alpha occ 60 OE=-0.331 is O16-p=0.2098 O15-p=0.1765 B14-p=0.1187
 Alpha occ 61 OE=-0.321 is C2-p=0.3568 O9-p=0.2318 C1-p=0.1851
 Alpha occ 62 OE=-0.308 is C18-p=0.1417 C17-p=0.1373
 Alpha occ 63 OE=-0.307 is O10-p=0.3754 O9-p=0.1368
 Alpha occ 64 OE=-0.282 is O9-p=0.6508
 Alpha occ 65 OE=-0.270 is O16-p=0.3178 O15-p=0.2806
 Alpha occ 66 OE=-0.134 is C1-p=0.4409 C2-p=0.2113
 Alpha vir 67 OE=0.048 is B14-p=0.1790 H31-s=0.1225
 Alpha vir 68 OE=0.049 is C8-p=0.4873 C2-p=0.1739 O9-p=0.1454
 Alpha vir 69 OE=0.058 is B14-p=0.2917 H27-s=0.1093
 Alpha vir 70 OE=0.070 is H12-s=0.1800 H37-s=0.1794 H13-s=0.1786 H36-s=0.1430 H38-s=0.1425 C35-s=-0.1014
 Alpha vir 71 OE=0.077 is H3-s=0.2619 H7-s=0.1248 H6-s=0.1206 H5-s=0.1087
 Alpha vir 72 OE=0.088 is H3-s=0.1119
 Alpha vir 73 OE=0.095 is H3-s=0.1922 H29-s=0.1815 H31-s=0.1323 H25-s=0.1088
 Alpha vir 74 OE=0.098 is H32-s=0.1954 H28-s=0.1555 H24-s=0.1437 H29-s=0.1334
 Alpha vir 75 OE=0.105 is H33-s=0.1917 H23-s=0.1372 H38-s=0.1236 H36-s=0.1203
 Alpha vir 76 OE=0.112 is H6-s=0.1696 H26-s=0.1587 H24-s=0.1481
 Alpha vir 77 OE=0.116 is H12-s=0.1802 H38-s=0.1583 H30-s=0.1134
 Alpha vir 78 OE=0.118 is H36-s=0.2977 H13-s=0.2962 H12-s=0.1060
 Alpha vir 79 OE=0.120 is H38-s=0.1253 H6-s=0.1201 H7-s=0.1156 H12-s=0.1016
 Alpha vir 80 OE=0.129 is H37-s=0.3329 C11-p=0.1482
 Alpha vir 81 OE=0.135 is H7-s=0.2227 H25-s=0.1482
 Alpha vir 82 OE=0.138 is H6-s=0.1882 H30-s=0.1212
 Alpha vir 83 OE=0.140 is H32-s=0.1353
 Alpha vir 84 OE=0.146 is H37-s=0.3501 C11-p=0.3262
 Alpha vir 85 OE=0.153 is H26-s=0.1689 H31-s=0.1662 H23-s=0.1384 H5-s=0.1073
 Alpha vir 86 OE=0.160 is H28-s=0.1527 H34-s=0.1279 H24-s=0.1261 H27-s=0.1160

 Atomic contributions to Beta  molecular orbitals:
 Beta  occ 45 OE=-0.406 is C4-p=0.3536 H7-s=0.1501 H6-s=0.1463
 Beta  occ 46 OE=-0.400 is C20-p=0.2237 C22-p=0.2124 H28-s=0.1512 H32-s=0.1448
 Beta  occ 47 OE=-0.395 is C22-p=0.1196 C20-p=0.1185 H27-s=0.1023
 Beta  occ 48 OE=-0.395 is C21-p=0.2032 H29-s=0.1357 C19-p=0.1339
 Beta  occ 49 OE=-0.392 is C35-p=0.1882 H37-s=0.1394 C4-p=0.1135
 Beta  occ 50 OE=-0.391 is C35-p=0.1995 H37-s=0.1397
 Beta  occ 51 OE=-0.376 is C4-p=0.1887 C35-p=0.1516 C11-p=0.1205
 Beta  occ 52 OE=-0.375 is C20-p=0.1760 C22-p=0.1712
 Beta  occ 53 OE=-0.366 is C19-p=0.1739 C21-p=0.1377 H24-s=0.1301 H29-s=0.1029
 Beta  occ 54 OE=-0.363 is C21-p=0.1233 C19-p=0.1222
 Beta  occ 55 OE=-0.355 is C35-p=0.1962 C11-p=0.1350 H36-s=0.1276 O9-p=0.1172 H38-s=0.1157
 Beta  occ 56 OE=-0.348 is O10-p=0.1241
 Beta  occ 57 OE=-0.345 is O10-p=0.2034
 Beta  occ 58 OE=-0.332 is O16-p=0.3048 O15-p=0.2921
 Beta  occ 59 OE=-0.330 is O16-p=0.2711 O15-p=0.2635 B14-p=0.1028
 Beta  occ 60 OE=-0.324 is C1-p=0.2269 B14-p=0.1633
 Beta  occ 61 OE=-0.307 is C18-p=0.1726 C17-p=0.1715 O16-p=0.1043
 Beta  occ 62 OE=-0.290 is O10-p=0.4728 O9-p=0.2824
 Beta  occ 63 OE=-0.277 is O9-p=0.6497
 Beta  occ 64 OE=-0.269 is O16-p=0.3205 O15-p=0.2594
 Beta  vir 65 OE=-0.183 is C2-p=0.5132 C1-p=0.2670
 Beta  vir 66 OE=-0.012 is C1-p=0.3491 C8-p=0.2377 O9-p=0.1317
 Beta  vir 67 OE=0.048 is B14-p=0.1854 H31-s=0.1224
 Beta  vir 68 OE=0.058 is B14-p=0.2874 H27-s=0.1132
 Beta  vir 69 OE=0.070 is H37-s=0.2051 H12-s=0.2007 H13-s=0.1997 H36-s=0.1634 H38-s=0.1626 C35-s=-0.1155
 Beta  vir 70 OE=0.079 is H3-s=0.2435 H7-s=0.1462 H6-s=0.1408 H5-s=0.1214 B14-p=0.1030
 Beta  vir 71 OE=0.089 is C17-p=0.0950
 Beta  vir 72 OE=0.096 is H29-s=0.2469 H24-s=0.1385 H3-s=0.1199
 Beta  vir 73 OE=0.098 is H3-s=0.1942 H32-s=0.1572 H26-s=0.1338 H28-s=0.1055
 Beta  vir 74 OE=0.099 is C8-p=0.2554 C2-p=0.2423
 Beta  vir 75 OE=0.105 is H33-s=0.1965 H23-s=0.1382 H38-s=0.1239 H36-s=0.1181 H28-s=0.1055
 Beta  vir 76 OE=0.112 is H6-s=0.1548 H26-s=0.1512 H24-s=0.1422
 Beta  vir 77 OE=0.116 is H12-s=0.1775 H38-s=0.1551 H30-s=0.1034
 Beta  vir 78 OE=0.119 is H36-s=0.2874 H13-s=0.2602 H38-s=0.1241 H12-s=0.1148
 Beta  vir 79 OE=0.122 is H6-s=0.1298 H7-s=0.1280
 Beta  vir 80 OE=0.130 is H37-s=0.4028 C11-p=0.1207
 Beta  vir 81 OE=0.137 is H7-s=0.2437 H25-s=0.1342
 Beta  vir 82 OE=0.139 is H6-s=0.1938 C17-p=0.1071 H30-s=0.1061
 Beta  vir 83 OE=0.142 is H32-s=0.1368
 Beta  vir 84 OE=0.147 is C11-p=0.3893 H37-s=0.2962
 
                          Isotropic Fermi Contact Couplings
        Atom                 a.u.       MegaHertz       Gauss      10(-4) cm-1
     1  C(13)              0.09141      51.38212      18.33442      17.13923
     2  C(13)              0.07096      39.88379      14.23153      13.30380
     3  H(1)              -0.01119     -25.00769      -8.92337      -8.34167
     4  C(13)             -0.02865     -16.10568      -5.74691      -5.37228
     5  H(1)               0.00001       0.02755       0.00983       0.00919
     6  H(1)               0.02342      52.33583      18.67473      17.45735
     7  H(1)               0.02372      53.02231      18.91968      17.68634
     8  C(13)             -0.01712      -9.62380      -3.43401      -3.21015
     9  O(17)              0.04391     -13.30866      -4.74886      -4.43929
    10  O(17)              0.00828      -2.51058      -0.89584      -0.83744
    11  C(13)             -0.00238      -1.33674      -0.47698      -0.44589
    12  H(1)               0.00205       4.58287       1.63528       1.52868
    13  H(1)               0.00201       4.50101       1.60607       1.50137
    14  B(11)             -0.01789     -12.83075      -4.57833      -4.27988
    15  O(17)              0.03218      -9.75441      -3.48061      -3.25372
    16  O(17)              0.03291      -9.97389      -3.55893      -3.32693
    17  C(13)              0.00141       0.79402       0.28333       0.26486
    18  C(13)              0.00141       0.79304       0.28298       0.26453
    19  C(13)             -0.00014      -0.08123      -0.02898      -0.02709
    20  C(13)              0.00070       0.39555       0.14114       0.13194
    21  C(13)             -0.00015      -0.08584      -0.03063      -0.02863
    22  C(13)              0.00083       0.46443       0.16572       0.15492
    23  H(1)               0.00003       0.07491       0.02673       0.02499
    24  H(1)               0.00003       0.06275       0.02239       0.02093
    25  H(1)               0.00010       0.22652       0.08083       0.07556
    26  H(1)               0.00001       0.01221       0.00436       0.00407
    27  H(1)               0.00022       0.48654       0.17361       0.16229
    28  H(1)              -0.00001      -0.03171      -0.01131      -0.01058
    29  H(1)               0.00001       0.01339       0.00478       0.00447
    30  H(1)               0.00005       0.12050       0.04300       0.04019
    31  H(1)               0.00001       0.01702       0.00607       0.00568
    32  H(1)              -0.00001      -0.03340      -0.01192      -0.01114
    33  H(1)               0.00001       0.02756       0.00983       0.00919
    34  H(1)               0.00023       0.51836       0.18496       0.17291
    35  C(13)             -0.00016      -0.09213      -0.03288      -0.03073
    36  H(1)               0.00002       0.04951       0.01767       0.01651
    37  H(1)              -0.00010      -0.23308      -0.08317      -0.07775
    38  H(1)               0.00003       0.05820       0.02077       0.01941
 --------------------------------------------------------
       Center         ----  Spin Dipole Couplings  ----
                      3XX-RR        3YY-RR        3ZZ-RR
 --------------------------------------------------------
     1   Atom       -0.526085     -0.505845      1.031930
     2   Atom       -0.454475     -0.436374      0.890849
     3   Atom        0.072366     -0.060112     -0.012254
     4   Atom       -0.025253      0.007792      0.017461
     5   Atom        0.003676      0.007470     -0.011146
     6   Atom       -0.010422      0.019516     -0.009093
     7   Atom       -0.010216      0.017055     -0.006839
     8   Atom       -0.057368     -0.040583      0.097950
     9   Atom       -0.417568     -0.411169      0.828737
    10   Atom       -0.140884     -0.112337      0.253221
    11   Atom       -0.005755      0.006817     -0.001062
    12   Atom       -0.003386      0.007681     -0.004295
    13   Atom       -0.003541      0.006996     -0.003455
    14   Atom        0.030620     -0.022494     -0.008125
    15   Atom        0.042208     -0.021059     -0.021149
    16   Atom        0.038846     -0.025285     -0.013561
    17   Atom        0.012860     -0.006675     -0.006185
    18   Atom        0.012427     -0.006066     -0.006361
    19   Atom        0.005129     -0.002288     -0.002841
    20   Atom        0.003224     -0.001392     -0.001831
    21   Atom        0.002420     -0.000370     -0.002051
    22   Atom        0.003509     -0.002172     -0.001337
    23   Atom        0.007869     -0.003127     -0.004742
    24   Atom        0.003426     -0.001950     -0.001475
    25   Atom        0.003088     -0.001387     -0.001701
    26   Atom        0.002007     -0.000410     -0.001597
    27   Atom        0.002125     -0.001004     -0.001121
    28   Atom        0.001986     -0.001443     -0.000543
    29   Atom        0.001226     -0.000251     -0.000975
    30   Atom        0.001632     -0.000347     -0.001285
    31   Atom        0.001994      0.000774     -0.002768
    32   Atom        0.001680     -0.001618     -0.000062
    33   Atom        0.003196     -0.001739     -0.001456
    34   Atom        0.002260     -0.001247     -0.001013
    35   Atom       -0.001852      0.004337     -0.002486
    36   Atom       -0.001130      0.003260     -0.002130
    37   Atom       -0.001351      0.002861     -0.001509
    38   Atom       -0.001015      0.003015     -0.002000
 --------------------------------------------------------
                        XY            XZ            YZ
 --------------------------------------------------------
     1   Atom        0.011461      0.100998     -0.088870
     2   Atom        0.017391      0.081238     -0.067569
     3   Atom        0.006382     -0.004686     -0.002786
     4   Atom       -0.012524      0.002544     -0.000246
     5   Atom       -0.015764     -0.001815      0.001969
     6   Atom       -0.002216     -0.001512     -0.009475
     7   Atom       -0.001090      0.001613      0.012847
     8   Atom       -0.017917      0.007593     -0.005494
     9   Atom       -0.009172      0.064655     -0.072529
    10   Atom       -0.000920      0.020709     -0.020302
    11   Atom        0.001142      0.000343      0.000264
    12   Atom       -0.001076      0.000661     -0.002676
    13   Atom       -0.000662     -0.000792      0.003963
    14   Atom        0.006110     -0.002053     -0.000754
    15   Atom        0.019835      0.024569      0.006891
    16   Atom       -0.002651     -0.032806      0.000576
    17   Atom        0.001470     -0.001771      0.000197
    18   Atom        0.003985     -0.000440     -0.000322
    19   Atom       -0.000945      0.001335     -0.000113
    20   Atom        0.002330      0.002119      0.001017
    21   Atom        0.002867     -0.001361     -0.000797
    22   Atom       -0.000325     -0.003043      0.000321
    23   Atom       -0.002127      0.000769      0.000002
    24   Atom       -0.001083      0.002697     -0.000418
    25   Atom       -0.000618      0.000435     -0.000040
    26   Atom        0.002115      0.001191      0.000757
    27   Atom        0.000873      0.000505      0.000224
    28   Atom        0.000884      0.001907      0.000467
    29   Atom        0.002276     -0.001969     -0.001446
    30   Atom        0.001668     -0.000633     -0.000354
    31   Atom        0.003928     -0.000698     -0.000571
    32   Atom        0.000461     -0.002295     -0.000330
    33   Atom       -0.000614     -0.002416      0.000305
    34   Atom        0.000323     -0.000973     -0.000020
    35   Atom        0.002001      0.000073      0.000252
    36   Atom        0.002446     -0.000490     -0.001026
    37   Atom        0.000833      0.000036      0.000189
    38   Atom        0.002508      0.000651      0.001321
 --------------------------------------------------------


 ---------------------------------------------------------------------------------
              Anisotropic Spin Dipole Couplings in Principal Axis System
 ---------------------------------------------------------------------------------

       Atom             a.u.   MegaHertz   Gauss  10(-4) cm-1        Axes

              Baa    -0.5420   -72.734   -25.953   -24.261  0.8729 -0.4808 -0.0832
     1 C(13)  Bbb    -0.5014   -67.286   -24.009   -22.444  0.4838  0.8750  0.0188
              Bcc     1.0434   140.020    49.963    46.706  0.0637 -0.0567  0.9964
 
              Baa    -0.4731   -63.481   -22.652   -21.175  0.8389 -0.5388 -0.0767
     2 C(13)  Bbb    -0.4260   -57.161   -20.397   -19.067  0.5410  0.8410  0.0098
              Bcc     0.8990   120.643    43.048    40.242  0.0592 -0.0497  0.9970
 
              Baa    -0.0606   -32.309   -11.529   -10.777 -0.0460  0.9975  0.0531
     3 H(1)   Bbb    -0.0124    -6.611    -2.359    -2.205  0.0589 -0.0503  0.9970
              Bcc     0.0729    38.920    13.888    12.982  0.9972  0.0490 -0.0565
 
              Baa    -0.0296    -3.969    -1.416    -1.324  0.9471  0.3171 -0.0496
     4 C(13)  Bbb     0.0118     1.585     0.566     0.529 -0.3040  0.9359  0.1777
              Bcc     0.0178     2.384     0.851     0.795  0.1027 -0.1532  0.9828
 
              Baa    -0.0114    -6.065    -2.164    -2.023  0.0899 -0.0288  0.9955
     5 H(1)   Bbb    -0.0103    -5.497    -1.961    -1.834  0.7446  0.6658 -0.0480
              Bcc     0.0217    11.562     4.125     3.857 -0.6614  0.7456  0.0813
 
              Baa    -0.0134    -7.167    -2.557    -2.391  0.5798  0.2609  0.7718
     6 H(1)   Bbb    -0.0090    -4.814    -1.718    -1.606  0.8131 -0.1256 -0.5684
              Bcc     0.0225    11.981     4.275     3.997 -0.0514  0.9572 -0.2850
 
              Baa    -0.0135    -7.224    -2.578    -2.410 -0.4995 -0.3505  0.7922
     7 H(1)   Bbb    -0.0091    -4.864    -1.736    -1.623  0.8662 -0.1906  0.4618
              Bcc     0.0227    12.088     4.313     4.032 -0.0109  0.9170  0.3988
 
              Baa    -0.0688    -9.237    -3.296    -3.081  0.8461  0.5326 -0.0210
     8 C(13)  Bbb    -0.0298    -3.996    -1.426    -1.333 -0.5302  0.8451  0.0679
              Bcc     0.0986    13.233     4.722     4.414  0.0539 -0.0463  0.9975
 
              Baa    -0.4242    30.697    10.953    10.239  0.8526  0.5223 -0.0138
     9 O(17)  Bbb    -0.4121    29.820    10.641     9.947 -0.5199  0.8507  0.0768
              Bcc     0.8363   -60.517   -21.594   -20.186  0.0518 -0.0583  0.9970
 
              Baa    -0.1420    10.273     3.666     3.427  0.9986 -0.0050 -0.0526
    10 O(17)  Bbb    -0.1135     8.210     2.929     2.739  0.0079  0.9985  0.0548
              Bcc     0.2554   -18.483    -6.595    -6.165  0.0522 -0.0552  0.9971
 
              Baa    -0.0059    -0.789    -0.281    -0.263  0.9939 -0.0880 -0.0660
    11 C(13)  Bbb    -0.0011    -0.141    -0.050    -0.047  0.0624 -0.0425  0.9971
              Bcc     0.0069     0.930     0.332     0.310  0.0906  0.9952  0.0368
 
              Baa    -0.0050    -2.660    -0.949    -0.887 -0.2721  0.1767  0.9459
    12 H(1)   Bbb    -0.0034    -1.807    -0.645    -0.603  0.9570  0.1527  0.2467
              Bcc     0.0084     4.467     1.594     1.490 -0.1009  0.9723 -0.2107
 
              Baa    -0.0050    -2.666    -0.951    -0.889  0.3600 -0.2748  0.8916
    13 H(1)   Bbb    -0.0034    -1.813    -0.647    -0.605  0.9300  0.1812 -0.3197
              Bcc     0.0084     4.479     1.598     1.494 -0.0737  0.9443  0.3208
 
              Baa    -0.0232    -3.973    -1.418    -1.325 -0.1114  0.9932  0.0345
    14 B(11)  Bbb    -0.0082    -1.408    -0.502    -0.470  0.0572 -0.0282  0.9980
              Bcc     0.0314     5.381     1.920     1.795  0.9921  0.1132 -0.0537
 
              Baa    -0.0296     2.139     0.763     0.714 -0.3158 -0.0317  0.9483
    15 O(17)  Bbb    -0.0268     1.936     0.691     0.646 -0.2583  0.9646 -0.0537
              Bcc     0.0563    -4.075    -1.454    -1.359  0.9130  0.2619  0.3129
 
              Baa    -0.0294     2.130     0.760     0.711  0.4328  0.1529  0.8884
    16 O(17)  Bbb    -0.0253     1.829     0.653     0.610 -0.0370  0.9877 -0.1520
              Bcc     0.0547    -3.959    -1.413    -1.321  0.9008 -0.0330 -0.4331
 
              Baa    -0.0070    -0.934    -0.333    -0.312 -0.1069  0.8772 -0.4681
    17 C(13)  Bbb    -0.0062    -0.828    -0.295    -0.276  0.0452  0.4746  0.8790
              Bcc     0.0131     1.762     0.629     0.588  0.9932  0.0728 -0.0903
 
              Baa    -0.0070    -0.936    -0.334    -0.312 -0.1805  0.9178  0.3536
    18 C(13)  Bbb    -0.0063    -0.844    -0.301    -0.281  0.0947 -0.3416  0.9351
              Bcc     0.0133     1.780     0.635     0.594  0.9790  0.2022 -0.0253
 
              Baa    -0.0031    -0.411    -0.147    -0.137 -0.1674 -0.0610  0.9840
    19 C(13)  Bbb    -0.0024    -0.322    -0.115    -0.108  0.1101  0.9907  0.0801
              Bcc     0.0055     0.733     0.262     0.245  0.9797 -0.1217  0.1591
 
              Baa    -0.0027    -0.360    -0.128    -0.120 -0.1468 -0.4356  0.8881
    20 C(13)  Bbb    -0.0023    -0.312    -0.111    -0.104 -0.4692  0.8210  0.3251
              Bcc     0.0050     0.671     0.239     0.224  0.8708  0.3690  0.3250
 
              Baa    -0.0024    -0.326    -0.116    -0.109  0.2802 -0.0188  0.9598
    21 C(13)  Bbb    -0.0022    -0.289    -0.103    -0.096 -0.4896  0.8572  0.1597
              Bcc     0.0046     0.616     0.220     0.205  0.8257  0.5146 -0.2310
 
              Baa    -0.0028    -0.381    -0.136    -0.127  0.4119 -0.2248  0.8831
    22 C(13)  Bbb    -0.0022    -0.290    -0.104    -0.097  0.1507  0.9725  0.1773
              Bcc     0.0050     0.671     0.240     0.224  0.8987 -0.0601 -0.4345
 
              Baa    -0.0048    -2.562    -0.914    -0.855 -0.0768 -0.0990  0.9921
    23 H(1)   Bbb    -0.0035    -1.872    -0.668    -0.624  0.1754  0.9782  0.1112
              Bcc     0.0083     4.434     1.582     1.479  0.9815 -0.1825  0.0578
 
              Baa    -0.0027    -1.427    -0.509    -0.476 -0.4175 -0.1029  0.9028
    24 H(1)   Bbb    -0.0021    -1.144    -0.408    -0.381  0.1115  0.9802  0.1633
              Bcc     0.0048     2.571     0.917     0.858  0.9018 -0.1689  0.3977
 
              Baa    -0.0017    -0.929    -0.331    -0.310 -0.0967 -0.0568  0.9937
    25 H(1)   Bbb    -0.0015    -0.784    -0.280    -0.262  0.1277  0.9894  0.0689
              Bcc     0.0032     1.713     0.611     0.571  0.9871 -0.1336  0.0884
 
              Baa    -0.0020    -1.060    -0.378    -0.354 -0.1451 -0.2634  0.9537
    26 H(1)   Bbb    -0.0016    -0.869    -0.310    -0.290 -0.5332  0.8328  0.1489
              Bcc     0.0036     1.929     0.688     0.644  0.8334  0.4870  0.2612
 
              Baa    -0.0013    -0.698    -0.249    -0.233 -0.0980  0.7582 -0.6447
    27 H(1)   Bbb    -0.0011    -0.602    -0.215    -0.201 -0.2775  0.6013  0.7493
              Bcc     0.0024     1.300     0.464     0.433  0.9557  0.2523  0.1515
 
              Baa    -0.0017    -0.885    -0.316    -0.295 -0.2194  0.9751 -0.0328
    28 H(1)   Bbb    -0.0016    -0.836    -0.298    -0.279 -0.4575 -0.0732  0.8862
              Bcc     0.0032     1.720     0.614     0.574  0.8617  0.2095  0.4622
 
              Baa    -0.0022    -1.153    -0.411    -0.384  0.3277  0.2905  0.8990
    29 H(1)   Bbb    -0.0019    -1.016    -0.363    -0.339 -0.6029  0.7969 -0.0377
              Bcc     0.0041     2.169     0.774     0.723  0.7274  0.5297 -0.4362
 
              Baa    -0.0014    -0.756    -0.270    -0.252  0.1767  0.0501  0.9830
    30 H(1)   Bbb    -0.0013    -0.692    -0.247    -0.231 -0.4874  0.8721  0.0431
              Bcc     0.0027     1.448     0.517     0.483  0.8551  0.4867 -0.1785
 
              Baa    -0.0029    -1.531    -0.546    -0.511  0.1306  0.0146  0.9913
    31 H(1)   Bbb    -0.0026    -1.382    -0.493    -0.461 -0.6425  0.7628  0.0734
              Bcc     0.0055     2.912     1.039     0.971  0.7551  0.6465 -0.1090
 
              Baa    -0.0017    -0.899    -0.321    -0.300  0.0434  0.9653  0.2575
    32 H(1)   Bbb    -0.0016    -0.877    -0.313    -0.293  0.5742 -0.2350  0.7843
              Bcc     0.0033     1.776     0.634     0.592  0.8176  0.1138 -0.5645
 
              Baa    -0.0025    -1.327    -0.473    -0.443  0.3850 -0.0603  0.9209
    33 H(1)   Bbb    -0.0018    -0.968    -0.345    -0.323  0.1271  0.9918  0.0117
              Bcc     0.0043     2.295     0.819     0.765  0.9141 -0.1126 -0.3896
 
              Baa    -0.0013    -0.716    -0.256    -0.239 -0.2463  0.6867 -0.6840
    34 H(1)   Bbb    -0.0012    -0.646    -0.231    -0.216  0.1237  0.7222  0.6805
              Bcc     0.0026     1.362     0.486     0.454  0.9613  0.0830 -0.2628
 
              Baa    -0.0025    -0.335    -0.119    -0.112  0.0203 -0.0428  0.9989
    35 C(13)  Bbb    -0.0024    -0.328    -0.117    -0.109  0.9589 -0.2819 -0.0316
              Bcc     0.0049     0.663     0.236     0.221  0.2829  0.9585  0.0353
 
              Baa    -0.0023    -1.244    -0.444    -0.415  0.2978  0.0447  0.9536
    36 H(1)   Bbb    -0.0022    -1.181    -0.421    -0.394  0.8657 -0.4337 -0.2500
              Bcc     0.0045     2.425     0.865     0.809  0.4024  0.8999 -0.1679
 
              Baa    -0.0015    -0.810    -0.289    -0.270  0.0083 -0.0447  0.9990
    37 H(1)   Bbb    -0.0015    -0.806    -0.287    -0.269  0.9823 -0.1864 -0.0166
              Bcc     0.0030     1.615     0.576     0.539  0.1870  0.9815  0.0423
 
              Baa    -0.0023    -1.245    -0.444    -0.415 -0.2162 -0.1373  0.9666
    38 H(1)   Bbb    -0.0022    -1.182    -0.422    -0.394  0.8803 -0.4556  0.1322
              Bcc     0.0045     2.427     0.866     0.810  0.4222  0.8795  0.2194
 

 ---------------------------------------------------------------------------------

 No NMR shielding tensors so no spin-rotation constants.
 Leave Link  601 at Tue Aug 18 20:51:51 2026, MaxMem=  2684354560 cpu:              10.4 elap:               0.5
 (Enter /mnt/data/applications/G16/g16/l9999.exe)
 1\1\GINC-KIMIK2197\SP\UB3LYP\Gen\C12H21B1O4(3)\ASOLE\18-Aug-2026\0\\#p
  b3lyp/gen EmpiricalDispersion=GD3BJ pseudo=read scrf=(solvent=acetoni
 trile,pcm,read) nosymm pop=(Orbitals=20) geom=checkpoint guess=read\\T
 itle Card Required\\0,3\C,0,-1.01812,0.37875,0.0131\C,0,-0.2812,1.5059
 4,0.02905\H,0,0.81018,1.50169,-0.03712\C,0,-0.38702,-0.98049,-0.10321\
 H,0,0.71029,-0.93275,-0.16581\H,0,-0.66798,-1.60789,0.76074\H,0,-0.772
 51,-1.50391,-0.99558\C,0,-0.95089,2.81339,0.13557\O,0,-2.16379,2.96832
 ,0.21011\O,0,-0.07685,3.83391,0.14094\C,0,-0.64363,5.16426,0.24187\H,0
 ,-1.3281,5.31961,-0.60651\H,0,-1.23701,5.22395,1.16743\B,0,-2.58891,0.
 42048,0.11713\O,0,-3.40014,0.32186,-0.98412\O,0,-3.25688,0.31948,1.310
 29\C,0,-4.78248,0.42482,-0.50848\C,0,-4.65266,0.00126,1.00394\C,0,-5.2
 0652,1.88178,-0.70064\C,0,-5.64944,-0.49681,-1.35568\C,0,-4.80966,-1.5
 0312,1.23072\C,0,-5.5439,0.78035,1.96158\H,0,-4.56559,2.56038,-0.12325
 \H,0,-5.10364,2.14102,-1.7652\H,0,-6.25648,2.03311,-0.41023\H,0,-5.266
 81,-1.52548,-1.36121\H,0,-6.68324,-0.50777,-0.97721\H,0,-5.67113,-0.13
 237,-2.39362\H,0,-4.51067,-1.73995,2.26252\H,0,-5.85143,-1.82597,1.089
 18\H,0,-4.16779,-2.07915,0.54807\H,0,-5.38002,0.42697,2.99066\H,0,-5.3
 278,1.8558,1.9284\H,0,-6.60517,0.62613,1.71284\C,0,0.5069,6.14666,0.23
 556\H,0,1.08944,6.0634,-0.69505\H,0,0.11789,7.17373,0.31047\H,0,1.1807
 6,5.96794,1.08777\\Version=AM64L-G16RevA.03\HF=-795.7670124\S2=2.00737
 4\S2-1=0.\S2A=2.000031\RMSD=6.218e-09\Dipole=0.0004907,-0.2152045,0.01
 59559\Quadrupole=4.7540688,2.870036,-7.6241048,4.2991864,-0.8251357,-0
 .1263733\PG=C01 [X(C12H21B1O4)]\\@


 THE SECRET OF SUCCESS IN LIFE IS TO EAT WHAT YOU LIKE, AND LET THE FOOD
 FIGHT IT OUT INSIDE YOU. -- FROM A FORTUNE COOKIE
 Job cpu time:       0 days  1 hours  1 minutes 44.1 seconds.
 Elapsed time:       0 days  0 hours  2 minutes 42.0 seconds.
 File lengths (MBytes):  RWF=    518 Int=      0 D2E=      0 Chk=     11 Scr=      1
 Normal termination of Gaussian 16 at Tue Aug 18 20:51:51 2026.
