 Entering Gaussian System, Link 0=g16
 Initial command:
 /mnt/data/applications/G16/g16/l1.exe "/scratch/Gau-7918.inp" -scrdir="/scratch/"
 Entering Link 1 = /mnt/data/applications/G16/g16/l1.exe PID=      7919.
  
 Copyright (c) 1988,1990,1992,1993,1995,1998,2003,2009,2016,
            Gaussian, Inc.  All Rights Reserved.
  
 This is part of the Gaussian(R) 16 program.  It is based on
 the Gaussian(R) 09 system (copyright 2009, Gaussian, Inc.),
 the Gaussian(R) 03 system (copyright 2003, Gaussian, Inc.),
 the Gaussian(R) 98 system (copyright 1998, Gaussian, Inc.),
 the Gaussian(R) 94 system (copyright 1995, Gaussian, Inc.),
 the Gaussian 92(TM) system (copyright 1992, Gaussian, Inc.),
 the Gaussian 90(TM) system (copyright 1990, Gaussian, Inc.),
 the Gaussian 88(TM) system (copyright 1988, Gaussian, Inc.),
 the Gaussian 86(TM) system (copyright 1986, Carnegie Mellon
 University), and the Gaussian 82(TM) system (copyright 1983,
 Carnegie Mellon University). Gaussian is a federally registered
 trademark of Gaussian, Inc.
  
 This software contains proprietary and confidential information,
 including trade secrets, belonging to Gaussian, Inc.
  
 This software is provided under written license and may be
 used, copied, transmitted, or stored only in accord with that
 written license.
  
 The following legend is applicable only to US Government
 contracts under FAR:
  
                    RESTRICTED RIGHTS LEGEND
  
 Use, reproduction and disclosure by the US Government is
 subject to restrictions as set forth in subparagraphs (a)
 and (c) of the Commercial Computer Software - Restricted
 Rights clause in FAR 52.227-19.
  
 Gaussian, Inc.
 340 Quinnipiac St., Bldg. 40, Wallingford CT 06492
  
  
 ---------------------------------------------------------------
 Warning -- This program may not be used in any manner that
 competes with the business of Gaussian, Inc. or will provide
 assistance to any competitor of Gaussian, Inc.  The licensee
 of this program is prohibited from giving any competitor of
 Gaussian, Inc. access to this program.  By using this program,
 the user acknowledges that Gaussian, Inc. is engaged in the
 business of creating and licensing software in the field of
 computational chemistry and represents and warrants to the
 licensee that it is not a competitor of Gaussian, Inc. and that
 it will not use this program in any manner prohibited above.
 ---------------------------------------------------------------
  

 Cite this work as:
 Gaussian 16, Revision A.03,
 M. J. Frisch, G. W. Trucks, H. B. Schlegel, G. E. Scuseria, 
 M. A. Robb, J. R. Cheeseman, G. Scalmani, V. Barone, 
 G. A. Petersson, H. Nakatsuji, X. Li, M. Caricato, A. V. Marenich, 
 J. Bloino, B. G. Janesko, R. Gomperts, B. Mennucci, H. P. Hratchian, 
 J. V. Ortiz, A. F. Izmaylov, J. L. Sonnenberg, D. Williams-Young, 
 F. Ding, F. Lipparini, F. Egidi, J. Goings, B. Peng, A. Petrone, 
 T. Henderson, D. Ranasinghe, V. G. Zakrzewski, J. Gao, N. Rega, 
 G. Zheng, W. Liang, M. Hada, M. Ehara, K. Toyota, R. Fukuda, 
 J. Hasegawa, M. Ishida, T. Nakajima, Y. Honda, O. Kitao, H. Nakai, 
 T. Vreven, K. Throssell, J. A. Montgomery, Jr., J. E. Peralta, 
 F. Ogliaro, M. J. Bearpark, J. J. Heyd, E. N. Brothers, K. N. Kudin, 
 V. N. Staroverov, T. A. Keith, R. Kobayashi, J. Normand, 
 K. Raghavachari, A. P. Rendell, J. C. Burant, S. S. Iyengar, 
 J. Tomasi, M. Cossi, J. M. Millam, M. Klene, C. Adamo, R. Cammi, 
 J. W. Ochterski, R. L. Martin, K. Morokuma, O. Farkas, 
 J. B. Foresman, and D. J. Fox, Gaussian, Inc., Wallingford CT, 2016.
 
 ******************************************
 Gaussian 16:  AM64L-G16RevA.03 25-Dec-2016
                18-Aug-2026 
 ******************************************
 %mem=20GB
 %chk=alkene_triplet.chk
 ----------------------------------------------------------------------
 #p opt freq b3lyp/gen EmpiricalDispersion=GD3BJ pseudo=read scrf=(solv
 ent=acetonitrile,pcm) nosymm pop=(Orbitals=20)
 ----------------------------------------------------------------------
 1/18=20,19=15,26=3,38=1/1,3;
 2/9=110,12=2,15=1,17=6,18=5,40=1/2;
 3/5=7,11=2,16=1,17=8,25=1,30=1,70=2201,71=1,72=2,74=-5,124=41/1,2,3;
 4//1;
 5/5=2,38=5,53=2/2;
 6/7=2,8=2,9=2,10=2,28=1,96=20/1;
 7/30=1/1,2,3,16;
 1/18=20,19=15,26=3/3(2);
 2/9=110,15=1/2;
 99//99;
 2/9=110,15=1/2;
 3/5=7,6=1,11=2,16=1,17=8,25=1,30=1,70=2205,71=1,72=2,74=-5,82=7,124=41/1,2,3;
 4/5=5,16=3,69=1/1;
 5/5=2,38=5,53=2/2;
 7/30=1/1,2,3,16;
 1/18=20,19=15,26=3/3(-5);
 2/9=110,15=1/2;
 6/7=2,8=2,9=2,10=2,19=2,28=1,96=20/1;
 99/9=1/99;
 Leave Link    1 at Tue Aug 18 12:15:13 2026, MaxMem=  2684354560 cpu:               0.0 elap:               0.1
 (Enter /mnt/data/applications/G16/g16/l101.exe)
 -------------------
 Title Card Required
 -------------------
 Symbolic Z-matrix:
 Charge =  0 Multiplicity = 3
 C                    -1.28308   0.59828   0.6766 
 C                    -0.61773   1.61222  -0.13327 
 H                    -0.11423   1.35848  -1.0727 
 C                    -0.48915  -0.09172   1.74772 
 H                    -0.13495   0.64533   2.49399 
 H                    -1.08769  -0.8544    2.26466 
 H                     0.4188   -0.56644   1.33247 
 C                    -0.63046   3.00635   0.27483 
 O                    -1.18242   3.43149   1.28586 
 O                     0.03867   3.79844  -0.59763 
 C                     0.06882   5.20733  -0.27625 
 H                    -0.96642   5.57679  -0.20151 
 H                     0.53984   5.33672   0.71136 
 B                    -2.78993   0.35096   0.49796 
 O                    -3.55517   0.9927   -0.45074 
 O                    -3.50966  -0.52309   1.28172 
 C                    -4.95371   0.69943  -0.13935 
 C                    -4.84149  -0.63512   0.6856 
 C                    -5.4712    1.87807   0.68776 
 C                    -5.72889   0.58295  -1.44413 
 C                    -4.82306  -1.88733  -0.19293 
 C                    -5.86198  -0.78358   1.80531 
 H                    -4.92275   1.97137   1.63666 
 H                    -5.32413   2.80574   0.11536 
 H                    -6.54318   1.7734    0.90995 
 H                    -5.27218  -0.14816  -2.12344 
 H                    -6.769     0.28013  -1.24821 
 H                    -5.74842   1.55895  -1.95175 
 H                    -4.53139  -2.75053   0.42324 
 H                    -5.81402  -2.08898  -0.62523 
 H                    -4.09635  -1.78916  -1.01278 
 H                    -5.70447  -1.73987   2.32621 
 H                    -5.77665   0.02628   2.54113 
 H                    -6.88431  -0.78227   1.397 
 C                     0.84473   5.90514  -1.37243 
 H                     0.35932   5.76007  -2.35009 
 H                     0.8921    6.98536  -1.16546 
 H                     1.87382   5.51799  -1.43245 
 
 ITRead=  0  0  0  0  0  0  0  0  0  0  0  0  0  0  0  0  0  0  0  0
 ITRead=  0  0  0  0  0  0  0  0  0  0  0  0  0  0  0  0  0  0
 MicOpt= -1 -1 -1 -1 -1 -1 -1 -1 -1 -1 -1 -1 -1 -1 -1 -1 -1 -1 -1 -1
 MicOpt= -1 -1 -1 -1 -1 -1 -1 -1 -1 -1 -1 -1 -1 -1 -1 -1 -1 -1
 NAtoms=     38 NQM=       38 NQMF=       0 NMMI=      0 NMMIF=      0
                NMic=       0 NMicF=      0.
                    Isotopes and Nuclear Properties:
 (Nuclear quadrupole moments (NQMom) in fm**2, nuclear magnetic moments (NMagM)
  in nuclear magnetons)

  Atom         1           2           3           4           5           6           7           8           9          10
 IAtWgt=          12          12           1          12           1           1           1          12          16          16
 AtmWgt=  12.0000000  12.0000000   1.0078250  12.0000000   1.0078250   1.0078250   1.0078250  12.0000000  15.9949146  15.9949146
 NucSpn=           0           0           1           0           1           1           1           0           0           0
 AtZEff=  -0.0000000  -0.0000000  -0.0000000  -0.0000000  -0.0000000  -0.0000000  -0.0000000  -0.0000000  -0.0000000  -0.0000000
 NQMom=    0.0000000   0.0000000   0.0000000   0.0000000   0.0000000   0.0000000   0.0000000   0.0000000   0.0000000   0.0000000
 NMagM=    0.0000000   0.0000000   2.7928460   0.0000000   2.7928460   2.7928460   2.7928460   0.0000000   0.0000000   0.0000000
 AtZNuc=   6.0000000   6.0000000   1.0000000   6.0000000   1.0000000   1.0000000   1.0000000   6.0000000   8.0000000   8.0000000

  Atom        11          12          13          14          15          16          17          18          19          20
 IAtWgt=          12           1           1          11          16          16          12          12          12          12
 AtmWgt=  12.0000000   1.0078250   1.0078250  11.0093053  15.9949146  15.9949146  12.0000000  12.0000000  12.0000000  12.0000000
 NucSpn=           0           1           1           3           0           0           0           0           0           0
 AtZEff=  -0.0000000  -0.0000000  -0.0000000  -0.0000000  -0.0000000  -0.0000000  -0.0000000  -0.0000000  -0.0000000  -0.0000000
 NQMom=    0.0000000   0.0000000   0.0000000   4.0590000   0.0000000   0.0000000   0.0000000   0.0000000   0.0000000   0.0000000
 NMagM=    0.0000000   2.7928460   2.7928460   2.6886370   0.0000000   0.0000000   0.0000000   0.0000000   0.0000000   0.0000000
 AtZNuc=   6.0000000   1.0000000   1.0000000   5.0000000   8.0000000   8.0000000   6.0000000   6.0000000   6.0000000   6.0000000

  Atom        21          22          23          24          25          26          27          28          29          30
 IAtWgt=          12          12           1           1           1           1           1           1           1           1
 AtmWgt=  12.0000000  12.0000000   1.0078250   1.0078250   1.0078250   1.0078250   1.0078250   1.0078250   1.0078250   1.0078250
 NucSpn=           0           0           1           1           1           1           1           1           1           1
 AtZEff=  -0.0000000  -0.0000000  -0.0000000  -0.0000000  -0.0000000  -0.0000000  -0.0000000  -0.0000000  -0.0000000  -0.0000000
 NQMom=    0.0000000   0.0000000   0.0000000   0.0000000   0.0000000   0.0000000   0.0000000   0.0000000   0.0000000   0.0000000
 NMagM=    0.0000000   0.0000000   2.7928460   2.7928460   2.7928460   2.7928460   2.7928460   2.7928460   2.7928460   2.7928460
 AtZNuc=   6.0000000   6.0000000   1.0000000   1.0000000   1.0000000   1.0000000   1.0000000   1.0000000   1.0000000   1.0000000

  Atom        31          32          33          34          35          36          37          38
 IAtWgt=           1           1           1           1          12           1           1           1
 AtmWgt=   1.0078250   1.0078250   1.0078250   1.0078250  12.0000000   1.0078250   1.0078250   1.0078250
 NucSpn=           1           1           1           1           0           1           1           1
 AtZEff=  -0.0000000  -0.0000000  -0.0000000  -0.0000000  -0.0000000  -0.0000000  -0.0000000  -0.0000000
 NQMom=    0.0000000   0.0000000   0.0000000   0.0000000   0.0000000   0.0000000   0.0000000   0.0000000
 NMagM=    2.7928460   2.7928460   2.7928460   2.7928460   0.0000000   2.7928460   2.7928460   2.7928460
 AtZNuc=   1.0000000   1.0000000   1.0000000   1.0000000   6.0000000   1.0000000   1.0000000   1.0000000
 Leave Link  101 at Tue Aug 18 12:15:14 2026, MaxMem=  2684354560 cpu:               0.3 elap:               0.3
 (Enter /mnt/data/applications/G16/g16/l103.exe)

 GradGradGradGradGradGradGradGradGradGradGradGradGradGradGradGradGradGrad
 Berny optimization.
 Initialization pass.
                           ----------------------------
                           !    Initial Parameters    !
                           ! (Angstroms and Degrees)  !
 --------------------------                            --------------------------
 ! Name  Definition              Value          Derivative Info.                !
 --------------------------------------------------------------------------------
 ! R1    R(1,2)                  1.4583         estimate D2E/DX2                !
 ! R2    R(1,4)                  1.5012         estimate D2E/DX2                !
 ! R3    R(1,14)                 1.5374         estimate D2E/DX2                !
 ! R4    R(2,3)                  1.0956         estimate D2E/DX2                !
 ! R5    R(2,8)                  1.4527         estimate D2E/DX2                !
 ! R6    R(4,5)                  1.1071         estimate D2E/DX2                !
 ! R7    R(4,6)                  1.0987         estimate D2E/DX2                !
 ! R8    R(4,7)                  1.1055         estimate D2E/DX2                !
 ! R9    R(8,9)                  1.2278         estimate D2E/DX2                !
 ! R10   R(8,10)                 1.3551         estimate D2E/DX2                !
 ! R11   R(10,11)                1.4454         estimate D2E/DX2                !
 ! R12   R(11,12)                1.1017         estimate D2E/DX2                !
 ! R13   R(11,13)                1.1018         estimate D2E/DX2                !
 ! R14   R(11,35)                1.5135         estimate D2E/DX2                !
 ! R15   R(14,15)                1.3775         estimate D2E/DX2                !
 ! R16   R(14,16)                1.377          estimate D2E/DX2                !
 ! R17   R(15,17)                1.4625         estimate D2E/DX2                !
 ! R18   R(16,18)                1.4634         estimate D2E/DX2                !
 ! R19   R(17,18)                1.5729         estimate D2E/DX2                !
 ! R20   R(17,19)                1.5301         estimate D2E/DX2                !
 ! R21   R(17,20)                1.5221         estimate D2E/DX2                !
 ! R22   R(18,21)                1.5298         estimate D2E/DX2                !
 ! R23   R(18,22)                1.5222         estimate D2E/DX2                !
 ! R24   R(19,23)                1.1            estimate D2E/DX2                !
 ! R25   R(19,24)                1.0999         estimate D2E/DX2                !
 ! R26   R(19,25)                1.0998         estimate D2E/DX2                !
 ! R27   R(20,26)                1.0975         estimate D2E/DX2                !
 ! R28   R(20,27)                1.1009         estimate D2E/DX2                !
 ! R29   R(20,28)                1.1003         estimate D2E/DX2                !
 ! R30   R(21,29)                1.0999         estimate D2E/DX2                !
 ! R31   R(21,30)                1.0998         estimate D2E/DX2                !
 ! R32   R(21,31)                1.1            estimate D2E/DX2                !
 ! R33   R(22,32)                1.1003         estimate D2E/DX2                !
 ! R34   R(22,33)                1.0975         estimate D2E/DX2                !
 ! R35   R(22,34)                1.1009         estimate D2E/DX2                !
 ! R36   R(35,36)                1.1011         estimate D2E/DX2                !
 ! R37   R(35,37)                1.1009         estimate D2E/DX2                !
 ! R38   R(35,38)                1.1011         estimate D2E/DX2                !
 ! A1    A(2,1,4)              118.3279         estimate D2E/DX2                !
 ! A2    A(2,1,14)             119.6365         estimate D2E/DX2                !
 ! A3    A(4,1,14)             121.8231         estimate D2E/DX2                !
 ! A4    A(1,2,3)              121.656          estimate D2E/DX2                !
 ! A5    A(1,2,8)              120.4807         estimate D2E/DX2                !
 ! A6    A(3,2,8)              117.8499         estimate D2E/DX2                !
 ! A7    A(1,4,5)              110.1305         estimate D2E/DX2                !
 ! A8    A(1,4,6)              111.5089         estimate D2E/DX2                !
 ! A9    A(1,4,7)              111.328          estimate D2E/DX2                !
 ! A10   A(5,4,6)              108.6195         estimate D2E/DX2                !
 ! A11   A(5,4,7)              106.0407         estimate D2E/DX2                !
 ! A12   A(6,4,7)              109.0298         estimate D2E/DX2                !
 ! A13   A(2,8,9)              124.5799         estimate D2E/DX2                !
 ! A14   A(2,8,10)             112.0714         estimate D2E/DX2                !
 ! A15   A(9,8,10)             123.3483         estimate D2E/DX2                !
 ! A16   A(8,10,11)            115.9065         estimate D2E/DX2                !
 ! A17   A(10,11,12)           108.8057         estimate D2E/DX2                !
 ! A18   A(10,11,13)           108.8256         estimate D2E/DX2                !
 ! A19   A(10,11,35)           107.402          estimate D2E/DX2                !
 ! A20   A(12,11,13)           107.5483         estimate D2E/DX2                !
 ! A21   A(12,11,35)           112.1015         estimate D2E/DX2                !
 ! A22   A(13,11,35)           112.0803         estimate D2E/DX2                !
 ! A23   A(1,14,15)            123.3374         estimate D2E/DX2                !
 ! A24   A(1,14,16)            123.2464         estimate D2E/DX2                !
 ! A25   A(15,14,16)           113.4121         estimate D2E/DX2                !
 ! A26   A(14,15,17)           106.9287         estimate D2E/DX2                !
 ! A27   A(14,16,18)           107.0019         estimate D2E/DX2                !
 ! A28   A(15,17,18)           102.3321         estimate D2E/DX2                !
 ! A29   A(15,17,19)           106.5022         estimate D2E/DX2                !
 ! A30   A(15,17,20)           108.6527         estimate D2E/DX2                !
 ! A31   A(18,17,19)           113.2155         estimate D2E/DX2                !
 ! A32   A(18,17,20)           114.8962         estimate D2E/DX2                !
 ! A33   A(19,17,20)           110.4924         estimate D2E/DX2                !
 ! A34   A(16,18,17)           102.3341         estimate D2E/DX2                !
 ! A35   A(16,18,21)           106.5965         estimate D2E/DX2                !
 ! A36   A(16,18,22)           108.5382         estimate D2E/DX2                !
 ! A37   A(17,18,21)           113.2141         estimate D2E/DX2                !
 ! A38   A(17,18,22)           114.8786         estimate D2E/DX2                !
 ! A39   A(21,18,22)           110.5286         estimate D2E/DX2                !
 ! A40   A(17,19,23)           111.2868         estimate D2E/DX2                !
 ! A41   A(17,19,24)           108.8533         estimate D2E/DX2                !
 ! A42   A(17,19,25)           111.4427         estimate D2E/DX2                !
 ! A43   A(23,19,24)           108.1029         estimate D2E/DX2                !
 ! A44   A(23,19,25)           108.6507         estimate D2E/DX2                !
 ! A45   A(24,19,25)           108.4055         estimate D2E/DX2                !
 ! A46   A(17,20,26)           111.6919         estimate D2E/DX2                !
 ! A47   A(17,20,27)           110.4663         estimate D2E/DX2                !
 ! A48   A(17,20,28)           109.6717         estimate D2E/DX2                !
 ! A49   A(26,20,27)           108.6674         estimate D2E/DX2                !
 ! A50   A(26,20,28)           108.2238         estimate D2E/DX2                !
 ! A51   A(27,20,28)           108.0193         estimate D2E/DX2                !
 ! A52   A(18,21,29)           108.8972         estimate D2E/DX2                !
 ! A53   A(18,21,30)           111.4056         estimate D2E/DX2                !
 ! A54   A(18,21,31)           111.2815         estimate D2E/DX2                !
 ! A55   A(29,21,30)           108.375          estimate D2E/DX2                !
 ! A56   A(29,21,31)           108.2031         estimate D2E/DX2                !
 ! A57   A(30,21,31)           108.5832         estimate D2E/DX2                !
 ! A58   A(18,22,32)           109.696          estimate D2E/DX2                !
 ! A59   A(18,22,33)           111.6578         estimate D2E/DX2                !
 ! A60   A(18,22,34)           110.4647         estimate D2E/DX2                !
 ! A61   A(32,22,33)           108.2277         estimate D2E/DX2                !
 ! A62   A(32,22,34)           108.0333         estimate D2E/DX2                !
 ! A63   A(33,22,34)           108.6622         estimate D2E/DX2                !
 ! A64   A(11,35,36)           110.8747         estimate D2E/DX2                !
 ! A65   A(11,35,37)           109.7735         estimate D2E/DX2                !
 ! A66   A(11,35,38)           110.8852         estimate D2E/DX2                !
 ! A67   A(36,35,37)           108.3707         estimate D2E/DX2                !
 ! A68   A(36,35,38)           108.4978         estimate D2E/DX2                !
 ! A69   A(37,35,38)           108.3622         estimate D2E/DX2                !
 ! D1    D(4,1,2,3)             91.0135         estimate D2E/DX2                !
 ! D2    D(4,1,2,8)            -90.3467         estimate D2E/DX2                !
 ! D3    D(14,1,2,3)           -94.1861         estimate D2E/DX2                !
 ! D4    D(14,1,2,8)            84.4537         estimate D2E/DX2                !
 ! D5    D(2,1,4,5)             61.2264         estimate D2E/DX2                !
 ! D6    D(2,1,4,6)           -178.1121         estimate D2E/DX2                !
 ! D7    D(2,1,4,7)            -56.0997         estimate D2E/DX2                !
 ! D8    D(14,1,4,5)          -113.4543         estimate D2E/DX2                !
 ! D9    D(14,1,4,6)             7.2071         estimate D2E/DX2                !
 ! D10   D(14,1,4,7)           129.2196         estimate D2E/DX2                !
 ! D11   D(2,1,14,15)            3.6317         estimate D2E/DX2                !
 ! D12   D(2,1,14,16)         -175.592          estimate D2E/DX2                !
 ! D13   D(4,1,14,15)          178.2445         estimate D2E/DX2                !
 ! D14   D(4,1,14,16)           -0.9792         estimate D2E/DX2                !
 ! D15   D(1,2,8,9)             -0.3658         estimate D2E/DX2                !
 ! D16   D(1,2,8,10)           179.8771         estimate D2E/DX2                !
 ! D17   D(3,2,8,9)            178.3247         estimate D2E/DX2                !
 ! D18   D(3,2,8,10)            -1.4324         estimate D2E/DX2                !
 ! D19   D(2,8,10,11)          179.526          estimate D2E/DX2                !
 ! D20   D(9,8,10,11)           -0.2346         estimate D2E/DX2                !
 ! D21   D(8,10,11,12)         -57.8998         estimate D2E/DX2                !
 ! D22   D(8,10,11,13)          59.0116         estimate D2E/DX2                !
 ! D23   D(8,10,11,35)        -179.4511         estimate D2E/DX2                !
 ! D24   D(10,11,35,36)         60.3112         estimate D2E/DX2                !
 ! D25   D(10,11,35,37)       -179.9837         estimate D2E/DX2                !
 ! D26   D(10,11,35,38)        -60.2826         estimate D2E/DX2                !
 ! D27   D(12,11,35,36)        -59.1536         estimate D2E/DX2                !
 ! D28   D(12,11,35,37)         60.5514         estimate D2E/DX2                !
 ! D29   D(12,11,35,38)       -179.7474         estimate D2E/DX2                !
 ! D30   D(13,11,35,36)        179.788          estimate D2E/DX2                !
 ! D31   D(13,11,35,37)        -60.5069         estimate D2E/DX2                !
 ! D32   D(13,11,35,38)         59.1942         estimate D2E/DX2                !
 ! D33   D(1,14,15,17)        -169.07           estimate D2E/DX2                !
 ! D34   D(16,14,15,17)         10.2226         estimate D2E/DX2                !
 ! D35   D(1,14,16,18)        -171.6553         estimate D2E/DX2                !
 ! D36   D(15,14,16,18)          9.0514         estimate D2E/DX2                !
 ! D37   D(14,15,17,18)        -23.3112         estimate D2E/DX2                !
 ! D38   D(14,15,17,19)         95.7409         estimate D2E/DX2                !
 ! D39   D(14,15,17,20)       -145.2225         estimate D2E/DX2                !
 ! D40   D(14,16,18,17)        -22.6446         estimate D2E/DX2                !
 ! D41   D(14,16,18,21)         96.4459         estimate D2E/DX2                !
 ! D42   D(14,16,18,22)       -144.4832         estimate D2E/DX2                !
 ! D43   D(15,17,18,16)         27.763          estimate D2E/DX2                !
 ! D44   D(15,17,18,21)        -86.5622         estimate D2E/DX2                !
 ! D45   D(15,17,18,22)        145.159          estimate D2E/DX2                !
 ! D46   D(19,17,18,16)        -86.4512         estimate D2E/DX2                !
 ! D47   D(19,17,18,21)        159.2235         estimate D2E/DX2                !
 ! D48   D(19,17,18,22)         30.9447         estimate D2E/DX2                !
 ! D49   D(20,17,18,16)        145.3044         estimate D2E/DX2                !
 ! D50   D(20,17,18,21)         30.9792         estimate D2E/DX2                !
 ! D51   D(20,17,18,22)        -97.2996         estimate D2E/DX2                !
 ! D52   D(15,17,19,23)        -62.4468         estimate D2E/DX2                !
 ! D53   D(15,17,19,24)         56.5933         estimate D2E/DX2                !
 ! D54   D(15,17,19,25)        176.1026         estimate D2E/DX2                !
 ! D55   D(18,17,19,23)         49.2348         estimate D2E/DX2                !
 ! D56   D(18,17,19,24)        168.275          estimate D2E/DX2                !
 ! D57   D(18,17,19,25)        -72.2157         estimate D2E/DX2                !
 ! D58   D(20,17,19,23)        179.7246         estimate D2E/DX2                !
 ! D59   D(20,17,19,24)        -61.2352         estimate D2E/DX2                !
 ! D60   D(20,17,19,25)         58.2741         estimate D2E/DX2                !
 ! D61   D(15,17,20,26)         54.251          estimate D2E/DX2                !
 ! D62   D(15,17,20,27)        175.3243         estimate D2E/DX2                !
 ! D63   D(15,17,20,28)        -65.7244         estimate D2E/DX2                !
 ! D64   D(18,17,20,26)        -59.6511         estimate D2E/DX2                !
 ! D65   D(18,17,20,27)         61.4222         estimate D2E/DX2                !
 ! D66   D(18,17,20,28)       -179.6266         estimate D2E/DX2                !
 ! D67   D(19,17,20,26)        170.7518         estimate D2E/DX2                !
 ! D68   D(19,17,20,27)        -68.1749         estimate D2E/DX2                !
 ! D69   D(19,17,20,28)         50.7764         estimate D2E/DX2                !
 ! D70   D(16,18,21,29)         56.3858         estimate D2E/DX2                !
 ! D71   D(16,18,21,30)        175.8627         estimate D2E/DX2                !
 ! D72   D(16,18,21,31)        -62.8027         estimate D2E/DX2                !
 ! D73   D(17,18,21,29)        168.1237         estimate D2E/DX2                !
 ! D74   D(17,18,21,30)        -72.3993         estimate D2E/DX2                !
 ! D75   D(17,18,21,31)         48.9352         estimate D2E/DX2                !
 ! D76   D(22,18,21,29)        -61.38           estimate D2E/DX2                !
 ! D77   D(22,18,21,30)         58.097          estimate D2E/DX2                !
 ! D78   D(22,18,21,31)        179.4315         estimate D2E/DX2                !
 ! D79   D(16,18,22,32)        -65.9528         estimate D2E/DX2                !
 ! D80   D(16,18,22,33)         54.0219         estimate D2E/DX2                !
 ! D81   D(16,18,22,34)        175.0645         estimate D2E/DX2                !
 ! D82   D(17,18,22,32)       -179.7721         estimate D2E/DX2                !
 ! D83   D(17,18,22,33)        -59.7975         estimate D2E/DX2                !
 ! D84   D(17,18,22,34)         61.2451         estimate D2E/DX2                !
 ! D85   D(21,18,22,32)         50.6151         estimate D2E/DX2                !
 ! D86   D(21,18,22,33)        170.5898         estimate D2E/DX2                !
 ! D87   D(21,18,22,34)        -68.3676         estimate D2E/DX2                !
 --------------------------------------------------------------------------------
 Trust Radius=3.00D-01 FncErr=1.00D-07 GrdErr=1.00D-06 EigMax=2.50D+02 EigMin=1.00D-04
 Number of steps in this run=    204 maximum allowed number of steps=    228.
 GradGradGradGradGradGradGradGradGradGradGradGradGradGradGradGradGradGrad

 Leave Link  103 at Tue Aug 18 12:15:14 2026, MaxMem=  2684354560 cpu:               0.0 elap:               0.0
 (Enter /mnt/data/applications/G16/g16/l202.exe)
                          Input orientation:                          
 ---------------------------------------------------------------------
 Center     Atomic      Atomic             Coordinates (Angstroms)
 Number     Number       Type             X           Y           Z
 ---------------------------------------------------------------------
      1          6           0       -1.283080    0.598280    0.676600
      2          6           0       -0.617730    1.612220   -0.133270
      3          1           0       -0.114230    1.358480   -1.072700
      4          6           0       -0.489150   -0.091720    1.747720
      5          1           0       -0.134950    0.645330    2.493990
      6          1           0       -1.087690   -0.854400    2.264660
      7          1           0        0.418800   -0.566440    1.332470
      8          6           0       -0.630460    3.006350    0.274830
      9          8           0       -1.182420    3.431490    1.285860
     10          8           0        0.038670    3.798440   -0.597630
     11          6           0        0.068820    5.207330   -0.276250
     12          1           0       -0.966420    5.576790   -0.201510
     13          1           0        0.539840    5.336720    0.711360
     14          5           0       -2.789930    0.350960    0.497960
     15          8           0       -3.555170    0.992700   -0.450740
     16          8           0       -3.509660   -0.523090    1.281720
     17          6           0       -4.953710    0.699430   -0.139350
     18          6           0       -4.841490   -0.635120    0.685600
     19          6           0       -5.471200    1.878070    0.687760
     20          6           0       -5.728890    0.582950   -1.444130
     21          6           0       -4.823060   -1.887330   -0.192930
     22          6           0       -5.861980   -0.783580    1.805310
     23          1           0       -4.922750    1.971370    1.636660
     24          1           0       -5.324130    2.805740    0.115360
     25          1           0       -6.543180    1.773400    0.909950
     26          1           0       -5.272180   -0.148160   -2.123440
     27          1           0       -6.769000    0.280130   -1.248210
     28          1           0       -5.748420    1.558950   -1.951750
     29          1           0       -4.531390   -2.750530    0.423240
     30          1           0       -5.814020   -2.088980   -0.625230
     31          1           0       -4.096350   -1.789160   -1.012780
     32          1           0       -5.704470   -1.739870    2.326210
     33          1           0       -5.776650    0.026280    2.541130
     34          1           0       -6.884310   -0.782270    1.397000
     35          6           0        0.844730    5.905140   -1.372430
     36          1           0        0.359320    5.760070   -2.350090
     37          1           0        0.892100    6.985360   -1.165460
     38          1           0        1.873820    5.517990   -1.432450
 ---------------------------------------------------------------------
                    Distance matrix (angstroms):
                    1          2          3          4          5
     1  C    0.000000
     2  C    1.458305   0.000000
     3  H    2.236999   1.095639   0.000000
     4  C    1.501240   2.541273   3.193496   0.000000
     5  H    2.150191   2.840853   3.637347   1.107077   0.000000
     6  H    2.161109   3.472052   4.120975   1.098707   1.791507
     7  H    2.164055   2.823003   3.126385   1.105516   1.767528
     8  C    2.527080   1.452689   2.190389   3.433280   3.277898
     9  O    2.899726   2.375405   3.316807   3.620352   3.212391
    10  O    3.689405   2.329388   2.490477   4.573030   4.419317
    11  C    4.896825   3.662869   3.934652   5.699800   5.341123
    12  H    5.065265   3.980459   4.390824   6.013260   5.681229
    13  H    5.077111   3.990648   4.408749   5.621461   5.063818
    14  B    1.537425   2.589919   3.262122   2.655457   3.334623
    15  O    2.566877   3.018799   3.515778   3.925515   4.526589
    16  O    2.565404   3.863289   4.540104   3.086538   3.771402
    17  C    3.761586   4.431021   4.972530   4.911135   5.491617
    18  C    3.766117   4.853992   5.423380   4.512898   5.202052
    19  C    4.379308   4.929598   5.662713   5.461173   5.766947
    20  C    4.925744   5.376031   5.680124   6.172355   6.841407
    21  C    4.412006   5.471308   5.786394   5.076723   5.967603
    22  C    4.914250   6.082771   6.775544   5.417498   5.942637
    23  H    4.006780   4.668494   5.553209   4.891368   5.041471
    24  H    4.638745   4.861739   5.536163   5.868297   6.103511
    25  H    5.394813   6.018741   6.740509   6.389977   6.696800
    26  H    4.930549   5.359442   5.475260   6.153571   6.952799
    27  H    5.822494   6.391845   6.743857   6.967811   7.625487
    28  H    5.269760   5.443683   5.705875   6.638577   7.218750
    29  H    4.672284   5.887277   6.215553   5.016296   5.928622
    30  H    5.426375   6.398620   6.676288   6.162319   7.032625
    31  H    4.058123   4.944059   5.076269   4.849078   5.823819
    32  H    5.266578   6.569663   7.239002   5.500056   6.061096
    33  H    4.898554   6.023461   6.848177   5.347998   5.675758
    34  H    5.813663   6.880795   7.517727   6.441889   6.985362
    35  C    6.073620   4.701433   4.656346   6.890348   6.601104
    36  H    6.205031   4.803496   4.607599   7.194122   7.061868
    37  H    6.994239   5.675882   5.716912   7.776859   7.392049
    38  H    6.214311   4.811520   4.624207   6.867747   6.572283
                    6          7          8          9         10
     6  H    0.000000
     7  H    1.794829   0.000000
     8  C    4.367365   3.870966   0.000000
     9  O    4.397258   4.306916   1.227838   0.000000
    10  O    5.577662   4.787689   1.355112   2.274477   0.000000
    11  C    6.673703   6.003906   2.374236   2.675705   1.445394
    12  H    6.888897   6.481605   2.635703   2.619396   2.080780
    13  H    6.587227   5.936980   2.644009   2.631754   2.081089
    14  B    2.733449   3.440055   3.429897   3.562940   4.591995
    15  O    4.107753   4.626359   3.624247   3.820133   4.561736
    16  O    2.634744   3.929027   4.664822   4.588547   5.899002
    17  C    4.810381   5.712490   4.917714   4.870113   5.893873
    18  C    4.078300   5.300359   5.582276   5.503310   6.717075
    19  C    5.400756   6.409632   4.987614   4.600486   5.974840
    20  C    6.112433   6.842857   5.900990   6.019752   6.657378
    21  C    4.589083   5.616822   6.461021   6.612936   7.491874
    22  C    4.796860   6.302295   6.638881   6.319409   7.847719
    23  H    4.804898   5.921585   4.620554   4.030519   5.739854
    24  H    5.996961   6.770096   4.700661   4.349183   5.500312
    25  H    6.205074   7.356802   6.073204   5.623906   7.049421
    26  H    6.104437   6.671246   6.103130   6.415868   6.790352
    27  H    6.775301   7.683818   6.887206   6.896554   7.690652
    28  H    6.732368   7.303286   5.765947   5.902278   6.351328
    29  H    4.341107   5.486468   6.955641   7.083579   8.050878
    30  H    5.675724   6.708112   7.324056   7.455171   8.301594
    31  H    4.546144   5.232764   6.055349   6.405460   6.963621
    32  H    4.701330   6.313390   7.244332   6.947966   8.497375
    33  H    4.778952   6.340014   6.363977   5.854751   7.609136
    34  H    5.861641   7.306583   7.397537   7.090816   8.537512
    35  C    7.915431   7.027037   3.645907   4.158700   2.385002
    36  H    8.193959   7.320486   3.931010   4.584690   2.649891
    37  H    8.783344   7.968271   4.497237   4.789843   3.347721
    38  H    7.940184   6.839748   3.936313   4.591655   2.649821
                   11         12         13         14         15
    11  C    0.000000
    12  H    1.101730   0.000000
    13  H    1.101805   1.777578   0.000000
    14  B    5.688249   5.578866   5.999226   0.000000
    15  O    5.561192   5.270448   6.081948   1.377481   0.000000
    16  O    6.933289   6.773225   7.145707   1.377046   2.302414
    17  C    6.750238   6.300078   7.239286   2.282442   1.462493
    18  C    7.692238   7.375023   8.038796   2.283957   2.365520
    19  C    6.534915   5.896132   6.935086   3.091488   2.398173
    20  C    7.507481   7.011680   8.157294   3.530300   2.424825
    21  C    8.618099   8.401597   9.042419   3.101756   3.157306
    22  C    8.683218   8.273339   8.924018   3.526165   3.683246
    23  H    6.248714   5.659547   6.482411   2.910548   2.680543
    24  H    5.916494   5.173854   6.414610   3.548873   2.595535
    25  H    7.544368   6.841153   7.931321   4.034843   3.374785
    26  H    7.785863   7.416767   8.479362   3.644506   2.654734
    27  H    8.483972   7.925915   9.100998   4.345932   3.387096
    28  H    7.068116   6.486440   7.804224   4.026535   2.717355
    29  H    9.218392   9.079845   9.550079   3.557739   3.965932
    30  H    9.379005   9.079801   9.864027   4.044748   3.824866
    31  H    8.175695   8.044367   8.674392   2.927317   2.889206
    32  H    9.400386   9.075902   9.574825   4.025992   4.449481
    33  H    8.303639   7.840188   8.452625   3.633243   3.849705
    34  H    9.328510   8.832570   9.645214   4.342399   4.200933
    35  C    1.513468   2.181543   2.181339   6.896233   6.658881
    36  H    2.165808   2.531319   3.095850   6.876601   6.454346
    37  H    2.151714   2.523364   2.522807   7.767855   7.496733
    38  H    2.165949   3.096068   2.531459   7.223243   7.135540
                   16         17         18         19         20
    16  O    0.000000
    17  C    2.366279   0.000000
    18  C    1.463448   1.572946   0.000000
    19  C    3.156897   1.530065   2.590881   0.000000
    20  C    3.684910   1.522144   2.609008   2.507727   0.000000
    21  C    2.400159   2.590611   1.529766   3.920961   2.913471
    22  C    2.423925   2.608826   1.522232   2.913075   3.527602
    23  H    2.888795   2.184720   2.775772   1.099961   3.474023
    24  H    3.966586   2.153748   3.521027   1.099929   2.745293
    25  H    3.822868   2.186517   2.957541   1.099757   2.760785
    26  H    3.852553   2.180928   2.883285   3.471032   1.097528
    27  H    4.203452   2.168101   2.879687   2.825894   1.100869
    28  H    4.449974   2.157576   3.548532   2.673145   1.100289
    29  H    2.596615   3.520950   2.154055   4.730449   4.004144
    30  H    3.376173   2.958284   2.185818   4.192726   2.795900
    31  H    2.685492   2.773270   2.184385   4.269734   2.911727
    32  H    2.718217   3.548635   2.157964   3.978495   4.428493
    33  H    2.650880   2.883632   2.180588   2.637690   4.024234
    34  H    3.386551   2.878024   2.168146   3.094723   3.357207
    35  C    8.205325   7.889348   8.907502   7.768697   8.458329
    36  H    8.224181   7.663272   8.784207   7.635013   8.042987
    37  H    9.041073   8.645190   9.714535   8.367223   9.214446
    38  H    8.534824   8.456110   9.351058   8.467209   9.063992
                   21         22         23         24         25
    21  C    0.000000
    22  C    2.508103   0.000000
    23  H    4.271639   2.915535   0.000000
    24  H    4.729801   4.003552   1.780908   0.000000
    25  H    4.192386   2.793537   1.786923   1.784147   0.000000
    26  H    2.636909   4.023270   4.330457   3.706811   3.809106
    27  H    3.098093   3.358295   3.819870   3.213359   2.634104
    28  H    3.978264   4.428978   3.705200   2.451010   2.977744
    29  H    1.099932   2.747632   4.891001   5.620975   4.974950
    30  H    1.099794   2.759329   4.732542   4.974611   4.219767
    31  H    1.099954   3.474230   4.673762   4.888072   4.730296
    32  H    2.672956   1.100289   3.854850   5.069032   3.879728
    33  H    3.470781   1.097536   2.308806   3.716791   2.510128
    34  H    2.828036   1.100853   3.389349   4.117108   2.623935
    35  C    9.707608   9.990844   7.602170   7.062197   8.767083
    36  H    9.486471   9.939380   7.625529   6.863535   8.611963
    37  H   10.598750  10.714453   8.173399   7.599424   9.314249
    38  H   10.060983  10.489780   8.257803   7.846177   9.505508
                   26         27         28         29         30
    26  H    0.000000
    27  H    1.786038   0.000000
    28  H    1.780592   1.780992   0.000000
    29  H    3.715734   4.121352   5.068862   0.000000
    30  H    2.510977   2.629215   3.882184   1.783838   0.000000
    31  H    2.304132   3.388281   3.849784   1.782034   1.786191
    32  H    4.745503   4.241474   5.402322   2.453333   2.974034
    33  H    4.695011   3.925340   4.747193   3.707668   3.808091
    34  H    3.923590   2.852915   4.240953   3.218461   2.634848
    35  C    8.638463   9.467051   7.917993  10.346387  10.430878
    36  H    8.165313   9.058522   7.423784  10.200035  10.133748
    37  H    9.476454  10.181327   8.611660  11.257254  11.296351
    38  H    9.145930  10.107792   8.604778  10.622557  10.845298
                   31         32         33         34         35
    31  H    0.000000
    32  H    3.706391   0.000000
    33  H    4.330070   1.780642   0.000000
    34  H    3.820156   1.781138   1.785972   0.000000
    35  C    9.151277  10.724651   9.680889  10.589110   0.000000
    36  H    8.867484  10.718509   9.718565  10.455289   1.101130
    37  H   10.094560  11.481992  10.326656  11.286046   1.100889
    38  H    9.445290  11.146055  10.221444  11.153650   1.101142
                   36         37         38
    36  H    0.000000
    37  H    1.785648   0.000000
    38  H    1.787282   1.785562   0.000000
 Symmetry turned off by external request.
 Stoichiometry    C12H21BO4(3)
 Framework group  C1[X(C12H21BO4)]
 Deg. of freedom   108
 Full point group                 C1      NOp   1
 Rotational constants (GHZ):           0.8703360           0.2234991           0.2008030
 Leave Link  202 at Tue Aug 18 12:15:14 2026, MaxMem=  2684354560 cpu:               0.0 elap:               0.0
 (Enter /mnt/data/applications/G16/g16/l301.exe)
 General basis read from cards:  (5D, 7F)
 Centers:       1      2      4      8     11     17     18     19     20     21
 Centers:      22     35     14      9     10     15     16      3      5      6
 Centers:       7     12     13     23     24     25     26     27     28     29
 Centers:      30     31     32     33     34     36     37     38
 cc-pVDZ
 ****
 ======================================================================================================
                                       Pseudopotential Parameters
 ======================================================================================================
  Center     Atomic      Valence      Angular      Power
  Number     Number     Electrons     Momentum     of R      Exponent        Coefficient   SO-Coeffient
 ======================================================================================================
    1          6
                                   No pseudopotential on this center.
    2          6
                                   No pseudopotential on this center.
    3          1
                                   No pseudopotential on this center.
    4          6
                                   No pseudopotential on this center.
    5          1
                                   No pseudopotential on this center.
    6          1
                                   No pseudopotential on this center.
    7          1
                                   No pseudopotential on this center.
    8          6
                                   No pseudopotential on this center.
    9          8
                                   No pseudopotential on this center.
   10          8
                                   No pseudopotential on this center.
   11          6
                                   No pseudopotential on this center.
   12          1
                                   No pseudopotential on this center.
   13          1
                                   No pseudopotential on this center.
   14          5
                                   No pseudopotential on this center.
   15          8
                                   No pseudopotential on this center.
   16          8
                                   No pseudopotential on this center.
   17          6
                                   No pseudopotential on this center.
   18          6
                                   No pseudopotential on this center.
   19          6
                                   No pseudopotential on this center.
   20          6
                                   No pseudopotential on this center.
   21          6
                                   No pseudopotential on this center.
   22          6
                                   No pseudopotential on this center.
   23          1
                                   No pseudopotential on this center.
   24          1
                                   No pseudopotential on this center.
   25          1
                                   No pseudopotential on this center.
   26          1
                                   No pseudopotential on this center.
   27          1
                                   No pseudopotential on this center.
   28          1
                                   No pseudopotential on this center.
   29          1
                                   No pseudopotential on this center.
   30          1
                                   No pseudopotential on this center.
   31          1
                                   No pseudopotential on this center.
   32          1
                                   No pseudopotential on this center.
   33          1
                                   No pseudopotential on this center.
   34          1
                                   No pseudopotential on this center.
   35          6
                                   No pseudopotential on this center.
   36          1
                                   No pseudopotential on this center.
   37          1
                                   No pseudopotential on this center.
   38          1
                                   No pseudopotential on this center.
 ======================================================================================================
 Ernie: Thresh=  0.10000D-02 Tol=  0.10000D-05 Strict=F.
 Ernie:  34 primitive shells out of 479 were deleted.
   343 basis functions,   708 primitive gaussians,   360 cartesian basis functions
    66 alpha electrons       64 beta electrons
       nuclear repulsion energy      1259.6752861424 Hartrees.
 IExCor=  402 DFT=T Ex+Corr=B3LYP ExCW=0 ScaHFX=  0.200000
 ScaDFX=  0.800000  0.720000  1.000000  0.810000 ScalE2=  1.000000  1.000000
 IRadAn=      5 IRanWt=     -1 IRanGd=            0 ICorTp=0 IEmpDi=141
 NAtoms=   38 NActive=   38 NUniq=   38 SFac= 1.00D+00 NAtFMM=   60 NAOKFM=F Big=F
 Integral buffers will be    131072 words long.
 Raffenetti 2 integral format.
 Two-electron integral symmetry is turned off.
 R6Disp:  Grimme-D3(BJ) Dispersion energy=       -0.0651038580 Hartrees.
 Nuclear repulsion after empirical dispersion term =     1259.6101822843 Hartrees.
 ------------------------------------------------------------------------------
 Polarizable Continuum Model (PCM)
 =================================
 Model                : PCM.
 Atomic radii         : UFF (Universal Force Field).
 Polarization charges : Total charges.
 Charge compensation  : None.
 Solution method      : On-the-fly selection.
 Cavity type          : Scaled VdW (van der Waals Surface) (Alpha=1.100).
 Cavity algorithm     : GePol (No added spheres)
                        Default sphere list used, NSphG=   38.
                        Lebedev-Laikov grids with approx.  5.0 points / Ang**2.
                        Smoothing algorithm: York/Karplus (Gamma=1.0000).
                        Polarization charges: spherical gaussians, with
                                              point-specific exponents (IZeta= 3).
                        Self-potential: point-specific (ISelfS= 7).
                        Self-field    : sphere-specific E.n sum rule (ISelfD= 2).
 1st derivatives      : Analytical E(r).r(x)/FMM algorithm (CHGder, D1EAlg=3).
                        Cavity 1st derivative terms included.
 Solvent              : Acetonitrile, Eps=  35.688000 Eps(inf)=   1.806874
 ------------------------------------------------------------------------------
 GePol: Number of generator spheres                  =      38
 GePol: Total number of spheres                      =      38
 GePol: Number of exposed spheres                    =      38 (100.00%)
 GePol: Number of points                             =    2656
 GePol: Average weight of points                     =       0.13
 GePol: Minimum weight of points                     =   0.12D-10
 GePol: Maximum weight of points                     =    0.20577
 GePol: Number of points with low weight             =     160
 GePol: Fraction of low-weight points (<1% of avg)   =       6.02%
 GePol: Cavity surface area                          =    355.595 Ang**2
 GePol: Cavity volume                                =    374.354 Ang**3
 Leave Link  301 at Tue Aug 18 12:15:15 2026, MaxMem=  2684354560 cpu:               0.1 elap:               0.1
 (Enter /mnt/data/applications/G16/g16/l302.exe)
 NPDir=0 NMtPBC=     1 NCelOv=     1 NCel=       1 NClECP=     1 NCelD=      1
         NCelK=      1 NCelE2=     1 NClLst=     1 CellRange=     0.0.
 One-electron integrals computed using PRISM.
   1 Symmetry operations used in ECPInt.
 ECPInt:  NShTT=   13695 NPrTT=  100063 LenC2=   12378 LenP2D=   51044.
 LDataN:  DoStor=T MaxTD1= 4 Len=   56
 NBasis=   343 RedAO= T EigKep=  1.68D-03  NBF=   343
 NBsUse=   343 1.00D-06 EigRej= -1.00D+00 NBFU=   343
 Precomputing XC quadrature grid using
 IXCGrd= 4 IRadAn=           5 IRanWt=          -1 IRanGd=           0 AccXCQ= 0.00D+00.
 Generated NRdTot=       0 NPtTot=           0 NUsed=           0 NTot=          32
 NSgBfM=   358   358   358   358   358 MxSgAt=    38 MxSgA2=    38.
 Leave Link  302 at Tue Aug 18 12:15:18 2026, MaxMem=  2684354560 cpu:               3.0 elap:               3.0
 (Enter /mnt/data/applications/G16/g16/l303.exe)
 DipDrv:  MaxL=1.
 Leave Link  303 at Tue Aug 18 12:15:18 2026, MaxMem=  2684354560 cpu:               0.1 elap:               0.1
 (Enter /mnt/data/applications/G16/g16/l401.exe)
 ExpMin= 9.54D-02 ExpMax= 1.17D+04 ExpMxC= 4.01D+02 IAcc=3 IRadAn=         5 AccDes= 0.00D+00
 Harris functional with IExCor=  402 and IRadAn=       5 diagonalized for initial guess.
 HarFok:  IExCor=  402 AccDes= 0.00D+00 IRadAn=         5 IDoV= 1 UseB2=F ITyADJ=14
 ICtDFT=  3500011 ScaDFX=  1.000000  1.000000  1.000000  1.000000
 FoFCou: FMM=F IPFlag=           0 FMFlag=      100000 FMFlg1=           0
         NFxFlg=           0 DoJE=T BraDBF=F KetDBF=T FulRan=T
         wScrn=  0.000000 ICntrl=       500 IOpCl=  0 I1Cent=   200000004 NGrid=           0
         NMat0=    1 NMatS0=      1 NMatT0=    0 NMatD0=    1 NMtDS0=    0 NMtDT0=    0
 Symmetry not used in FoFCou.
 Harris En= -795.820829319280    
 JPrj=0 DoOrth=F DoCkMO=F.
 Initial guess <Sx>= 0.0000 <Sy>= 0.0000 <Sz>= 1.0000 <S**2>= 2.0000 S= 1.0000
 Leave Link  401 at Tue Aug 18 12:15:51 2026, MaxMem=  2684354560 cpu:              32.6 elap:              32.6
 (Enter /mnt/data/applications/G16/g16/l502.exe)
 Two-electron integral symmetry not used.
 UHF open shell SCF:
 Using DIIS extrapolation, IDIIS=  1040.
 NGot=  2684354560 LenX=  2684090050 LenY=  2683960009
 Requested convergence on RMS density matrix=1.00D-08 within 128 cycles.
 Requested convergence on MAX density matrix=1.00D-06.
 Requested convergence on             energy=1.00D-06.
 No special actions if energy rises.
 Fock matrices will be formed incrementally for  20 cycles.

 Cycle   1  Pass 1  IDiag  1:
 FoFJK:  IHMeth= 1 ICntrl=       0 DoSepK=F KAlg= 0 I1Cent=           0 FoldK=F
 IRaf= 830000000 NMat=       1 IRICut=       1 DoRegI=T DoRafI=F ISym2E= 0 IDoP0=0 IntGTp=1.
 FoFCou: FMM=F IPFlag=           0 FMFlag=      100000 FMFlg1=           0
         NFxFlg=           0 DoJE=F BraDBF=F KetDBF=F FulRan=T
         wScrn=  0.000000 ICntrl=         0 IOpCl=  1 I1Cent=           0 NGrid=           0
         NMat0=    1 NMatS0=      1 NMatT0=    0 NMatD0=    1 NMtDS0=    0 NMtDT0=    0
 Symmetry not used in FoFCou.
 Inv3:  Mode=1 IEnd=    21163008.
 Iteration    1 A*A^-1 deviation from unit magnitude is 2.11D-15 for    667.
 Iteration    1 A*A^-1 deviation from orthogonality  is 1.48D-15 for   2112    448.
 Iteration    1 A^-1*A deviation from unit magnitude is 1.89D-15 for    667.
 Iteration    1 A^-1*A deviation from orthogonality  is 1.29D-15 for   1947   1782.
 E= -795.315972071063    
 DIIS: error= 3.28D-02 at cycle   1 NSaved=   1.
 NSaved= 1 IEnMin= 1 EnMin= -795.315972071063     IErMin= 1 ErrMin= 3.28D-02
 ErrMax= 3.28D-02  0.00D+00 EMaxC= 1.00D-01 BMatC= 2.07D+00 BMatP= 2.07D+00
 IDIUse=3 WtCom= 6.72D-01 WtEn= 3.28D-01
 Coeff-Com:  0.100D+01
 Coeff-En:   0.100D+01
 Coeff:      0.100D+01
 Gap=     0.216 Goal=   None    Shift=    0.000
 Gap=     0.079 Goal=   None    Shift=    0.000
 GapD=    0.079 DampG=0.500 DampE=0.500 DampFc=0.2500 IDamp=-1.
 Damping current iteration by 2.50D-01
 RMSDP=4.29D-03 MaxDP=1.92D-01              OVMax= 2.84D-01

 Cycle   2  Pass 1  IDiag  1:
 RMSU=  1.06D-03    CP:  9.92D-01
 E= -795.500003131293     Delta-E=       -0.184031060231 Rises=F Damp=T
 DIIS: error= 1.54D-02 at cycle   2 NSaved=   2.
 NSaved= 2 IEnMin= 2 EnMin= -795.500003131293     IErMin= 2 ErrMin= 1.54D-02
 ErrMax= 1.54D-02  0.00D+00 EMaxC= 1.00D-01 BMatC= 4.40D-01 BMatP= 2.07D+00
 IDIUse=3 WtCom= 8.46D-01 WtEn= 1.54D-01
 Coeff-Com: -0.707D+00 0.171D+01
 Coeff-En:   0.000D+00 0.100D+01
 Coeff:     -0.598D+00 0.160D+01
 Gap=     0.243 Goal=   None    Shift=    0.000
 Gap=     0.183 Goal=   None    Shift=    0.000
 RMSDP=1.30D-03 MaxDP=4.35D-02 DE=-1.84D-01 OVMax= 1.89D-01

 Cycle   3  Pass 1  IDiag  1:
 RMSU=  9.74D-04    CP:  9.79D-01  1.78D+00
 E= -795.785977147638     Delta-E=       -0.285974016344 Rises=F Damp=F
 DIIS: error= 1.10D-02 at cycle   3 NSaved=   3.
 NSaved= 3 IEnMin= 3 EnMin= -795.785977147638     IErMin= 3 ErrMin= 1.10D-02
 ErrMax= 1.10D-02  0.00D+00 EMaxC= 1.00D-01 BMatC= 1.49D-01 BMatP= 4.40D-01
 IDIUse=3 WtCom= 8.90D-01 WtEn= 1.10D-01
 Coeff-Com: -0.397D+00 0.950D+00 0.447D+00
 Coeff-En:   0.000D+00 0.000D+00 0.100D+01
 Coeff:     -0.353D+00 0.846D+00 0.507D+00
 Gap=     0.255 Goal=   None    Shift=    0.000
 Gap=     0.160 Goal=   None    Shift=    0.000
 RMSDP=6.50D-04 MaxDP=5.07D-02 DE=-2.86D-01 OVMax= 1.09D-01

 Cycle   4  Pass 1  IDiag  1:
 RMSU=  4.37D-04    CP:  9.82D-01  1.78D+00  5.07D-01
 E= -795.813291530237     Delta-E=       -0.027314382599 Rises=F Damp=F
 DIIS: error= 5.92D-03 at cycle   4 NSaved=   4.
 NSaved= 4 IEnMin= 4 EnMin= -795.813291530237     IErMin= 4 ErrMin= 5.92D-03
 ErrMax= 5.92D-03  0.00D+00 EMaxC= 1.00D-01 BMatC= 3.01D-02 BMatP= 1.49D-01
 IDIUse=3 WtCom= 9.41D-01 WtEn= 5.92D-02
 Coeff-Com: -0.639D-01 0.170D+00 0.310D+00 0.584D+00
 Coeff-En:   0.000D+00 0.000D+00 0.165D+00 0.835D+00
 Coeff:     -0.601D-01 0.160D+00 0.302D+00 0.599D+00
 Gap=     0.252 Goal=   None    Shift=    0.000
 Gap=     0.164 Goal=   None    Shift=    0.000
 RMSDP=2.34D-04 MaxDP=1.71D-02 DE=-2.73D-02 OVMax= 3.84D-02

 Cycle   5  Pass 1  IDiag  1:
 RMSU=  1.22D-04    CP:  9.81D-01  1.73D+00  6.41D-01  6.72D-01
 E= -795.818734420314     Delta-E=       -0.005442890077 Rises=F Damp=F
 DIIS: error= 1.46D-03 at cycle   5 NSaved=   5.
 NSaved= 5 IEnMin= 5 EnMin= -795.818734420314     IErMin= 5 ErrMin= 1.46D-03
 ErrMax= 1.46D-03  0.00D+00 EMaxC= 1.00D-01 BMatC= 2.57D-03 BMatP= 3.01D-02
 IDIUse=3 WtCom= 9.85D-01 WtEn= 1.46D-02
 Coeff-Com: -0.840D-03 0.122D-01 0.131D+00 0.345D+00 0.513D+00
 Coeff-En:   0.000D+00 0.000D+00 0.000D+00 0.238D-02 0.998D+00
 Coeff:     -0.828D-03 0.120D-01 0.129D+00 0.340D+00 0.520D+00
 Gap=     0.253 Goal=   None    Shift=    0.000
 Gap=     0.162 Goal=   None    Shift=    0.000
 RMSDP=6.79D-05 MaxDP=5.59D-03 DE=-5.44D-03 OVMax= 1.28D-02

 Cycle   6  Pass 1  IDiag  1:
 RMSU=  4.21D-05    CP:  9.81D-01  1.74D+00  6.38D-01  7.25D-01  6.18D-01
 E= -795.819234451548     Delta-E=       -0.000500031234 Rises=F Damp=F
 DIIS: error= 4.19D-04 at cycle   6 NSaved=   6.
 NSaved= 6 IEnMin= 6 EnMin= -795.819234451548     IErMin= 6 ErrMin= 4.19D-04
 ErrMax= 4.19D-04  0.00D+00 EMaxC= 1.00D-01 BMatC= 2.21D-04 BMatP= 2.57D-03
 IDIUse=3 WtCom= 9.96D-01 WtEn= 4.19D-03
 Coeff-Com:  0.839D-02-0.167D-01 0.279D-01 0.929D-01 0.270D+00 0.618D+00
 Coeff-En:   0.000D+00 0.000D+00 0.000D+00 0.000D+00 0.000D+00 0.100D+01
 Coeff:      0.835D-02-0.166D-01 0.278D-01 0.925D-01 0.269D+00 0.619D+00
 Gap=     0.254 Goal=   None    Shift=    0.000
 Gap=     0.162 Goal=   None    Shift=    0.000
 RMSDP=2.17D-05 MaxDP=1.46D-03 DE=-5.00D-04 OVMax= 2.14D-03

 Cycle   7  Pass 1  IDiag  1:
 RMSU=  1.82D-05    CP:  9.81D-01  1.75D+00  6.40D-01  7.29D-01  6.75D-01
                    CP:  7.92D-01
 E= -795.819283016672     Delta-E=       -0.000048565124 Rises=F Damp=F
 DIIS: error= 1.21D-04 at cycle   7 NSaved=   7.
 NSaved= 7 IEnMin= 7 EnMin= -795.819283016672     IErMin= 7 ErrMin= 1.21D-04
 ErrMax= 1.21D-04  0.00D+00 EMaxC= 1.00D-01 BMatC= 1.66D-05 BMatP= 2.21D-04
 IDIUse=3 WtCom= 9.99D-01 WtEn= 1.21D-03
 Coeff-Com:  0.305D-02-0.703D-02-0.621D-02-0.173D-01 0.283D-01 0.211D+00
 Coeff-Com:  0.788D+00
 Coeff-En:   0.000D+00 0.000D+00 0.000D+00 0.000D+00 0.000D+00 0.000D+00
 Coeff-En:   0.100D+01
 Coeff:      0.305D-02-0.702D-02-0.620D-02-0.173D-01 0.283D-01 0.211D+00
 Coeff:      0.788D+00
 Gap=     0.254 Goal=   None    Shift=    0.000
 Gap=     0.162 Goal=   None    Shift=    0.000
 RMSDP=9.39D-06 MaxDP=7.09D-04 DE=-4.86D-05 OVMax= 1.33D-03

 Cycle   8  Pass 1  IDiag  1:
 RMSU=  6.43D-06    CP:  9.81D-01  1.74D+00  6.42D-01  7.30D-01  7.06D-01
                    CP:  9.12D-01  9.73D-01
 E= -795.819289692932     Delta-E=       -0.000006676260 Rises=F Damp=F
 DIIS: error= 6.39D-05 at cycle   8 NSaved=   8.
 NSaved= 8 IEnMin= 8 EnMin= -795.819289692932     IErMin= 8 ErrMin= 6.39D-05
 ErrMax= 6.39D-05  0.00D+00 EMaxC= 1.00D-01 BMatC= 2.37D-06 BMatP= 1.66D-05
 IDIUse=1 WtCom= 1.00D+00 WtEn= 0.00D+00
 Coeff-Com: -0.776D-03 0.157D-02-0.559D-02-0.227D-01-0.456D-01-0.842D-01
 Coeff-Com:  0.150D+00 0.101D+01
 Coeff:     -0.776D-03 0.157D-02-0.559D-02-0.227D-01-0.456D-01-0.842D-01
 Coeff:      0.150D+00 0.101D+01
 Gap=     0.254 Goal=   None    Shift=    0.000
 Gap=     0.162 Goal=   None    Shift=    0.000
 RMSDP=5.18D-06 MaxDP=4.65D-04 DE=-6.68D-06 OVMax= 1.13D-03

 Cycle   9  Pass 1  IDiag  1:
 RMSU=  2.63D-06    CP:  9.81D-01  1.74D+00  6.43D-01  7.31D-01  7.13D-01
                    CP:  9.65D-01  1.15D+00  1.27D+00
 E= -795.819291225788     Delta-E=       -0.000001532856 Rises=F Damp=F
 DIIS: error= 2.31D-05 at cycle   9 NSaved=   9.
 NSaved= 9 IEnMin= 9 EnMin= -795.819291225788     IErMin= 9 ErrMin= 2.31D-05
 ErrMax= 2.31D-05  0.00D+00 EMaxC= 1.00D-01 BMatC= 6.57D-07 BMatP= 2.37D-06
 IDIUse=1 WtCom= 1.00D+00 WtEn= 0.00D+00
 Coeff-Com: -0.655D-03 0.148D-02-0.201D-02-0.955D-02-0.259D-01-0.677D-01
 Coeff-Com: -0.139D-01 0.489D+00 0.629D+00
 Coeff:     -0.655D-03 0.148D-02-0.201D-02-0.955D-02-0.259D-01-0.677D-01
 Coeff:     -0.139D-01 0.489D+00 0.629D+00
 Gap=     0.254 Goal=   None    Shift=    0.000
 Gap=     0.162 Goal=   None    Shift=    0.000
 RMSDP=1.81D-06 MaxDP=1.41D-04 DE=-1.53D-06 OVMax= 2.98D-04

 Cycle  10  Pass 1  IDiag  1:
 RMSU=  1.24D-06    CP:  9.81D-01  1.74D+00  6.43D-01  7.31D-01  7.16D-01
                    CP:  9.77D-01  1.18D+00  1.40D+00  8.96D-01
 E= -795.819291477156     Delta-E=       -0.000000251368 Rises=F Damp=F
 DIIS: error= 1.10D-05 at cycle  10 NSaved=  10.
 NSaved=10 IEnMin=10 EnMin= -795.819291477156     IErMin=10 ErrMin= 1.10D-05
 ErrMax= 1.10D-05  0.00D+00 EMaxC= 1.00D-01 BMatC= 1.23D-07 BMatP= 6.57D-07
 IDIUse=1 WtCom= 1.00D+00 WtEn= 0.00D+00
 Coeff-Com: -0.490D-04 0.202D-03 0.528D-03 0.126D-02-0.329D-03-0.109D-01
 Coeff-Com: -0.408D-01-0.389D-01 0.279D+00 0.810D+00
 Coeff:     -0.490D-04 0.202D-03 0.528D-03 0.126D-02-0.329D-03-0.109D-01
 Coeff:     -0.408D-01-0.389D-01 0.279D+00 0.810D+00
 Gap=     0.254 Goal=   None    Shift=    0.000
 Gap=     0.162 Goal=   None    Shift=    0.000
 RMSDP=1.03D-06 MaxDP=1.01D-04 DE=-2.51D-07 OVMax= 2.21D-04

 Cycle  11  Pass 1  IDiag  1:
 RMSU=  5.66D-07    CP:  9.81D-01  1.74D+00  6.43D-01  7.31D-01  7.16D-01
                    CP:  9.82D-01  1.20D+00  1.48D+00  1.10D+00  1.11D+00
 E= -795.819291535328     Delta-E=       -0.000000058172 Rises=F Damp=F
 DIIS: error= 5.31D-06 at cycle  11 NSaved=  11.
 NSaved=11 IEnMin=11 EnMin= -795.819291535328     IErMin=11 ErrMin= 5.31D-06
 ErrMax= 5.31D-06  0.00D+00 EMaxC= 1.00D-01 BMatC= 4.72D-08 BMatP= 1.23D-07
 IDIUse=1 WtCom= 1.00D+00 WtEn= 0.00D+00
 Coeff-Com:  0.121D-03-0.196D-03 0.757D-03 0.264D-02 0.506D-02 0.670D-02
 Coeff-Com: -0.207D-01-0.123D+00 0.452D-01 0.492D+00 0.592D+00
 Coeff:      0.121D-03-0.196D-03 0.757D-03 0.264D-02 0.506D-02 0.670D-02
 Coeff:     -0.207D-01-0.123D+00 0.452D-01 0.492D+00 0.592D+00
 Gap=     0.254 Goal=   None    Shift=    0.000
 Gap=     0.162 Goal=   None    Shift=    0.000
 RMSDP=4.34D-07 MaxDP=3.97D-05 DE=-5.82D-08 OVMax= 8.56D-05

 Cycle  12  Pass 1  IDiag  1:
 RMSU=  2.55D-07    CP:  9.81D-01  1.74D+00  6.43D-01  7.31D-01  7.16D-01
                    CP:  9.83D-01  1.21D+00  1.51D+00  1.18D+00  1.28D+00
                    CP:  8.17D-01
 E= -795.819291550345     Delta-E=       -0.000000015017 Rises=F Damp=F
 DIIS: error= 2.41D-06 at cycle  12 NSaved=  12.
 NSaved=12 IEnMin=12 EnMin= -795.819291550345     IErMin=12 ErrMin= 2.41D-06
 ErrMax= 2.41D-06  0.00D+00 EMaxC= 1.00D-01 BMatC= 5.36D-09 BMatP= 4.72D-08
 IDIUse=1 WtCom= 1.00D+00 WtEn= 0.00D+00
 Coeff-Com:  0.703D-04-0.137D-03 0.182D-03 0.648D-03 0.215D-02 0.523D-02
 Coeff-Com:  0.234D-02-0.397D-01-0.514D-01-0.150D-01 0.232D+00 0.864D+00
 Coeff:      0.703D-04-0.137D-03 0.182D-03 0.648D-03 0.215D-02 0.523D-02
 Coeff:      0.234D-02-0.397D-01-0.514D-01-0.150D-01 0.232D+00 0.864D+00
 Gap=     0.254 Goal=   None    Shift=    0.000
 Gap=     0.162 Goal=   None    Shift=    0.000
 RMSDP=2.21D-07 MaxDP=2.14D-05 DE=-1.50D-08 OVMax= 4.09D-05

 Cycle  13  Pass 1  IDiag  1:
 RMSU=  9.98D-08    CP:  9.81D-01  1.74D+00  6.43D-01  7.31D-01  7.16D-01
                    CP:  9.84D-01  1.21D+00  1.52D+00  1.21D+00  1.37D+00
                    CP:  9.81D-01  1.03D+00
 E= -795.819291552804     Delta-E=       -0.000000002459 Rises=F Damp=F
 DIIS: error= 6.24D-07 at cycle  13 NSaved=  13.
 NSaved=13 IEnMin=13 EnMin= -795.819291552804     IErMin=13 ErrMin= 6.24D-07
 ErrMax= 6.24D-07  0.00D+00 EMaxC= 1.00D-01 BMatC= 7.89D-10 BMatP= 5.36D-09
 IDIUse=1 WtCom= 1.00D+00 WtEn= 0.00D+00
 Coeff-Com:  0.127D-04-0.286D-04-0.164D-04-0.772D-04 0.282D-03 0.115D-02
 Coeff-Com:  0.318D-02-0.113D-02-0.257D-01-0.651D-01 0.258D-01 0.372D+00
 Coeff-Com:  0.689D+00
 Coeff:      0.127D-04-0.286D-04-0.164D-04-0.772D-04 0.282D-03 0.115D-02
 Coeff:      0.318D-02-0.113D-02-0.257D-01-0.651D-01 0.258D-01 0.372D+00
 Coeff:      0.689D+00
 Gap=     0.254 Goal=   None    Shift=    0.000
 Gap=     0.162 Goal=   None    Shift=    0.000
 RMSDP=6.85D-08 MaxDP=5.66D-06 DE=-2.46D-09 OVMax= 9.86D-06

 Cycle  14  Pass 1  IDiag  1:
 RMSU=  3.99D-08    CP:  9.81D-01  1.74D+00  6.43D-01  7.31D-01  7.16D-01
                    CP:  9.84D-01  1.21D+00  1.52D+00  1.22D+00  1.38D+00
                    CP:  1.02D+00  1.12D+00  7.61D-01
 E= -795.819291553011     Delta-E=       -0.000000000207 Rises=F Damp=F
 DIIS: error= 2.93D-07 at cycle  14 NSaved=  14.
 NSaved=14 IEnMin=14 EnMin= -795.819291553011     IErMin=14 ErrMin= 2.93D-07
 ErrMax= 2.93D-07  0.00D+00 EMaxC= 1.00D-01 BMatC= 1.76D-10 BMatP= 7.89D-10
 IDIUse=1 WtCom= 1.00D+00 WtEn= 0.00D+00
 Coeff-Com: -0.609D-05 0.959D-05-0.410D-04-0.157D-03-0.210D-03-0.314D-03
 Coeff-Com:  0.135D-02 0.635D-02-0.474D-02-0.316D-01-0.272D-01 0.453D-01
 Coeff-Com:  0.364D+00 0.648D+00
 Coeff:     -0.609D-05 0.959D-05-0.410D-04-0.157D-03-0.210D-03-0.314D-03
 Coeff:      0.135D-02 0.635D-02-0.474D-02-0.316D-01-0.272D-01 0.453D-01
 Coeff:      0.364D+00 0.648D+00
 Gap=     0.254 Goal=   None    Shift=    0.000
 Gap=     0.162 Goal=   None    Shift=    0.000
 RMSDP=2.37D-08 MaxDP=1.60D-06 DE=-2.07D-10 OVMax= 2.99D-06

 Cycle  15  Pass 1  IDiag  1:
 RMSU=  1.35D-08    CP:  9.81D-01  1.74D+00  6.43D-01  7.31D-01  7.16D-01
                    CP:  9.84D-01  1.21D+00  1.52D+00  1.22D+00  1.39D+00
                    CP:  1.03D+00  1.15D+00  8.91D-01  7.94D-01
 E= -795.819291553074     Delta-E=       -0.000000000062 Rises=F Damp=F
 DIIS: error= 7.83D-08 at cycle  15 NSaved=  15.
 NSaved=15 IEnMin=15 EnMin= -795.819291553074     IErMin=15 ErrMin= 7.83D-08
 ErrMax= 7.83D-08  0.00D+00 EMaxC= 1.00D-01 BMatC= 1.60D-11 BMatP= 1.76D-10
 IDIUse=1 WtCom= 1.00D+00 WtEn= 0.00D+00
 Coeff-Com: -0.415D-05 0.733D-05-0.145D-04-0.515D-04-0.111D-03-0.273D-03
 Coeff-Com:  0.123D-03 0.265D-02 0.133D-02-0.434D-02-0.147D-01-0.301D-01
 Coeff-Com:  0.646D-01 0.270D+00 0.711D+00
 Coeff:     -0.415D-05 0.733D-05-0.145D-04-0.515D-04-0.111D-03-0.273D-03
 Coeff:      0.123D-03 0.265D-02 0.133D-02-0.434D-02-0.147D-01-0.301D-01
 Coeff:      0.646D-01 0.270D+00 0.711D+00
 Gap=     0.254 Goal=   None    Shift=    0.000
 Gap=     0.162 Goal=   None    Shift=    0.000
 RMSDP=7.21D-09 MaxDP=4.25D-07 DE=-6.23D-11 OVMax= 1.14D-06

 Error on total polarization charges =  0.01343
 SCF Done:  E(UB3LYP) =  -795.819291553     A.U. after   15 cycles
            NFock= 15  Conv=0.72D-08     -V/T= 2.0069
 <Sx>= 0.0000 <Sy>= 0.0000 <Sz>= 1.0000 <S**2>= 2.0071 S= 1.0024
 <L.S>= 0.000000000000E+00
 KE= 7.903436518095D+02 PE=-4.375906764434D+03 EE= 1.530133638787D+03
 Annihilation of the first spin contaminant:
 S**2 before annihilation     2.0071,   after     2.0000
 Leave Link  502 at Tue Aug 18 12:51:09 2026, MaxMem=  2684354560 cpu:            2114.0 elap:            2117.4
 (Enter /mnt/data/applications/G16/g16/l601.exe)
 Copying SCF densities to generalized density rwf, IOpCl= 1 IROHF=0.

 **********************************************************************

            Population analysis using the SCF density.

 **********************************************************************

 Alpha  occ. eigenvalues --  -19.18108 -19.14490 -19.14427 -19.13063 -10.31212
 Alpha  occ. eigenvalues --  -10.24940 -10.24900 -10.24209 -10.22376 -10.20158
 Alpha  occ. eigenvalues --  -10.19216 -10.18527 -10.18184 -10.18178 -10.18063
 Alpha  occ. eigenvalues --  -10.18013  -6.78028  -1.10069  -1.06258  -1.01450
 Alpha  occ. eigenvalues --   -0.99564  -0.82053  -0.80591  -0.77378  -0.75342
 Alpha  occ. eigenvalues --   -0.72051  -0.70700  -0.67973  -0.64735  -0.62323
 Alpha  occ. eigenvalues --   -0.59372  -0.55998  -0.55417  -0.53179  -0.51075
 Alpha  occ. eigenvalues --   -0.49188  -0.48156  -0.46784  -0.46603  -0.44958
 Alpha  occ. eigenvalues --   -0.44548  -0.43951  -0.42830  -0.41823  -0.40779
 Alpha  occ. eigenvalues --   -0.40265  -0.40124  -0.39809  -0.39741  -0.39184
 Alpha  occ. eigenvalues --   -0.38474  -0.37520  -0.37033  -0.36589  -0.36224
 Alpha  occ. eigenvalues --   -0.35444  -0.35229  -0.34914  -0.34061  -0.33594
 Alpha  occ. eigenvalues --   -0.31271  -0.30673  -0.28123  -0.27771  -0.23275
 Alpha  occ. eigenvalues --   -0.21443
 Alpha virt. eigenvalues --    0.03935   0.04972   0.06805   0.06931   0.08120
 Alpha virt. eigenvalues --    0.08759   0.09513   0.10165   0.10227   0.11020
 Alpha virt. eigenvalues --    0.11287   0.11722   0.12082   0.12483   0.12793
 Alpha virt. eigenvalues --    0.13383   0.13850   0.14332   0.14716   0.15154
 Alpha virt. eigenvalues --    0.15611   0.16085   0.16315   0.16644   0.18117
 Alpha virt. eigenvalues --    0.19629   0.20503   0.21194   0.21683   0.21943
 Alpha virt. eigenvalues --    0.22849   0.23445   0.25639   0.26753   0.27888
 Alpha virt. eigenvalues --    0.28503   0.30373   0.30848   0.32368   0.32892
 Alpha virt. eigenvalues --    0.37032   0.39114   0.40607   0.41081   0.41202
 Alpha virt. eigenvalues --    0.42296   0.43518   0.44313   0.44984   0.46182
 Alpha virt. eigenvalues --    0.47870   0.48045   0.48170   0.49801   0.49840
 Alpha virt. eigenvalues --    0.50268   0.51776   0.52352   0.53847   0.54672
 Alpha virt. eigenvalues --    0.54877   0.57226   0.57350   0.58031   0.58549
 Alpha virt. eigenvalues --    0.58750   0.59726   0.60573   0.61884   0.61948
 Alpha virt. eigenvalues --    0.62396   0.62673   0.62943   0.63353   0.63756
 Alpha virt. eigenvalues --    0.64403   0.65015   0.65147   0.65352   0.65667
 Alpha virt. eigenvalues --    0.65875   0.66723   0.66893   0.67132   0.67631
 Alpha virt. eigenvalues --    0.68013   0.68728   0.69159   0.69443   0.70525
 Alpha virt. eigenvalues --    0.71239   0.71944   0.72795   0.73596   0.75095
 Alpha virt. eigenvalues --    0.76159   0.77198   0.78684   0.79713   0.81981
 Alpha virt. eigenvalues --    0.83367   0.84469   0.86268   0.88072   0.89219
 Alpha virt. eigenvalues --    0.89567   0.89968   0.91576   0.92954   0.96494
 Alpha virt. eigenvalues --    0.97489   0.99521   1.01176   1.02334   1.04048
 Alpha virt. eigenvalues --    1.05057   1.06551   1.07483   1.11578   1.12979
 Alpha virt. eigenvalues --    1.14872   1.16359   1.17631   1.19808   1.20217
 Alpha virt. eigenvalues --    1.21678   1.22621   1.23141   1.23977   1.24847
 Alpha virt. eigenvalues --    1.26476   1.27499   1.28897   1.30993   1.32911
 Alpha virt. eigenvalues --    1.33205   1.33910   1.35434   1.35993   1.36243
 Alpha virt. eigenvalues --    1.38162   1.39456   1.40104   1.40450   1.41351
 Alpha virt. eigenvalues --    1.41582   1.41908   1.42198   1.43874   1.44686
 Alpha virt. eigenvalues --    1.46331   1.48594   1.50215   1.50857   1.53214
 Alpha virt. eigenvalues --    1.53384   1.54779   1.56598   1.57227   1.58284
 Alpha virt. eigenvalues --    1.59257   1.60365   1.60559   1.60960   1.61193
 Alpha virt. eigenvalues --    1.61861   1.63011   1.63655   1.63803   1.64069
 Alpha virt. eigenvalues --    1.64667   1.65774   1.66945   1.67657   1.68185
 Alpha virt. eigenvalues --    1.68489   1.69330   1.69561   1.70337   1.71556
 Alpha virt. eigenvalues --    1.72071   1.72508   1.72916   1.73757   1.74843
 Alpha virt. eigenvalues --    1.76408   1.76779   1.78353   1.78584   1.79430
 Alpha virt. eigenvalues --    1.80069   1.81738   1.83760   1.84030   1.84750
 Alpha virt. eigenvalues --    1.85774   1.87155   1.88578   1.90196   1.90732
 Alpha virt. eigenvalues --    1.93558   1.93685   1.94459   1.95018   1.99530
 Alpha virt. eigenvalues --    2.00020   2.00595   2.01626   2.02087   2.02975
 Alpha virt. eigenvalues --    2.03828   2.05730   2.07926   2.08778   2.09164
 Alpha virt. eigenvalues --    2.12474   2.13394   2.15316   2.17331   2.18341
 Alpha virt. eigenvalues --    2.18937   2.20472   2.22219   2.23180   2.23525
 Alpha virt. eigenvalues --    2.28101   2.28668   2.29312   2.32151   2.32427
 Alpha virt. eigenvalues --    2.33826   2.35339   2.36515   2.38600   2.40583
 Alpha virt. eigenvalues --    2.41116   2.41748   2.41863   2.42235   2.43700
 Alpha virt. eigenvalues --    2.44615   2.45745   2.45926   2.46945   2.48128
 Alpha virt. eigenvalues --    2.48875   2.49680   2.50721   2.52721   2.53648
 Alpha virt. eigenvalues --    2.54174   2.54397   2.55688   2.56129   2.59377
 Alpha virt. eigenvalues --    2.59648   2.62748   2.64186   2.71820   2.87877
 Alpha virt. eigenvalues --    2.88483   2.89355   2.91021   2.97922   2.99864
 Alpha virt. eigenvalues --    3.01430   3.04828   3.15478   3.16215   3.18169
 Alpha virt. eigenvalues --    3.23994   3.35302   3.36557   3.43115   3.43684
 Alpha virt. eigenvalues --    3.48432   3.54482
  Beta  occ. eigenvalues --  -19.17987 -19.14370 -19.14312 -19.12647 -10.31228
  Beta  occ. eigenvalues --  -10.24939 -10.24905 -10.24211 -10.21259 -10.19183
  Beta  occ. eigenvalues --  -10.19002 -10.18527 -10.18181 -10.18176 -10.18059
  Beta  occ. eigenvalues --  -10.18009  -6.77955  -1.09711  -1.06051  -1.00781
  Beta  occ. eigenvalues --   -0.99315  -0.81046  -0.78965  -0.76720  -0.75311
  Beta  occ. eigenvalues --   -0.70706  -0.70575  -0.67963  -0.64055  -0.62141
  Beta  occ. eigenvalues --   -0.58285  -0.55573  -0.55169  -0.52557  -0.49672
  Beta  occ. eigenvalues --   -0.48710  -0.47812  -0.46598  -0.46042  -0.44822
  Beta  occ. eigenvalues --   -0.43981  -0.43547  -0.41636  -0.40883  -0.40310
  Beta  occ. eigenvalues --   -0.40138  -0.39699  -0.39629  -0.39530  -0.39087
  Beta  occ. eigenvalues --   -0.38127  -0.37280  -0.37018  -0.36452  -0.35618
  Beta  occ. eigenvalues --   -0.35175  -0.35044  -0.34010  -0.33509  -0.33307
  Beta  occ. eigenvalues --   -0.31217  -0.29357  -0.27542  -0.27279
  Beta virt. eigenvalues --   -0.11051  -0.09075   0.04943   0.06220   0.06922
  Beta virt. eigenvalues --    0.08212   0.08811   0.08861   0.09667   0.10241
  Beta virt. eigenvalues --    0.10330   0.11136   0.11765   0.12152   0.12191
  Beta virt. eigenvalues --    0.12644   0.12966   0.13474   0.14283   0.14492
  Beta virt. eigenvalues --    0.14834   0.15416   0.15685   0.16223   0.16362
  Beta virt. eigenvalues --    0.16747   0.18179   0.19941   0.20606   0.21392
  Beta virt. eigenvalues --    0.21836   0.22353   0.23000   0.23981   0.25986
  Beta virt. eigenvalues --    0.27200   0.28397   0.28963   0.30767   0.32099
  Beta virt. eigenvalues --    0.33216   0.34410   0.37545   0.39146   0.40779
  Beta virt. eigenvalues --    0.41133   0.41970   0.43373   0.44317   0.44779
  Beta virt. eigenvalues --    0.45677   0.46603   0.48200   0.48230   0.48461
  Beta virt. eigenvalues --    0.50094   0.50350   0.50767   0.52430   0.52807
  Beta virt. eigenvalues --    0.54041   0.55127   0.55854   0.57325   0.57866
  Beta virt. eigenvalues --    0.58496   0.58682   0.59324   0.60132   0.60952
  Beta virt. eigenvalues --    0.62121   0.62203   0.62551   0.62887   0.63318
  Beta virt. eigenvalues --    0.63954   0.64185   0.64520   0.65220   0.65238
  Beta virt. eigenvalues --    0.65498   0.65820   0.65959   0.66992   0.67250
  Beta virt. eigenvalues --    0.67739   0.67753   0.68256   0.69122   0.69370
  Beta virt. eigenvalues --    0.69608   0.71162   0.71920   0.72321   0.73283
  Beta virt. eigenvalues --    0.74269   0.75450   0.76466   0.77425   0.78912
  Beta virt. eigenvalues --    0.80152   0.82602   0.83714   0.85214   0.86834
  Beta virt. eigenvalues --    0.88798   0.89452   0.89920   0.90752   0.92040
  Beta virt. eigenvalues --    0.93231   0.97278   0.98787   1.00694   1.01576
  Beta virt. eigenvalues --    1.03141   1.05210   1.05698   1.06942   1.07521
  Beta virt. eigenvalues --    1.12131   1.13405   1.15154   1.17030   1.17964
  Beta virt. eigenvalues --    1.19935   1.20281   1.22308   1.23048   1.23926
  Beta virt. eigenvalues --    1.24287   1.25398   1.26740   1.27916   1.29496
  Beta virt. eigenvalues --    1.31178   1.33392   1.33605   1.35014   1.35977
  Beta virt. eigenvalues --    1.36309   1.36650   1.38467   1.39690   1.40398
  Beta virt. eigenvalues --    1.41293   1.41519   1.41593   1.42022   1.42652
  Beta virt. eigenvalues --    1.44486   1.44878   1.46896   1.48757   1.50948
  Beta virt. eigenvalues --    1.51935   1.53445   1.53779   1.55487   1.56835
  Beta virt. eigenvalues --    1.57523   1.58551   1.59631   1.60496   1.60605
  Beta virt. eigenvalues --    1.61100   1.61387   1.61961   1.63175   1.63759
  Beta virt. eigenvalues --    1.63922   1.64594   1.64984   1.66281   1.67202
  Beta virt. eigenvalues --    1.67850   1.68516   1.69017   1.69535   1.69860
  Beta virt. eigenvalues --    1.70911   1.72136   1.72466   1.72623   1.73272
  Beta virt. eigenvalues --    1.74339   1.75084   1.76621   1.77003   1.78526
  Beta virt. eigenvalues --    1.78877   1.79669   1.80860   1.81948   1.84104
  Beta virt. eigenvalues --    1.84593   1.85442   1.85856   1.87200   1.89848
  Beta virt. eigenvalues --    1.90994   1.92443   1.93720   1.93757   1.94985
  Beta virt. eigenvalues --    1.95959   1.99707   2.00132   2.00802   2.02059
  Beta virt. eigenvalues --    2.02755   2.03421   2.04187   2.05792   2.07969
  Beta virt. eigenvalues --    2.08997   2.09921   2.12897   2.13751   2.15939
  Beta virt. eigenvalues --    2.18312   2.18507   2.19014   2.20636   2.23059
  Beta virt. eigenvalues --    2.23286   2.23690   2.28142   2.29235   2.29848
  Beta virt. eigenvalues --    2.32212   2.32591   2.33938   2.35822   2.36626
  Beta virt. eigenvalues --    2.39027   2.40623   2.41292   2.41774   2.42149
  Beta virt. eigenvalues --    2.42451   2.43839   2.45109   2.45815   2.45979
  Beta virt. eigenvalues --    2.47287   2.48137   2.48903   2.49695   2.50783
  Beta virt. eigenvalues --    2.53152   2.53839   2.54538   2.54935   2.55736
  Beta virt. eigenvalues --    2.56333   2.59574   2.59828   2.62990   2.65076
  Beta virt. eigenvalues --    2.72932   2.88255   2.88869   2.89938   2.91472
  Beta virt. eigenvalues --    2.98222   3.00225   3.01711   3.05127   3.16348
  Beta virt. eigenvalues --    3.16515   3.18379   3.24290   3.35388   3.36895
  Beta virt. eigenvalues --    3.43307   3.43929   3.48809   3.54763
          Condensed to atoms (all electrons):
               1          2          3          4          5          6
     1  C    5.092303   0.306052  -0.031615   0.434602  -0.017702  -0.013168
     2  C    0.306052   5.262118   0.356200  -0.057001  -0.007783   0.008403
     3  H   -0.031615   0.356200   0.648200   0.000715  -0.000283  -0.000305
     4  C    0.434602  -0.057001   0.000715   4.538404   0.365524   0.381262
     5  H   -0.017702  -0.007783  -0.000283   0.365524   0.656872  -0.028002
     6  H   -0.013168   0.008403  -0.000305   0.381262  -0.028002   0.658081
     7  H   -0.019323  -0.002798   0.002337   0.373269  -0.028968  -0.027415
     8  C   -0.060703   0.393257  -0.024099  -0.002867   0.003084  -0.000035
     9  O    0.009146  -0.091790   0.003872  -0.003084   0.004180  -0.000118
    10  O    0.003720  -0.055635   0.006204  -0.000075  -0.000010   0.000001
    11  C   -0.000325   0.007234  -0.000719   0.000012  -0.000016  -0.000000
    12  H    0.000036   0.001330   0.000038   0.000003  -0.000006  -0.000000
    13  H    0.000055   0.001122   0.000043  -0.000008   0.000020   0.000000
    14  B    0.436048  -0.086747   0.006264  -0.043371   0.008534  -0.017255
    15  O   -0.020695   0.003334   0.000201   0.000882  -0.000022   0.000067
    16  O   -0.016716   0.000750  -0.000015  -0.002586  -0.000048   0.009665
    17  C    0.002900  -0.000419   0.000001   0.000071   0.000007   0.000011
    18  C    0.000174   0.000109   0.000011  -0.000282   0.000018  -0.000409
    19  C   -0.000171  -0.000058   0.000000   0.000008   0.000000  -0.000004
    20  C    0.000026  -0.000021   0.000001  -0.000001  -0.000000  -0.000002
    21  C   -0.000228  -0.000006  -0.000000   0.000003   0.000000  -0.000011
    22  C   -0.000004  -0.000005  -0.000000  -0.000011   0.000002  -0.000011
    23  H    0.000112  -0.000171  -0.000002   0.000003   0.000007  -0.000022
    24  H   -0.000191   0.000050   0.000001  -0.000001  -0.000000   0.000002
    25  H    0.000001  -0.000002  -0.000000  -0.000000   0.000000  -0.000000
    26  H   -0.000044   0.000009   0.000002   0.000000  -0.000000   0.000000
    27  H    0.000003   0.000001   0.000000  -0.000000   0.000000  -0.000000
    28  H   -0.000036   0.000012   0.000000   0.000000   0.000000   0.000000
    29  H   -0.000138  -0.000001   0.000000  -0.000002  -0.000000   0.000116
    30  H    0.000004  -0.000001   0.000000  -0.000001  -0.000000  -0.000001
    31  H    0.000086  -0.000037  -0.000000  -0.000001   0.000001  -0.000042
    32  H   -0.000025   0.000000   0.000000  -0.000005  -0.000000   0.000049
    33  H   -0.000053   0.000001  -0.000000   0.000005   0.000001   0.000001
    34  H    0.000003  -0.000000   0.000000   0.000001   0.000000  -0.000002
    35  C   -0.000001  -0.000080  -0.000127   0.000000  -0.000001   0.000000
    36  H    0.000002  -0.000027   0.000053  -0.000000   0.000000   0.000000
    37  H   -0.000000   0.000020   0.000004   0.000000  -0.000000  -0.000000
    38  H    0.000002  -0.000018   0.000051   0.000000  -0.000000  -0.000000
               7          8          9         10         11         12
     1  C   -0.019323  -0.060703   0.009146   0.003720  -0.000325   0.000036
     2  C   -0.002798   0.393257  -0.091790  -0.055635   0.007234   0.001330
     3  H    0.002337  -0.024099   0.003872   0.006204  -0.000719   0.000038
     4  C    0.373269  -0.002867  -0.003084  -0.000075   0.000012   0.000003
     5  H   -0.028968   0.003084   0.004180  -0.000010  -0.000016  -0.000006
     6  H   -0.027415  -0.000035  -0.000118   0.000001  -0.000000  -0.000000
     7  H    0.659641  -0.000784  -0.000008  -0.000003   0.000000  -0.000000
     8  C   -0.000784   4.401944   0.706834   0.385427  -0.049765  -0.001220
     9  O   -0.000008   0.706834   7.697068  -0.060676   0.000398   0.008134
    10  O   -0.000003   0.385427  -0.060676   7.794527   0.292890  -0.030458
    11  C    0.000000  -0.049765   0.000398   0.292890   4.480853   0.379480
    12  H   -0.000000  -0.001220   0.008134  -0.030458   0.379480   0.691038
    13  H    0.000000  -0.001159   0.007737  -0.030340   0.379689  -0.049267
    14  B    0.003402  -0.001148   0.020346   0.000735  -0.000104   0.000048
    15  O   -0.000026   0.000145  -0.000204  -0.000000  -0.000000  -0.000001
    16  O   -0.000020   0.000008  -0.000003  -0.000000   0.000000   0.000000
    17  C    0.000006  -0.000068  -0.000052   0.000000   0.000000  -0.000001
    18  C    0.000005  -0.000011   0.000010  -0.000000  -0.000000   0.000000
    19  C   -0.000000   0.000036  -0.000009   0.000000  -0.000000  -0.000000
    20  C   -0.000000  -0.000001  -0.000000   0.000000  -0.000000  -0.000000
    21  C    0.000004   0.000001   0.000000   0.000000  -0.000000   0.000000
    22  C   -0.000001   0.000000   0.000000   0.000000  -0.000000   0.000000
    23  H   -0.000000   0.000080   0.000334   0.000001  -0.000000   0.000000
    24  H   -0.000000   0.000052   0.000057  -0.000001  -0.000001   0.000008
    25  H   -0.000000   0.000001   0.000000   0.000000  -0.000000  -0.000000
    26  H    0.000000  -0.000000  -0.000000   0.000000   0.000000  -0.000000
    27  H    0.000000  -0.000000   0.000000   0.000000   0.000000   0.000000
    28  H   -0.000000  -0.000001  -0.000000   0.000000  -0.000000  -0.000000
    29  H   -0.000001  -0.000000   0.000000  -0.000000  -0.000000   0.000000
    30  H   -0.000000  -0.000000   0.000000   0.000000  -0.000000   0.000000
    31  H    0.000002   0.000002   0.000000   0.000000  -0.000000   0.000000
    32  H   -0.000000  -0.000000   0.000000   0.000000  -0.000000  -0.000000
    33  H   -0.000000  -0.000000  -0.000000  -0.000000   0.000000   0.000000
    34  H    0.000000   0.000000   0.000000  -0.000000   0.000000  -0.000000
    35  C    0.000000   0.003429   0.001201  -0.033625   0.450231  -0.026452
    36  H    0.000000   0.000186  -0.000021   0.002896  -0.019356  -0.010672
    37  H    0.000000  -0.000008   0.000041   0.002927  -0.011837  -0.001283
    38  H   -0.000000   0.000188  -0.000020   0.002843  -0.019254   0.008976
              13         14         15         16         17         18
     1  C    0.000055   0.436048  -0.020695  -0.016716   0.002900   0.000174
     2  C    0.001122  -0.086747   0.003334   0.000750  -0.000419   0.000109
     3  H    0.000043   0.006264   0.000201  -0.000015   0.000001   0.000011
     4  C   -0.000008  -0.043371   0.000882  -0.002586   0.000071  -0.000282
     5  H    0.000020   0.008534  -0.000022  -0.000048   0.000007   0.000018
     6  H    0.000000  -0.017255   0.000067   0.009665   0.000011  -0.000409
     7  H    0.000000   0.003402  -0.000026  -0.000020   0.000006   0.000005
     8  C   -0.001159  -0.001148   0.000145   0.000008  -0.000068  -0.000011
     9  O    0.007737   0.020346  -0.000204  -0.000003  -0.000052   0.000010
    10  O   -0.030340   0.000735  -0.000000  -0.000000   0.000000  -0.000000
    11  C    0.379689  -0.000104  -0.000000   0.000000   0.000000  -0.000000
    12  H   -0.049267   0.000048  -0.000001   0.000000  -0.000001   0.000000
    13  H    0.691437  -0.000035   0.000000   0.000000   0.000000  -0.000000
    14  B   -0.000035   3.677854   0.529005   0.518493  -0.100525  -0.101810
    15  O    0.000000   0.529005   7.586208  -0.018348   0.264199  -0.056806
    16  O    0.000000   0.518493  -0.018348   7.591293  -0.057005   0.264555
    17  C    0.000000  -0.100525   0.264199  -0.057005   4.992478   0.292381
    18  C   -0.000000  -0.101810  -0.056806   0.264555   0.292381   4.996376
    19  C    0.000000   0.007744  -0.040065   0.000491   0.420186  -0.057084
    20  C    0.000000  -0.001776  -0.032553   0.003189   0.443921  -0.052100
    21  C   -0.000000   0.007018   0.000231  -0.039930  -0.056906   0.421402
    22  C   -0.000000  -0.001778   0.003187  -0.032294  -0.052137   0.444247
    23  H   -0.000000   0.006045  -0.004250   0.002541  -0.006524  -0.008555
    24  H   -0.000000   0.000610   0.002266  -0.000224  -0.009938   0.007738
    25  H    0.000000  -0.001430   0.004307  -0.000102  -0.009852  -0.006967
    26  H    0.000000   0.001867   0.000533  -0.000004  -0.000498  -0.014362
    27  H   -0.000000   0.000593   0.003574   0.000029  -0.012932  -0.001898
    28  H    0.000000  -0.000274   0.000012  -0.000141  -0.008477   0.007756
    29  H   -0.000000   0.000053  -0.000231   0.002275   0.007720  -0.010146
    30  H   -0.000000  -0.001289  -0.000107   0.004276  -0.006790  -0.009428
    31  H   -0.000000   0.005974   0.002758  -0.004139  -0.008440  -0.006287
    32  H    0.000000  -0.000508  -0.000140  -0.000019   0.007746  -0.008728
    33  H    0.000000   0.001886  -0.000023   0.000721  -0.014259  -0.000191
    34  H    0.000000   0.000590   0.000031   0.003574  -0.001955  -0.012936
    35  C   -0.026420  -0.000009  -0.000000   0.000000   0.000000  -0.000000
    36  H    0.008996  -0.000000   0.000000  -0.000000   0.000000  -0.000000
    37  H   -0.001244  -0.000000   0.000000  -0.000000   0.000000  -0.000000
    38  H   -0.010643   0.000001  -0.000000   0.000000  -0.000000   0.000000
              19         20         21         22         23         24
     1  C   -0.000171   0.000026  -0.000228  -0.000004   0.000112  -0.000191
     2  C   -0.000058  -0.000021  -0.000006  -0.000005  -0.000171   0.000050
     3  H    0.000000   0.000001  -0.000000  -0.000000  -0.000002   0.000001
     4  C    0.000008  -0.000001   0.000003  -0.000011   0.000003  -0.000001
     5  H    0.000000  -0.000000   0.000000   0.000002   0.000007  -0.000000
     6  H   -0.000004  -0.000002  -0.000011  -0.000011  -0.000022   0.000002
     7  H   -0.000000  -0.000000   0.000004  -0.000001  -0.000000  -0.000000
     8  C    0.000036  -0.000001   0.000001   0.000000   0.000080   0.000052
     9  O   -0.000009  -0.000000   0.000000   0.000000   0.000334   0.000057
    10  O    0.000000   0.000000   0.000000   0.000000   0.000001  -0.000001
    11  C   -0.000000  -0.000000  -0.000000  -0.000000  -0.000000  -0.000001
    12  H   -0.000000  -0.000000   0.000000   0.000000   0.000000   0.000008
    13  H    0.000000   0.000000  -0.000000  -0.000000  -0.000000  -0.000000
    14  B    0.007744  -0.001776   0.007018  -0.001778   0.006045   0.000610
    15  O   -0.040065  -0.032553   0.000231   0.003187  -0.004250   0.002266
    16  O    0.000491   0.003189  -0.039930  -0.032294   0.002541  -0.000224
    17  C    0.420186   0.443921  -0.056906  -0.052137  -0.006524  -0.009938
    18  C   -0.057084  -0.052100   0.421402   0.444247  -0.008555   0.007738
    19  C    4.537632  -0.056577   0.007599  -0.002327   0.375856   0.366587
    20  C   -0.056577   4.519355  -0.002496   0.002845   0.007398  -0.008329
    21  C    0.007599  -0.002496   4.537712  -0.056378   0.000246  -0.000337
    22  C   -0.002327   0.002845  -0.056378   4.518562  -0.000960   0.000249
    23  H    0.375856   0.007398   0.000246  -0.000960   0.656110  -0.027443
    24  H    0.366587  -0.008329  -0.000337   0.000249  -0.027443   0.665334
    25  H    0.366574  -0.001103  -0.000247   0.006719  -0.029415  -0.023921
    26  H    0.007594   0.364876   0.009599  -0.000142  -0.000506  -0.000024
    27  H   -0.000204   0.369894  -0.000833  -0.000207   0.000038  -0.000377
    28  H   -0.008422   0.369037  -0.000123  -0.000300   0.000043   0.005177
    29  H   -0.000345   0.000246   0.366924  -0.008219  -0.000036   0.000017
    30  H   -0.000244   0.006518   0.366737  -0.001237  -0.000010   0.000007
    31  H    0.000263  -0.001180   0.375588   0.007470   0.000067  -0.000036
    32  H   -0.000144  -0.000300  -0.008288   0.369167  -0.000128  -0.000016
    33  H    0.009646  -0.000148   0.007604   0.364498   0.001603  -0.000087
    34  H   -0.000790  -0.000219  -0.000202   0.369934   0.000192  -0.000012
    35  C   -0.000000  -0.000000  -0.000000  -0.000000  -0.000000  -0.000000
    36  H    0.000000   0.000000  -0.000000  -0.000000  -0.000000  -0.000000
    37  H    0.000000  -0.000000  -0.000000  -0.000000  -0.000000  -0.000000
    38  H   -0.000000   0.000000   0.000000   0.000000   0.000000   0.000000
              25         26         27         28         29         30
     1  C    0.000001  -0.000044   0.000003  -0.000036  -0.000138   0.000004
     2  C   -0.000002   0.000009   0.000001   0.000012  -0.000001  -0.000001
     3  H   -0.000000   0.000002   0.000000   0.000000   0.000000   0.000000
     4  C   -0.000000   0.000000  -0.000000   0.000000  -0.000002  -0.000001
     5  H    0.000000  -0.000000   0.000000   0.000000  -0.000000  -0.000000
     6  H   -0.000000   0.000000  -0.000000   0.000000   0.000116  -0.000001
     7  H   -0.000000   0.000000   0.000000  -0.000000  -0.000001  -0.000000
     8  C    0.000001  -0.000000  -0.000000  -0.000001  -0.000000  -0.000000
     9  O    0.000000  -0.000000   0.000000  -0.000000   0.000000   0.000000
    10  O    0.000000   0.000000   0.000000   0.000000  -0.000000   0.000000
    11  C   -0.000000   0.000000   0.000000  -0.000000  -0.000000  -0.000000
    12  H   -0.000000  -0.000000   0.000000  -0.000000   0.000000   0.000000
    13  H    0.000000   0.000000  -0.000000   0.000000  -0.000000  -0.000000
    14  B   -0.001430   0.001867   0.000593  -0.000274   0.000053  -0.001289
    15  O    0.004307   0.000533   0.003574   0.000012  -0.000231  -0.000107
    16  O   -0.000102  -0.000004   0.000029  -0.000141   0.002275   0.004276
    17  C   -0.009852  -0.000498  -0.012932  -0.008477   0.007720  -0.006790
    18  C   -0.006967  -0.014362  -0.001898   0.007756  -0.010146  -0.009428
    19  C    0.366574   0.007594  -0.000204  -0.008422  -0.000345  -0.000244
    20  C   -0.001103   0.364876   0.369894   0.369037   0.000246   0.006518
    21  C   -0.000247   0.009599  -0.000833  -0.000123   0.366924   0.366737
    22  C    0.006719  -0.000142  -0.000207  -0.000300  -0.008219  -0.001237
    23  H   -0.029415  -0.000506   0.000038   0.000043  -0.000036  -0.000010
    24  H   -0.023921  -0.000024  -0.000377   0.005177   0.000017   0.000007
    25  H    0.668181  -0.000022   0.001694  -0.000247   0.000005  -0.000023
    26  H   -0.000022   0.660210  -0.025500  -0.027419  -0.000095  -0.000094
    27  H    0.001694  -0.025500   0.658002  -0.025611  -0.000013   0.000238
    28  H   -0.000247  -0.027419  -0.025611   0.666889  -0.000016   0.000149
    29  H    0.000005  -0.000095  -0.000013  -0.000016   0.665822  -0.023823
    30  H   -0.000023  -0.000094   0.000238   0.000149  -0.023823   0.666975
    31  H   -0.000009   0.001711   0.000198  -0.000134  -0.027600  -0.029552
    32  H    0.000147  -0.000008  -0.000123   0.000023   0.005216  -0.000211
    33  H   -0.000143  -0.000025  -0.000083  -0.000005  -0.000014  -0.000026
    34  H    0.000200  -0.000079   0.001762  -0.000124  -0.000378   0.001684
    35  C   -0.000000   0.000000   0.000000  -0.000000  -0.000000  -0.000000
    36  H   -0.000000   0.000000  -0.000000   0.000000  -0.000000  -0.000000
    37  H    0.000000  -0.000000  -0.000000   0.000000  -0.000000  -0.000000
    38  H    0.000000   0.000000   0.000000  -0.000000   0.000000   0.000000
              31         32         33         34         35         36
     1  C    0.000086  -0.000025  -0.000053   0.000003  -0.000001   0.000002
     2  C   -0.000037   0.000000   0.000001  -0.000000  -0.000080  -0.000027
     3  H   -0.000000   0.000000  -0.000000   0.000000  -0.000127   0.000053
     4  C   -0.000001  -0.000005   0.000005   0.000001   0.000000  -0.000000
     5  H    0.000001  -0.000000   0.000001   0.000000  -0.000001   0.000000
     6  H   -0.000042   0.000049   0.000001  -0.000002   0.000000   0.000000
     7  H    0.000002  -0.000000  -0.000000   0.000000   0.000000   0.000000
     8  C    0.000002  -0.000000  -0.000000   0.000000   0.003429   0.000186
     9  O    0.000000   0.000000  -0.000000   0.000000   0.001201  -0.000021
    10  O    0.000000   0.000000  -0.000000  -0.000000  -0.033625   0.002896
    11  C   -0.000000  -0.000000   0.000000   0.000000   0.450231  -0.019356
    12  H    0.000000  -0.000000   0.000000  -0.000000  -0.026452  -0.010672
    13  H   -0.000000   0.000000   0.000000   0.000000  -0.026420   0.008996
    14  B    0.005974  -0.000508   0.001886   0.000590  -0.000009  -0.000000
    15  O    0.002758  -0.000140  -0.000023   0.000031  -0.000000   0.000000
    16  O   -0.004139  -0.000019   0.000721   0.003574   0.000000  -0.000000
    17  C   -0.008440   0.007746  -0.014259  -0.001955   0.000000   0.000000
    18  C   -0.006287  -0.008728  -0.000191  -0.012936  -0.000000  -0.000000
    19  C    0.000263  -0.000144   0.009646  -0.000790  -0.000000   0.000000
    20  C   -0.001180  -0.000300  -0.000148  -0.000219  -0.000000   0.000000
    21  C    0.375588  -0.008288   0.007604  -0.000202  -0.000000  -0.000000
    22  C    0.007470   0.369167   0.364498   0.369934  -0.000000  -0.000000
    23  H    0.000067  -0.000128   0.001603   0.000192  -0.000000  -0.000000
    24  H   -0.000036  -0.000016  -0.000087  -0.000012  -0.000000  -0.000000
    25  H   -0.000009   0.000147  -0.000143   0.000200  -0.000000  -0.000000
    26  H    0.001711  -0.000008  -0.000025  -0.000079   0.000000   0.000000
    27  H    0.000198  -0.000123  -0.000083   0.001762   0.000000  -0.000000
    28  H   -0.000134   0.000023  -0.000005  -0.000124  -0.000000   0.000000
    29  H   -0.027600   0.005216  -0.000014  -0.000378  -0.000000  -0.000000
    30  H   -0.029552  -0.000211  -0.000026   0.001684  -0.000000  -0.000000
    31  H    0.656848   0.000055  -0.000511   0.000033  -0.000000  -0.000000
    32  H    0.000055   0.666974  -0.027254  -0.025630  -0.000000   0.000000
    33  H   -0.000511  -0.027254   0.659450  -0.025431   0.000000   0.000000
    34  H    0.000033  -0.025630  -0.025431   0.657763  -0.000000   0.000000
    35  C   -0.000000  -0.000000   0.000000  -0.000000   4.518066   0.381800
    36  H   -0.000000   0.000000   0.000000   0.000000   0.381800   0.659154
    37  H   -0.000000  -0.000000   0.000000   0.000000   0.373908  -0.024048
    38  H    0.000000  -0.000000   0.000000  -0.000000   0.381669  -0.032201
              37         38
     1  C   -0.000000   0.000002
     2  C    0.000020  -0.000018
     3  H    0.000004   0.000051
     4  C    0.000000   0.000000
     5  H   -0.000000  -0.000000
     6  H   -0.000000  -0.000000
     7  H    0.000000  -0.000000
     8  C   -0.000008   0.000188
     9  O    0.000041  -0.000020
    10  O    0.002927   0.002843
    11  C   -0.011837  -0.019254
    12  H   -0.001283   0.008976
    13  H   -0.001244  -0.010643
    14  B   -0.000000   0.000001
    15  O    0.000000  -0.000000
    16  O   -0.000000   0.000000
    17  C    0.000000  -0.000000
    18  C   -0.000000   0.000000
    19  C    0.000000  -0.000000
    20  C   -0.000000   0.000000
    21  C   -0.000000   0.000000
    22  C   -0.000000   0.000000
    23  H   -0.000000   0.000000
    24  H   -0.000000   0.000000
    25  H    0.000000   0.000000
    26  H   -0.000000   0.000000
    27  H   -0.000000   0.000000
    28  H    0.000000  -0.000000
    29  H   -0.000000   0.000000
    30  H   -0.000000   0.000000
    31  H   -0.000000   0.000000
    32  H   -0.000000  -0.000000
    33  H    0.000000   0.000000
    34  H    0.000000  -0.000000
    35  C    0.373908   0.381669
    36  H   -0.024048  -0.032201
    37  H    0.652771  -0.024100
    38  H   -0.024100   0.659489
          Atomic-Atomic Spin Densities.
               1          2          3          4          5          6
     1  C    0.890792  -0.051431  -0.014461  -0.006993  -0.023087  -0.001855
     2  C   -0.051431   0.866330   0.016860  -0.018698   0.001191   0.000944
     3  H   -0.014461   0.016860   0.012108   0.000453  -0.001048   0.000065
     4  C   -0.006993  -0.018698   0.000453  -0.005942   0.009204  -0.001275
     5  H   -0.023087   0.001191  -0.001048   0.009204   0.073724  -0.001360
     6  H   -0.001855   0.000944   0.000065  -0.001275  -0.001360   0.005330
     7  H   -0.018943   0.003015   0.002221   0.006849  -0.017129   0.002391
     8  C   -0.025666   0.028309  -0.015249   0.000060   0.002571  -0.000052
     9  O    0.001283  -0.013213   0.000017   0.000268  -0.000168  -0.000013
    10  O    0.000570  -0.010269   0.001353   0.000009  -0.000026  -0.000000
    11  C   -0.000053  -0.000281  -0.000147   0.000001   0.000004  -0.000000
    12  H   -0.000011   0.000106  -0.000009   0.000001   0.000001  -0.000000
    13  H   -0.000014   0.000140  -0.000001  -0.000001   0.000001   0.000000
    14  B    0.076988  -0.017419  -0.001990  -0.010379   0.000097   0.002274
    15  O   -0.004932  -0.000467   0.000096   0.000015   0.000021  -0.000012
    16  O   -0.005730   0.000163   0.000013   0.000701   0.000099  -0.000538
    17  C   -0.000028   0.000112   0.000003   0.000019  -0.000007  -0.000000
    18  C    0.000295  -0.000138  -0.000009  -0.000083   0.000008   0.000090
    19  C    0.000047   0.000011   0.000001  -0.000000   0.000000  -0.000001
    20  C    0.000006  -0.000001  -0.000001  -0.000000   0.000000  -0.000000
    21  C    0.000041   0.000003  -0.000000   0.000003   0.000001  -0.000010
    22  C    0.000002   0.000002   0.000000   0.000002  -0.000000  -0.000005
    23  H    0.000049  -0.000035  -0.000000  -0.000007   0.000002   0.000002
    24  H    0.000001  -0.000011  -0.000000  -0.000000   0.000000   0.000000
    25  H   -0.000011  -0.000001  -0.000000  -0.000000   0.000000  -0.000000
    26  H   -0.000021   0.000005   0.000003   0.000000  -0.000000   0.000000
    27  H    0.000000  -0.000000   0.000000  -0.000000  -0.000000   0.000000
    28  H   -0.000001   0.000001  -0.000000   0.000000   0.000000  -0.000000
    29  H    0.000003  -0.000000   0.000000   0.000000   0.000000  -0.000002
    30  H   -0.000005  -0.000001   0.000000  -0.000000  -0.000000   0.000001
    31  H    0.000089  -0.000011  -0.000001  -0.000005   0.000000   0.000001
    32  H    0.000001  -0.000000   0.000000  -0.000000  -0.000000   0.000000
    33  H   -0.000034   0.000001  -0.000000   0.000001   0.000002  -0.000004
    34  H   -0.000000  -0.000000  -0.000000  -0.000000   0.000000   0.000000
    35  C    0.000001   0.000038   0.000017  -0.000000  -0.000000   0.000000
    36  H    0.000000  -0.000018   0.000004  -0.000000  -0.000000   0.000000
    37  H   -0.000000  -0.000001  -0.000001   0.000000   0.000000  -0.000000
    38  H    0.000000  -0.000020   0.000002   0.000000  -0.000000  -0.000000
               7          8          9         10         11         12
     1  C   -0.018943  -0.025666   0.001283   0.000570  -0.000053  -0.000011
     2  C    0.003015   0.028309  -0.013213  -0.010269  -0.000281   0.000106
     3  H    0.002221  -0.015249   0.000017   0.001353  -0.000147  -0.000009
     4  C    0.006849   0.000060   0.000268   0.000009   0.000001   0.000001
     5  H   -0.017129   0.002571  -0.000168  -0.000026   0.000004   0.000001
     6  H    0.002391  -0.000052  -0.000013  -0.000000  -0.000000  -0.000000
     7  H    0.062110  -0.001059  -0.000019   0.000005  -0.000001  -0.000000
     8  C   -0.001059   0.009036  -0.016788  -0.003874   0.001289  -0.000185
     9  O   -0.000019  -0.016788   0.183491   0.002869  -0.000176  -0.000570
    10  O    0.000005  -0.003874   0.002869   0.049472  -0.000947  -0.000126
    11  C   -0.000001   0.001289  -0.000176  -0.000947  -0.004921   0.000997
    12  H   -0.000000  -0.000185  -0.000570  -0.000126   0.000997   0.001869
    13  H    0.000000  -0.000142  -0.000574  -0.000178   0.000976   0.000202
    14  B   -0.001486  -0.000073   0.000152   0.000010   0.000009  -0.000012
    15  O    0.000005   0.000279   0.000011  -0.000001   0.000000   0.000000
    16  O    0.000055   0.000010  -0.000000  -0.000000   0.000000   0.000000
    17  C    0.000003   0.000014  -0.000003  -0.000000   0.000000   0.000000
    18  C    0.000000   0.000006   0.000001   0.000000   0.000000  -0.000000
    19  C    0.000000  -0.000000  -0.000002  -0.000000  -0.000000   0.000000
    20  C   -0.000000   0.000000  -0.000000   0.000000  -0.000000   0.000000
    21  C   -0.000001   0.000000  -0.000000  -0.000000   0.000000   0.000000
    22  C   -0.000000  -0.000000  -0.000000  -0.000000  -0.000000   0.000000
    23  H    0.000000  -0.000003   0.000013   0.000000   0.000000  -0.000000
    24  H    0.000000  -0.000006   0.000003   0.000000   0.000000  -0.000001
    25  H   -0.000000   0.000000   0.000000  -0.000000   0.000000   0.000000
    26  H    0.000000  -0.000001  -0.000000   0.000000  -0.000000  -0.000000
    27  H    0.000000  -0.000000   0.000000   0.000000  -0.000000  -0.000000
    28  H   -0.000000   0.000000  -0.000000  -0.000000  -0.000000   0.000000
    29  H    0.000000  -0.000000   0.000000  -0.000000   0.000000  -0.000000
    30  H    0.000000  -0.000000   0.000000   0.000000  -0.000000  -0.000000
    31  H   -0.000000   0.000000   0.000000   0.000000   0.000000  -0.000000
    32  H    0.000000  -0.000000   0.000000   0.000000  -0.000000  -0.000000
    33  H   -0.000000   0.000000  -0.000000  -0.000000   0.000000   0.000000
    34  H   -0.000000   0.000000   0.000000   0.000000   0.000000  -0.000000
    35  C    0.000000  -0.000033  -0.000023  -0.000412   0.000894   0.000003
    36  H    0.000000  -0.000009   0.000004   0.000101  -0.000013  -0.000089
    37  H   -0.000000  -0.000002  -0.000001   0.000003   0.000166   0.000003
    38  H   -0.000000  -0.000009   0.000004   0.000109  -0.000063   0.000031
              13         14         15         16         17         18
     1  C   -0.000014   0.076988  -0.004932  -0.005730  -0.000028   0.000295
     2  C    0.000140  -0.017419  -0.000467   0.000163   0.000112  -0.000138
     3  H   -0.000001  -0.001990   0.000096   0.000013   0.000003  -0.000009
     4  C   -0.000001  -0.010379   0.000015   0.000701   0.000019  -0.000083
     5  H    0.000001   0.000097   0.000021   0.000099  -0.000007   0.000008
     6  H    0.000000   0.002274  -0.000012  -0.000538  -0.000000   0.000090
     7  H    0.000000  -0.001486   0.000005   0.000055   0.000003   0.000000
     8  C   -0.000142  -0.000073   0.000279   0.000010   0.000014   0.000006
     9  O   -0.000574   0.000152   0.000011  -0.000000  -0.000003   0.000001
    10  O   -0.000178   0.000010  -0.000001  -0.000000  -0.000000   0.000000
    11  C    0.000976   0.000009   0.000000   0.000000   0.000000   0.000000
    12  H    0.000202  -0.000012   0.000000   0.000000   0.000000  -0.000000
    13  H    0.001930   0.000006   0.000000  -0.000000  -0.000000   0.000000
    14  B    0.000006   0.026737  -0.008252  -0.009528   0.000731  -0.000500
    15  O    0.000000  -0.008252   0.050394   0.001151   0.000385   0.000053
    16  O   -0.000000  -0.009528   0.001151   0.052591  -0.000046   0.000350
    17  C   -0.000000   0.000731   0.000385  -0.000046  -0.001222  -0.002468
    18  C    0.000000  -0.000500   0.000053   0.000350  -0.002468   0.002555
    19  C   -0.000000   0.000599  -0.000649  -0.000114   0.000803  -0.000906
    20  C   -0.000000  -0.000050  -0.000337  -0.000021  -0.000204   0.000664
    21  C    0.000000   0.000192  -0.000167  -0.000768  -0.000873   0.000645
    22  C   -0.000000   0.000291  -0.000024  -0.000316   0.000591  -0.000337
    23  H    0.000000  -0.000090   0.000094  -0.000019   0.000103   0.000103
    24  H    0.000000   0.000012  -0.000050   0.000002  -0.000032   0.000002
    25  H    0.000000  -0.000148   0.000054   0.000050  -0.000138   0.000263
    26  H   -0.000000  -0.000040   0.000216   0.000019   0.000117  -0.000172
    27  H    0.000000   0.000006   0.000017   0.000001   0.000164  -0.000127
    28  H   -0.000000   0.000007  -0.000025   0.000000   0.000045   0.000010
    29  H    0.000000   0.000018   0.000001  -0.000089  -0.000017  -0.000044
    30  H    0.000000  -0.000035   0.000047   0.000047   0.000239  -0.000089
    31  H    0.000000  -0.000048  -0.000084   0.000001   0.000003   0.000177
    32  H    0.000000   0.000015   0.000000  -0.000023   0.000005   0.000065
    33  H   -0.000000  -0.000142   0.000022   0.000241  -0.000145   0.000036
    34  H    0.000000  -0.000050   0.000002   0.000022  -0.000121   0.000108
    35  C   -0.000049  -0.000000  -0.000000  -0.000000  -0.000000  -0.000000
    36  H    0.000032   0.000000   0.000000  -0.000000  -0.000000   0.000000
    37  H    0.000009   0.000000   0.000000   0.000000   0.000000   0.000000
    38  H   -0.000097  -0.000000  -0.000000   0.000000   0.000000  -0.000000
              19         20         21         22         23         24
     1  C    0.000047   0.000006   0.000041   0.000002   0.000049   0.000001
     2  C    0.000011  -0.000001   0.000003   0.000002  -0.000035  -0.000011
     3  H    0.000001  -0.000001  -0.000000   0.000000  -0.000000  -0.000000
     4  C   -0.000000  -0.000000   0.000003   0.000002  -0.000007  -0.000000
     5  H    0.000000   0.000000   0.000001  -0.000000   0.000002   0.000000
     6  H   -0.000001  -0.000000  -0.000010  -0.000005   0.000002   0.000000
     7  H    0.000000  -0.000000  -0.000001  -0.000000   0.000000   0.000000
     8  C   -0.000000   0.000000   0.000000  -0.000000  -0.000003  -0.000006
     9  O   -0.000002  -0.000000  -0.000000  -0.000000   0.000013   0.000003
    10  O   -0.000000   0.000000  -0.000000  -0.000000   0.000000   0.000000
    11  C   -0.000000  -0.000000   0.000000  -0.000000   0.000000   0.000000
    12  H    0.000000   0.000000   0.000000   0.000000  -0.000000  -0.000001
    13  H   -0.000000  -0.000000   0.000000  -0.000000   0.000000   0.000000
    14  B    0.000599  -0.000050   0.000192   0.000291  -0.000090   0.000012
    15  O   -0.000649  -0.000337  -0.000167  -0.000024   0.000094  -0.000050
    16  O   -0.000114  -0.000021  -0.000768  -0.000316  -0.000019   0.000002
    17  C    0.000803  -0.000204  -0.000873   0.000591   0.000103  -0.000032
    18  C   -0.000906   0.000664   0.000645  -0.000337   0.000103   0.000002
    19  C    0.002774  -0.000379  -0.000122   0.000300  -0.000151   0.000128
    20  C   -0.000379   0.001514   0.000358  -0.000066  -0.000003  -0.000006
    21  C   -0.000122   0.000358   0.003162  -0.000290  -0.000002   0.000001
    22  C    0.000300  -0.000066  -0.000290   0.001560  -0.000021  -0.000004
    23  H   -0.000151  -0.000003  -0.000002  -0.000021  -0.000260   0.000035
    24  H    0.000128  -0.000006   0.000001  -0.000004   0.000035  -0.000082
    25  H   -0.000520   0.000074   0.000039  -0.000255   0.000111  -0.000050
    26  H    0.000056  -0.000360  -0.000119   0.000017  -0.000001   0.000001
    27  H    0.000127  -0.000289  -0.000109   0.000040  -0.000000   0.000007
    28  H   -0.000032   0.000031   0.000004  -0.000001   0.000001  -0.000011
    29  H    0.000000   0.000001   0.000185  -0.000002   0.000000  -0.000000
    30  H    0.000034  -0.000265  -0.000521   0.000009   0.000001  -0.000000
    31  H   -0.000006   0.000030  -0.000005  -0.000013  -0.000000   0.000000
    32  H    0.000003  -0.000002  -0.000035   0.000009   0.000001  -0.000000
    33  H   -0.000112   0.000021   0.000071  -0.000265  -0.000011   0.000000
    34  H   -0.000102   0.000041   0.000126  -0.000276   0.000006   0.000002
    35  C   -0.000000   0.000000  -0.000000   0.000000  -0.000000  -0.000000
    36  H   -0.000000   0.000000  -0.000000  -0.000000   0.000000   0.000000
    37  H    0.000000  -0.000000   0.000000  -0.000000   0.000000   0.000000
    38  H    0.000000  -0.000000   0.000000   0.000000  -0.000000  -0.000000
              25         26         27         28         29         30
     1  C   -0.000011  -0.000021   0.000000  -0.000001   0.000003  -0.000005
     2  C   -0.000001   0.000005  -0.000000   0.000001  -0.000000  -0.000001
     3  H   -0.000000   0.000003   0.000000  -0.000000   0.000000   0.000000
     4  C   -0.000000   0.000000  -0.000000   0.000000   0.000000  -0.000000
     5  H    0.000000  -0.000000  -0.000000   0.000000   0.000000  -0.000000
     6  H   -0.000000   0.000000   0.000000  -0.000000  -0.000002   0.000001
     7  H   -0.000000   0.000000   0.000000  -0.000000   0.000000   0.000000
     8  C    0.000000  -0.000001  -0.000000   0.000000  -0.000000  -0.000000
     9  O    0.000000  -0.000000   0.000000  -0.000000   0.000000   0.000000
    10  O   -0.000000   0.000000   0.000000  -0.000000  -0.000000   0.000000
    11  C    0.000000  -0.000000  -0.000000  -0.000000   0.000000  -0.000000
    12  H    0.000000  -0.000000  -0.000000   0.000000  -0.000000  -0.000000
    13  H    0.000000  -0.000000   0.000000  -0.000000   0.000000   0.000000
    14  B   -0.000148  -0.000040   0.000006   0.000007   0.000018  -0.000035
    15  O    0.000054   0.000216   0.000017  -0.000025   0.000001   0.000047
    16  O    0.000050   0.000019   0.000001   0.000000  -0.000089   0.000047
    17  C   -0.000138   0.000117   0.000164   0.000045  -0.000017   0.000239
    18  C    0.000263  -0.000172  -0.000127   0.000010  -0.000044  -0.000089
    19  C   -0.000520   0.000056   0.000127  -0.000032   0.000000   0.000034
    20  C    0.000074  -0.000360  -0.000289   0.000031   0.000001  -0.000265
    21  C    0.000039  -0.000119  -0.000109   0.000004   0.000185  -0.000521
    22  C   -0.000255   0.000017   0.000040  -0.000001  -0.000002   0.000009
    23  H    0.000111  -0.000001  -0.000000   0.000001   0.000000   0.000001
    24  H   -0.000050   0.000001   0.000007  -0.000011  -0.000000  -0.000000
    25  H    0.000858  -0.000013  -0.000073   0.000011  -0.000000  -0.000014
    26  H   -0.000013   0.000202   0.000141  -0.000021  -0.000000   0.000138
    27  H   -0.000073   0.000141   0.000020  -0.000012   0.000001   0.000118
    28  H    0.000011  -0.000021  -0.000012  -0.000093  -0.000000  -0.000004
    29  H   -0.000000  -0.000000   0.000001  -0.000000  -0.000064  -0.000081
    30  H   -0.000014   0.000138   0.000118  -0.000004  -0.000081   0.001073
    31  H    0.000001  -0.000023  -0.000006   0.000001   0.000030   0.000033
    32  H   -0.000004   0.000000   0.000002  -0.000000  -0.000012   0.000013
    33  H    0.000148  -0.000003  -0.000012   0.000001   0.000003  -0.000016
    34  H    0.000116  -0.000011  -0.000046   0.000001   0.000009  -0.000049
    35  C   -0.000000   0.000000   0.000000  -0.000000  -0.000000   0.000000
    36  H    0.000000  -0.000000   0.000000  -0.000000   0.000000   0.000000
    37  H    0.000000  -0.000000  -0.000000   0.000000   0.000000  -0.000000
    38  H   -0.000000   0.000000  -0.000000   0.000000  -0.000000  -0.000000
              31         32         33         34         35         36
     1  C    0.000089   0.000001  -0.000034  -0.000000   0.000001   0.000000
     2  C   -0.000011  -0.000000   0.000001  -0.000000   0.000038  -0.000018
     3  H   -0.000001   0.000000  -0.000000  -0.000000   0.000017   0.000004
     4  C   -0.000005  -0.000000   0.000001  -0.000000  -0.000000  -0.000000
     5  H    0.000000  -0.000000   0.000002   0.000000  -0.000000  -0.000000
     6  H    0.000001   0.000000  -0.000004   0.000000   0.000000   0.000000
     7  H   -0.000000   0.000000  -0.000000  -0.000000   0.000000   0.000000
     8  C    0.000000  -0.000000   0.000000   0.000000  -0.000033  -0.000009
     9  O    0.000000   0.000000  -0.000000   0.000000  -0.000023   0.000004
    10  O    0.000000   0.000000  -0.000000   0.000000  -0.000412   0.000101
    11  C    0.000000  -0.000000   0.000000   0.000000   0.000894  -0.000013
    12  H   -0.000000  -0.000000   0.000000  -0.000000   0.000003  -0.000089
    13  H    0.000000   0.000000  -0.000000   0.000000  -0.000049   0.000032
    14  B   -0.000048   0.000015  -0.000142  -0.000050  -0.000000   0.000000
    15  O   -0.000084   0.000000   0.000022   0.000002  -0.000000   0.000000
    16  O    0.000001  -0.000023   0.000241   0.000022  -0.000000  -0.000000
    17  C    0.000003   0.000005  -0.000145  -0.000121  -0.000000  -0.000000
    18  C    0.000177   0.000065   0.000036   0.000108  -0.000000   0.000000
    19  C   -0.000006   0.000003  -0.000112  -0.000102  -0.000000  -0.000000
    20  C    0.000030  -0.000002   0.000021   0.000041   0.000000   0.000000
    21  C   -0.000005  -0.000035   0.000071   0.000126  -0.000000  -0.000000
    22  C   -0.000013   0.000009  -0.000265  -0.000276   0.000000  -0.000000
    23  H   -0.000000   0.000001  -0.000011   0.000006  -0.000000   0.000000
    24  H    0.000000  -0.000000   0.000000   0.000002  -0.000000   0.000000
    25  H    0.000001  -0.000004   0.000148   0.000116  -0.000000   0.000000
    26  H   -0.000023   0.000000  -0.000003  -0.000011   0.000000  -0.000000
    27  H   -0.000006   0.000002  -0.000012  -0.000046   0.000000   0.000000
    28  H    0.000001  -0.000000   0.000001   0.000001  -0.000000  -0.000000
    29  H    0.000030  -0.000012   0.000003   0.000009  -0.000000   0.000000
    30  H    0.000033   0.000013  -0.000016  -0.000049   0.000000   0.000000
    31  H   -0.000302   0.000001   0.000000   0.000003  -0.000000   0.000000
    32  H    0.000001  -0.000105  -0.000030   0.000009   0.000000   0.000000
    33  H    0.000000  -0.000030   0.000284   0.000092  -0.000000  -0.000000
    34  H    0.000003   0.000009   0.000092   0.000238  -0.000000   0.000000
    35  C   -0.000000   0.000000  -0.000000  -0.000000   0.000428  -0.000213
    36  H    0.000000   0.000000  -0.000000   0.000000  -0.000213   0.000515
    37  H    0.000000  -0.000000   0.000000   0.000000  -0.000116   0.000024
    38  H   -0.000000  -0.000000   0.000000  -0.000000  -0.000173  -0.000261
              37         38
     1  C   -0.000000   0.000000
     2  C   -0.000001  -0.000020
     3  H   -0.000001   0.000002
     4  C    0.000000   0.000000
     5  H    0.000000  -0.000000
     6  H   -0.000000  -0.000000
     7  H   -0.000000  -0.000000
     8  C   -0.000002  -0.000009
     9  O   -0.000001   0.000004
    10  O    0.000003   0.000109
    11  C    0.000166  -0.000063
    12  H    0.000003   0.000031
    13  H    0.000009  -0.000097
    14  B    0.000000  -0.000000
    15  O    0.000000  -0.000000
    16  O    0.000000   0.000000
    17  C    0.000000   0.000000
    18  C    0.000000  -0.000000
    19  C    0.000000   0.000000
    20  C   -0.000000  -0.000000
    21  C    0.000000   0.000000
    22  C   -0.000000   0.000000
    23  H    0.000000  -0.000000
    24  H    0.000000  -0.000000
    25  H    0.000000  -0.000000
    26  H   -0.000000   0.000000
    27  H   -0.000000  -0.000000
    28  H    0.000000   0.000000
    29  H    0.000000  -0.000000
    30  H   -0.000000  -0.000000
    31  H    0.000000  -0.000000
    32  H   -0.000000  -0.000000
    33  H    0.000000   0.000000
    34  H    0.000000  -0.000000
    35  C   -0.000116  -0.000173
    36  H    0.000024  -0.000261
    37  H   -0.000138   0.000002
    38  H    0.000002   0.000561
 Mulliken charges and spin densities:
               1          2
     1  C   -0.104135   0.816891
     2  C   -0.037404   0.805214
     3  H    0.032967   0.000296
     4  C    0.014531  -0.025797
     5  H    0.044591   0.044102
     6  H    0.029144   0.005971
     7  H    0.040680   0.038016
     8  C    0.247198  -0.021577
     9  O   -0.303371   0.156566
    10  O   -0.281347   0.038667
    11  C    0.110592  -0.002266
    12  H    0.030267   0.002212
    13  H    0.030016   0.002240
    14  B    0.124950   0.057902
    15  O   -0.227468   0.037861
    16  O   -0.230266   0.038320
    17  C   -0.084849  -0.001968
    18  C   -0.086783   0.000558
    19  C    0.066228   0.001788
    20  C    0.069496   0.000757
    21  C    0.065317   0.001808
    22  C    0.069132   0.000947
    23  H    0.027347  -0.000086
    24  H    0.022782  -0.000058
    25  H    0.025653   0.000497
    26  H    0.022420   0.000127
    27  H    0.031758  -0.000030
    28  H    0.022232  -0.000090
    29  H    0.022663  -0.000062
    30  H    0.026250   0.000672
    31  H    0.026913  -0.000136
    32  H    0.022148  -0.000087
    33  H    0.022838   0.000150
    34  H    0.031992   0.000120
    35  C   -0.023590   0.000360
    36  H    0.033239   0.000078
    37  H    0.032850  -0.000051
    38  H    0.033017   0.000087
 Sum of Mulliken charges =  -0.00000   2.00000
 Mulliken charges and spin densities with hydrogens summed into heavy atoms:
               1          2
     1  C   -0.104135   0.816891
     2  C   -0.004437   0.805510
     4  C    0.128946   0.062293
     8  C    0.247198  -0.021577
     9  O   -0.303371   0.156566
    10  O   -0.281347   0.038667
    11  C    0.170875   0.002185
    14  B    0.124950   0.057902
    15  O   -0.227468   0.037861
    16  O   -0.230266   0.038320
    17  C   -0.084849  -0.001968
    18  C   -0.086783   0.000558
    19  C    0.142011   0.002141
    20  C    0.145906   0.000764
    21  C    0.141143   0.002282
    22  C    0.146110   0.001129
    35  C    0.075516   0.000474
 Electronic spatial extent (au):  <R**2>=          10062.9071
 Charge=              0.0000 electrons
 Dipole moment (field-independent basis, Debye):
    X=             -1.1862    Y=             -0.9014    Z=             -1.7713  Tot=              2.3145
 Quadrupole moment (field-independent basis, Debye-Ang):
   XX=            -79.2307   YY=            -95.9010   ZZ=           -106.5655
   XY=              7.6520   XZ=              3.3609   YZ=             -5.6978
 Traceless Quadrupole moment (field-independent basis, Debye-Ang):
   XX=             14.6684   YY=             -2.0019   ZZ=            -12.6664
   XY=              7.6520   XZ=              3.3609   YZ=             -5.6978
 Octapole moment (field-independent basis, Debye-Ang**2):
  XXX=            655.3142  YYY=           -358.5979  ZZZ=            -80.2624  XYY=            297.1400
  XXY=           -156.8694  XXZ=            -26.3810  XZZ=            285.0585  YZZ=           -156.0630
  YYZ=            -53.1883  XYZ=              7.6358
 Hexadecapole moment (field-independent basis, Debye-Ang**3):
 XXXX=          -6989.8180 YYYY=          -3817.3335 ZZZZ=           -842.3491 XXXY=             74.1333
 XXXZ=            282.4204 YYYX=            146.1613 YYYZ=             60.8694 ZZZX=            316.9520
 ZZZY=            184.1208 XXYY=          -2084.9309 XXZZ=          -1506.5954 YYZZ=           -916.1820
 XXYZ=             59.9543 YYXZ=            139.2076 ZZXY=             27.7943
 N-N= 1.259610182284D+03 E-N=-4.375906750530D+03  KE= 7.903436518095D+02

 Atomic contributions to Alpha molecular orbitals:
 Alpha occ 47 OE=-0.401 is C35-p=0.1382 C11-p=0.1117
 Alpha occ 48 OE=-0.398 is C21-p=0.1771 C19-p=0.1219 H29-s=0.1149
 Alpha occ 49 OE=-0.397 is C19-p=0.1070
 Alpha occ 50 OE=-0.392 is C35-p=0.2644 H37-s=0.1996
 Alpha occ 51 OE=-0.385 is C35-p=0.1039
 Alpha occ 52 OE=-0.375 is C20-p=0.1692 C22-p=0.1406
 Alpha occ 53 OE=-0.370 is C19-p=0.1568 C21-p=0.1548 H24-s=0.1177 H29-s=0.1163
 Alpha occ 54 OE=-0.366 is C21-p=0.1245 C19-p=0.1236
 Alpha occ 55 OE=-0.362 is C35-p=0.2080 H36-s=0.1273 H38-s=0.1043 O9-p=0.1041
 Alpha occ 56 OE=-0.354 is C1-p=0.0559
 Alpha occ 57 OE=-0.352 is O10-p=0.1537 C11-p=0.1059
 Alpha occ 58 OE=-0.349 is O10-p=0.1032
 Alpha occ 59 OE=-0.341 is O16-p=0.1767 O15-p=0.1696 B14-p=0.1439
 Alpha occ 60 OE=-0.336 is O15-p=0.3660 O16-p=0.3524
 Alpha occ 61 OE=-0.313 is C18-p=0.1748 C17-p=0.1748 O16-p=0.1017
 Alpha occ 62 OE=-0.307 is O10-p=0.4433 O9-p=0.2731
 Alpha occ 63 OE=-0.281 is O9-p=0.7543 O10-p=0.1027
 Alpha occ 64 OE=-0.278 is O15-p=0.2925 O16-p=0.2867
 Alpha occ 65 OE=-0.233 is C2-p=0.6324 O9-p=0.1068
 Alpha occ 66 OE=-0.214 is C1-p=0.6308
 Alpha vir 67 OE=0.039 is C8-p=0.5170 O9-p=0.1687 C2-p=0.1050
 Alpha vir 68 OE=0.050 is H27-s=0.1535 H34-s=0.1531 H25-s=0.1019 H30-s=0.1004
 Alpha vir 69 OE=0.068 is B14-p=0.3075 H13-s=0.1334 H12-s=0.1184 H37-s=0.1172
 Alpha vir 70 OE=0.069 is B14-p=0.2248 H3-s=0.1645 H37-s=0.1054 H12-s=0.1046 H13-s=0.1041
 Alpha vir 71 OE=0.081 is H5-s=0.2986 H7-s=0.2493 H6-s=0.1433 C4-s=-0.1214
 Alpha vir 72 OE=0.088 is H34-s=0.1080 H27-s=0.1047
 Alpha vir 73 OE=0.095 is H29-s=0.2886 H32-s=0.2107 H24-s=0.2066 H28-s=0.1200
 Alpha vir 74 OE=0.102 is H26-s=0.2739 H31-s=0.2424 H32-s=0.1760
 Alpha vir 75 OE=0.102 is H23-s=0.2494 H33-s=0.2080 H28-s=0.2076
 Alpha vir 76 OE=0.110 is H38-s=0.1887 H36-s=0.1504 H12-s=0.1485 H13-s=0.1042
 Alpha vir 77 OE=0.113 is H3-s=0.4543 H13-s=0.1206 H12-s=0.1074
 Alpha vir 78 OE=0.117 is H13-s=0.2781 H36-s=0.2770 H12-s=0.1849 H38-s=0.1846
 Alpha vir 79 OE=0.121 is H34-s=0.1386 H29-s=0.1114
 Alpha vir 80 OE=0.125 is H30-s=0.2396 H25-s=0.2335
 Alpha vir 81 OE=0.128 is H37-s=0.4222 C11-p=0.1024
 Alpha vir 82 OE=0.134 is H28-s=0.1016
 Alpha vir 83 OE=0.138 is H7-s=0.3910 H5-s=0.3509
 Alpha vir 84 OE=0.143 is H6-s=0.3393 H26-s=0.1347 H37-s=0.1041
 Alpha vir 85 OE=0.147 is H37-s=0.1899 C11-p=0.1805 H23-s=0.1018
 Alpha vir 86 OE=0.152 is C11-p=0.1573 H33-s=0.1062

 Atomic contributions to Beta  molecular orbitals:
 Beta  occ 45 OE=-0.403 is C22-p=0.1908 C20-p=0.1582 H32-s=0.1259 H28-s=0.1096
 Beta  occ 46 OE=-0.401 is C20-p=0.1018
 Beta  occ 47 OE=-0.397 is C20-p=0.1365 C22-p=0.1054
 Beta  occ 48 OE=-0.396 is C4-p=0.1663 C19-p=0.1042
 Beta  occ 49 OE=-0.395 is C35-p=0.1885 C4-p=0.1326
 Beta  occ 50 OE=-0.391 is C35-p=0.2232 H37-s=0.1637 C4-p=0.1002
 Beta  occ 51 OE=-0.381 is C22-p=0.1355
 Beta  occ 52 OE=-0.373 is C20-p=0.1211
 Beta  occ 53 OE=-0.370 is C21-p=0.1567 C19-p=0.1561 H24-s=0.1180 H29-s=0.1168
 Beta  occ 54 OE=-0.365 is C19-p=0.1179 C21-p=0.1047
 Beta  occ 55 OE=-0.356 is C35-p=0.1875 H36-s=0.1284 C11-p=0.1263 O9-p=0.1152
 Beta  occ 56 OE=-0.352 is C20-p=0.0943
 Beta  occ 57 OE=-0.350 is O10-p=0.2781 C11-p=0.1683 C35-p=0.1242
 Beta  occ 58 OE=-0.340 is O16-p=0.1421 O15-p=0.1387 C1-p=0.1374 B14-p=0.1045
 Beta  occ 59 OE=-0.335 is O16-p=0.2038 O15-p=0.1868 B14-p=0.1374
 Beta  occ 60 OE=-0.333 is O15-p=0.2922 O16-p=0.2685
 Beta  occ 61 OE=-0.312 is C18-p=0.1771 C17-p=0.1766 O16-p=0.1011
 Beta  occ 62 OE=-0.294 is O10-p=0.4722 O9-p=0.3024
 Beta  occ 63 OE=-0.275 is O9-p=0.7508
 Beta  occ 64 OE=-0.273 is O15-p=0.3094 O16-p=0.3021
 Beta  vir 65 OE=-0.111 is C2-p=0.6035 O9-p=0.1478
 Beta  vir 66 OE=-0.091 is C1-p=0.5893 B14-p=0.1358
 Beta  vir 67 OE=0.049 is H34-s=0.1560 H27-s=0.1491 H30-s=0.1035
 Beta  vir 68 OE=0.062 is C8-p=0.3423 C2-p=0.1424 O9-p=0.1317
 Beta  vir 69 OE=0.069 is H13-s=0.2564 H37-s=0.2390 H12-s=0.2182 H36-s=0.1813 H38-s=0.1804 C35-s=-0.1312
 Beta  vir 70 OE=0.082 is H3-s=0.2533 B14-p=0.2487
 Beta  vir 71 OE=0.088 is H5-s=0.2688 B14-p=0.1242 H7-s=0.1114
 Beta  vir 72 OE=0.089 is H27-s=0.1212 H34-s=0.1178
 Beta  vir 73 OE=0.097 is H29-s=0.2331 H32-s=0.2080 H24-s=0.1792 H28-s=0.1444 H3-s=0.1010
 Beta  vir 74 OE=0.102 is H26-s=0.2525 H31-s=0.1533 H33-s=0.1343 H32-s=0.1317 H30-s=0.1300 H25-s=0.1066
 Beta  vir 75 OE=0.103 is H23-s=0.1916 H28-s=0.1719 H33-s=0.1385
 Beta  vir 76 OE=0.111 is H38-s=0.2760 H12-s=0.2748 H36-s=0.1917 H13-s=0.1614
 Beta  vir 77 OE=0.118 is H13-s=0.3108 H36-s=0.3091 H38-s=0.1670 H12-s=0.1460
 Beta  vir 78 OE=0.122 is H3-s=0.2430 B14-p=0.1165
 Beta  vir 79 OE=0.122 is H34-s=0.1268 H24-s=0.1082 H6-s=0.1006 H29-s=0.1005
 Beta  vir 80 OE=0.126 is H3-s=0.2255 H30-s=0.2002 H25-s=0.1969
 Beta  vir 81 OE=0.130 is H37-s=0.4605
 Beta  vir 82 OE=0.135 is H28-s=0.1090
 Beta  vir 83 OE=0.143 is H7-s=0.3091 H5-s=0.2307 H6-s=0.1505
 Beta  vir 84 OE=0.145 is H6-s=0.2686 H26-s=0.1592 H5-s=0.1273 H31-s=0.1022
 
                          Isotropic Fermi Contact Couplings
        Atom                 a.u.       MegaHertz       Gauss      10(-4) cm-1
     1  C(13)              0.07813      43.91383      15.66955      14.64808
     2  C(13)              0.07588      42.65309      15.21968      14.22754
     3  H(1)               0.00367       8.20737       2.92859       2.73768
     4  C(13)              0.01651       9.28071       3.31159       3.09571
     5  H(1)               0.02007      44.84839      16.00302      14.95981
     6  H(1)               0.00155       3.45908       1.23429       1.15383
     7  H(1)               0.01663      37.16808      13.26250      12.39794
     8  C(13)              0.00923       5.18738       1.85099       1.73032
     9  O(17)              0.03299      -9.99929      -3.56799      -3.33540
    10  O(17)              0.00663      -2.00873      -0.71676      -0.67004
    11  C(13)             -0.00131      -0.73870      -0.26359      -0.24640
    12  H(1)               0.00151       3.37465       1.20416       1.12566
    13  H(1)               0.00151       3.38160       1.20664       1.12798
    14  B(11)              0.01489      10.67994       3.81087       3.56244
    15  O(17)              0.00747      -2.26459      -0.80806      -0.75539
    16  O(17)              0.01610      -4.87927      -1.74104      -1.62755
    17  C(13)             -0.00156      -0.87736      -0.31307      -0.29266
    18  C(13)              0.00005       0.02979       0.01063       0.00994
    19  C(13)              0.00110       0.61831       0.22063       0.20625
    20  C(13)              0.00073       0.40828       0.14569       0.13619
    21  C(13)              0.00113       0.63597       0.22693       0.21214
    22  C(13)              0.00089       0.49967       0.17829       0.16667
    23  H(1)              -0.00003      -0.06390      -0.02280      -0.02132
    24  H(1)               0.00001       0.02107       0.00752       0.00703
    25  H(1)               0.00016       0.35492       0.12664       0.11839
    26  H(1)              -0.00002      -0.05494      -0.01961      -0.01833
    27  H(1)              -0.00004      -0.08664      -0.03091      -0.02890
    28  H(1)              -0.00003      -0.05665      -0.02021      -0.01890
    29  H(1)               0.00001       0.02947       0.01052       0.00983
    30  H(1)               0.00023       0.51756       0.18468       0.17264
    31  H(1)              -0.00002      -0.03589      -0.01281      -0.01197
    32  H(1)              -0.00003      -0.06268      -0.02237      -0.02091
    33  H(1)              -0.00001      -0.02851      -0.01017      -0.00951
    34  H(1)               0.00001       0.03150       0.01124       0.01051
    35  C(13)              0.00016       0.09245       0.03299       0.03084
    36  H(1)              -0.00001      -0.01620      -0.00578      -0.00540
    37  H(1)              -0.00003      -0.05835      -0.02082      -0.01946
    38  H(1)              -0.00000      -0.00676      -0.00241      -0.00225
 --------------------------------------------------------
       Center         ----  Spin Dipole Couplings  ----
                      3XX-RR        3YY-RR        3ZZ-RR
 --------------------------------------------------------
     1   Atom       -0.378741      0.239056      0.139685
     2   Atom        0.550104     -0.429836     -0.120268
     3   Atom        0.004558     -0.052875      0.048317
     4   Atom       -0.027784     -0.001515      0.029299
     5   Atom       -0.006616     -0.008915      0.015531
     6   Atom       -0.009415      0.004084      0.005331
     7   Atom        0.007334      0.000798     -0.008132
     8   Atom       -0.042388      0.063436     -0.021048
     9   Atom        0.342294     -0.288140     -0.054154
    10   Atom        0.093044     -0.068232     -0.024812
    11   Atom       -0.001997      0.006260     -0.004263
    12   Atom       -0.003390      0.006739     -0.003349
    13   Atom       -0.002365      0.005136     -0.002771
    14   Atom        0.039461     -0.017142     -0.022319
    15   Atom       -0.068690      0.057741      0.010948
    16   Atom       -0.050880      0.051468     -0.000588
    17   Atom        0.007313     -0.004397     -0.002917
    18   Atom        0.007403     -0.003513     -0.003890
    19   Atom        0.004859     -0.002224     -0.002634
    20   Atom        0.003799     -0.002663     -0.001136
    21   Atom        0.000628      0.001052     -0.001680
    22   Atom        0.003743     -0.001989     -0.001754
    23   Atom        0.005505     -0.002759     -0.002746
    24   Atom        0.004079     -0.001099     -0.002980
    25   Atom        0.003322     -0.001561     -0.001761
    26   Atom        0.002142     -0.001846     -0.000296
    27   Atom        0.002390     -0.001321     -0.001069
    28   Atom        0.002626     -0.001884     -0.000742
    29   Atom        0.000453      0.001931     -0.002384
    30   Atom        0.001654     -0.000246     -0.001407
    31   Atom        0.001120      0.000729     -0.001849
    32   Atom        0.001559     -0.000483     -0.001076
    33   Atom        0.002849     -0.001924     -0.000925
    34   Atom        0.002286     -0.001045     -0.001240
    35   Atom       -0.001533      0.002874     -0.001341
    36   Atom       -0.001749      0.001992     -0.000243
    37   Atom       -0.000983      0.002047     -0.001064
    38   Atom       -0.000142      0.001488     -0.001345
 --------------------------------------------------------
                        XY            XZ            YZ
 --------------------------------------------------------
     1   Atom       -0.233399     -0.215486      0.662149
     2   Atom       -0.162291      0.581791     -0.106267
     3   Atom       -0.016611     -0.032675      0.017503
     4   Atom       -0.027784      0.030216     -0.035160
     5   Atom        0.000804      0.015585     -0.003368
     6   Atom        0.000411      0.000857     -0.016763
     7   Atom       -0.015511      0.007106     -0.010386
     8   Atom        0.003443     -0.014748      0.028475
     9   Atom       -0.103733      0.401939     -0.066430
    10   Atom       -0.022982      0.115716     -0.029668
    11   Atom        0.002523      0.001090     -0.002265
    12   Atom       -0.000471     -0.000633     -0.001800
    13   Atom        0.004088      0.000139      0.001024
    14   Atom        0.014922      0.002983      0.027891
    15   Atom       -0.013109     -0.007836      0.117471
    16   Atom       -0.033338     -0.044839      0.112253
    17   Atom        0.000548      0.001187     -0.000276
    18   Atom        0.005688      0.001166      0.000150
    19   Atom       -0.002843     -0.001902      0.001619
    20   Atom        0.000529      0.003154      0.000057
    21   Atom        0.004148      0.001504      0.002841
    22   Atom        0.002232     -0.002446     -0.000845
    23   Atom       -0.002385     -0.002943      0.000920
    24   Atom       -0.002866      0.000356     -0.000195
    25   Atom       -0.000655     -0.000493      0.000100
    26   Atom        0.001402      0.002901      0.000892
    27   Atom        0.000518      0.001145      0.000106
    28   Atom       -0.000521      0.002458     -0.000389
    29   Atom        0.003246      0.000155      0.000150
    30   Atom        0.002054      0.000845      0.000580
    31   Atom        0.004346      0.002279      0.002429
    32   Atom        0.001998     -0.001467     -0.000948
    33   Atom        0.000791     -0.002448     -0.000273
    34   Atom        0.001030     -0.000555     -0.000194
    35   Atom        0.002253     -0.001140     -0.002200
    36   Atom        0.001173     -0.000785     -0.002609
    37   Atom        0.001154     -0.000363     -0.000957
    38   Atom        0.002543     -0.001197     -0.001529
 --------------------------------------------------------


 ---------------------------------------------------------------------------------
              Anisotropic Spin Dipole Couplings in Principal Axis System
 ---------------------------------------------------------------------------------

       Atom             a.u.   MegaHertz   Gauss  10(-4) cm-1        Axes

              Baa    -0.4747   -63.696   -22.728   -21.247 -0.0388 -0.6864  0.7262
     1 C(13)  Bbb    -0.4558   -61.162   -21.824   -20.402  0.9710  0.1456  0.1895
              Bcc     0.9305   124.859    44.553    41.648 -0.2358  0.7125  0.6609
 
              Baa    -0.4678   -62.779   -22.401   -20.941 -0.2544  0.7197  0.6460
     2 C(13)  Bbb    -0.4464   -59.907   -21.376   -19.983  0.4493  0.6795 -0.5801
              Bcc     0.9143   122.686    43.777    40.924  0.8564 -0.1426  0.4963
 
              Baa    -0.0582   -31.026   -11.071   -10.349  0.2077  0.9734 -0.0963
     3 H(1)   Bbb    -0.0120    -6.417    -2.290    -2.140  0.8549 -0.1328  0.5015
              Bcc     0.0702    37.443    13.361    12.490 -0.4753  0.1865  0.8598
 
              Baa    -0.0465    -6.233    -2.224    -2.079  0.8902  0.4280 -0.1564
     4 C(13)  Bbb    -0.0228    -3.061    -1.092    -1.021 -0.2412  0.7338  0.6350
              Bcc     0.0693     9.294     3.316     3.100  0.3866 -0.5276  0.7565
 
              Baa    -0.0155    -8.250    -2.944    -2.752  0.8270 -0.3341 -0.4522
     5 H(1)   Bbb    -0.0083    -4.442    -1.585    -1.482  0.3330  0.9391 -0.0850
              Bcc     0.0238    12.692     4.529     4.234  0.4530 -0.0803  0.8879
 
              Baa    -0.0123    -6.583    -2.349    -2.196 -0.2917  0.6868  0.6657
     6 H(1)   Bbb    -0.0091    -4.880    -1.741    -1.628  0.9564  0.2173  0.1950
              Bcc     0.0215    11.464     4.091     3.824  0.0107 -0.6936  0.7203
 
              Baa    -0.0156    -8.325    -2.970    -2.777  0.2324  0.6677  0.7072
     7 H(1)   Bbb    -0.0088    -4.712    -1.681    -1.572  0.6701  0.4171 -0.6140
              Bcc     0.0244    13.037     4.652     4.349  0.7050 -0.6166  0.3505
 
              Baa    -0.0525    -7.039    -2.512    -2.348  0.8325 -0.1554  0.5318
     8 C(13)  Bbb    -0.0197    -2.643    -0.943    -0.881 -0.5540 -0.2492  0.7944
              Bcc     0.0721     9.681     3.455     3.229 -0.0091  0.9559  0.2935
 
              Baa    -0.3063    22.161     7.907     7.392 -0.2237  0.7936  0.5658
     9 O(17)  Bbb    -0.3029    21.916     7.820     7.310 -0.4923 -0.5930  0.6372
              Bcc     0.6091   -44.077   -15.728   -14.702  0.8412 -0.1360  0.5234
 
              Baa    -0.1018     7.369     2.629     2.458 -0.4274  0.4162  0.8025
    10 O(17)  Bbb    -0.0673     4.873     1.739     1.625  0.3355  0.8974 -0.2867
              Bcc     0.1692   -12.241    -4.368    -4.083  0.8395 -0.1467  0.5232
 
              Baa    -0.0055    -0.742    -0.265    -0.247 -0.4499  0.2604  0.8543
    11 C(13)  Bbb    -0.0018    -0.236    -0.084    -0.079  0.8601 -0.1314  0.4930
              Bcc     0.0073     0.978     0.349     0.326  0.2406  0.9565 -0.1649
 
              Baa    -0.0042    -2.266    -0.808    -0.756  0.6397  0.1509  0.7536
    12 H(1)   Bbb    -0.0028    -1.503    -0.536    -0.501  0.7679 -0.0819 -0.6354
              Bcc     0.0071     3.768     1.345     1.257 -0.0342  0.9851 -0.1683
 
              Baa    -0.0042    -2.253    -0.804    -0.751  0.8885 -0.4106  0.2051
    13 H(1)   Bbb    -0.0028    -1.501    -0.535    -0.501 -0.2284 -0.0080  0.9735
              Bcc     0.0070     3.753     1.339     1.252  0.3981  0.9118  0.1009
 
              Baa    -0.0485    -8.298    -2.961    -2.768  0.0920 -0.6863  0.7215
    14 B(11)  Bbb     0.0037     0.631     0.225     0.210 -0.3321  0.6620  0.6719
              Bcc     0.0448     7.668     2.736     2.558  0.9387  0.3014  0.1670
 
              Baa    -0.0858     6.205     2.214     2.070 -0.1388 -0.6349  0.7600
    15 O(17)  Bbb    -0.0694     5.021     1.792     1.675  0.9880 -0.0366  0.1498
              Bcc     0.1551   -11.226    -4.006    -3.745 -0.0673  0.7717  0.6324
 
              Baa    -0.0961     6.951     2.480     2.319  0.3987 -0.4965  0.7710
    16 O(17)  Bbb    -0.0588     4.257     1.519     1.420  0.8810  0.4410 -0.1716
              Bcc     0.1549   -11.208    -3.999    -3.739 -0.2548  0.7477  0.6133
 
              Baa    -0.0045    -0.603    -0.215    -0.201 -0.0673  0.9731  0.2204
    17 C(13)  Bbb    -0.0030    -0.399    -0.142    -0.133 -0.0997 -0.2264  0.9689
              Bcc     0.0075     1.003     0.358     0.334  0.9927  0.0432  0.1123
 
              Baa    -0.0060    -0.804    -0.287    -0.268 -0.3976  0.9041  0.1565
    18 C(13)  Bbb    -0.0039    -0.528    -0.188    -0.176 -0.0129 -0.1760  0.9843
              Bcc     0.0099     1.331     0.475     0.444  0.9175  0.3894  0.0816
 
              Baa    -0.0041    -0.550    -0.196    -0.183  0.0820  0.7198 -0.6893
    19 C(13)  Bbb    -0.0024    -0.317    -0.113    -0.106  0.4167  0.6035  0.6798
              Bcc     0.0065     0.867     0.309     0.289  0.9054 -0.3430 -0.2504
 
              Baa    -0.0029    -0.384    -0.137    -0.128 -0.3401  0.7271  0.5965
    20 C(13)  Bbb    -0.0025    -0.336    -0.120    -0.112  0.2798  0.6838 -0.6739
              Bcc     0.0054     0.720     0.257     0.240  0.8978  0.0623  0.4360
 
              Baa    -0.0039    -0.529    -0.189    -0.177 -0.4371  0.6906 -0.5762
    21 C(13)  Bbb    -0.0023    -0.305    -0.109    -0.102 -0.6555  0.1941  0.7298
              Bcc     0.0062     0.834     0.298     0.278  0.6159  0.6967  0.3679
 
              Baa    -0.0028    -0.370    -0.132    -0.123 -0.3032  0.9509  0.0623
    22 C(13)  Bbb    -0.0027    -0.360    -0.129    -0.120  0.3409  0.0472  0.9389
              Bcc     0.0054     0.730     0.260     0.244  0.8899  0.3059 -0.3385
 
              Baa    -0.0038    -2.001    -0.714    -0.668  0.1871 -0.3874  0.9027
    23 H(1)   Bbb    -0.0034    -1.791    -0.639    -0.597  0.3417  0.8872  0.3099
              Bcc     0.0071     3.792     1.353     1.265  0.9210 -0.2505 -0.2984
 
              Baa    -0.0030    -1.601    -0.571    -0.534 -0.0228  0.0676  0.9975
    24 H(1)   Bbb    -0.0024    -1.265    -0.451    -0.422  0.4080  0.9115 -0.0524
              Bcc     0.0054     2.866     1.023     0.956  0.9127 -0.4058  0.0484
 
              Baa    -0.0018    -0.969    -0.346    -0.323  0.0666 -0.2110  0.9752
    25 H(1)   Bbb    -0.0016    -0.875    -0.312    -0.292  0.1477  0.9687  0.1995
              Bcc     0.0035     1.844     0.658     0.615  0.9868 -0.1308 -0.0957
 
              Baa    -0.0023    -1.224    -0.437    -0.408 -0.4182  0.8831  0.2128
    26 H(1)   Bbb    -0.0022    -1.179    -0.421    -0.393 -0.4181 -0.3951  0.8180
              Bcc     0.0045     2.403     0.858     0.802  0.8064  0.2531  0.5344
 
              Baa    -0.0014    -0.773    -0.276    -0.258 -0.3016  0.6032  0.7384
    27 H(1)   Bbb    -0.0014    -0.721    -0.257    -0.241  0.0782  0.7875 -0.6114
              Bcc     0.0028     1.495     0.533     0.499  0.9502  0.1267  0.2847
 
              Baa    -0.0021    -1.123    -0.401    -0.375 -0.3358  0.5522  0.7631
    28 H(1)   Bbb    -0.0019    -1.007    -0.359    -0.336  0.3398  0.8266 -0.4487
              Bcc     0.0040     2.130     0.760     0.710  0.8785 -0.1086  0.4652
 
              Baa    -0.0024    -1.277    -0.456    -0.426 -0.1030  0.0428  0.9938
    29 H(1)   Bbb    -0.0021    -1.139    -0.406    -0.380  0.7750 -0.6228  0.1071
              Bcc     0.0045     2.416     0.862     0.806  0.6235  0.7812  0.0310
 
              Baa    -0.0016    -0.879    -0.314    -0.293  0.0183 -0.4055  0.9139
    30 H(1)   Bbb    -0.0015    -0.826    -0.295    -0.275 -0.5698  0.7469  0.3428
              Bcc     0.0032     1.705     0.608     0.569  0.8216  0.5271  0.2174
 
              Baa    -0.0035    -1.872    -0.668    -0.624 -0.5109  0.7573 -0.4068
    31 H(1)   Bbb    -0.0031    -1.643    -0.586    -0.548 -0.5413  0.0842  0.8366
              Bcc     0.0066     3.514     1.254     1.172  0.6678  0.6476  0.3669
 
              Baa    -0.0018    -0.946    -0.337    -0.315 -0.0084  0.6007  0.7994
    32 H(1)   Bbb    -0.0017    -0.897    -0.320    -0.299 -0.6074  0.6320 -0.4813
              Bcc     0.0035     1.843     0.658     0.615  0.7944  0.4896 -0.3596
 
              Baa    -0.0022    -1.171    -0.418    -0.391  0.4347 -0.5388  0.7216
    33 H(1)   Bbb    -0.0020    -1.051    -0.375    -0.351  0.1371  0.8315  0.5383
              Bcc     0.0042     2.223     0.793     0.741  0.8901  0.1351 -0.4353
 
              Baa    -0.0014    -0.730    -0.260    -0.243 -0.1130  0.7509  0.6506
    34 H(1)   Bbb    -0.0013    -0.693    -0.247    -0.231  0.2882 -0.6019  0.7447
              Bcc     0.0027     1.423     0.508     0.475  0.9509  0.2717 -0.1484
 
              Baa    -0.0026    -0.350    -0.125    -0.117  0.8425 -0.1373  0.5210
    35 C(13)  Bbb    -0.0022    -0.296    -0.106    -0.099 -0.3924  0.5063  0.7679
              Bcc     0.0048     0.646     0.231     0.216  0.3692  0.8513 -0.3727
 
              Baa    -0.0021    -1.117    -0.398    -0.372  0.9691 -0.1567  0.1903
    36 H(1)   Bbb    -0.0020    -1.047    -0.374    -0.349 -0.0705  0.5637  0.8230
              Bcc     0.0041     2.164     0.772     0.722  0.2362  0.8110 -0.5353
 
              Baa    -0.0014    -0.745    -0.266    -0.249  0.8356 -0.1318  0.5333
    37 H(1)   Bbb    -0.0013    -0.703    -0.251    -0.234 -0.4529  0.3842  0.8045
              Bcc     0.0027     1.448     0.517     0.483  0.3110  0.9138 -0.2614
 
              Baa    -0.0021    -1.114    -0.397    -0.372  0.6225 -0.1114  0.7747
    38 H(1)   Bbb    -0.0020    -1.043    -0.372    -0.348 -0.5493  0.6429  0.5338
              Bcc     0.0040     2.157     0.770     0.719  0.5575  0.7578 -0.3390
 

 ---------------------------------------------------------------------------------

 No NMR shielding tensors so no spin-rotation constants.
 Leave Link  601 at Tue Aug 18 12:51:10 2026, MaxMem=  2684354560 cpu:               0.7 elap:               0.7
 (Enter /mnt/data/applications/G16/g16/l701.exe)
 ... and contract with generalized density number  0.
 Compute integral first derivatives.
 R6Disp: Adding Grimme-D3(BJ) dispersion energy 1st derivatives to the gradient.
   1 Symmetry operations used in ECPInt.
 ECPInt:  NShTT=   13695 NPrTT=  100063 LenC2=   12378 LenP2D=   51044.
 LDataN:  DoStor=T MaxTD1= 5 Len=  102
 D1PCM: PCM CHGder 1st derivatives, ID1Alg=3 FixD1E=F DoIter=F DoCFld=F I1PDM=0.
 GePol: Maximum number of non-zero 1st derivatives   =     221
 Leave Link  701 at Tue Aug 18 12:51:35 2026, MaxMem=  2684354560 cpu:              25.0 elap:              25.0
 (Enter /mnt/data/applications/G16/g16/l702.exe)
 L702 exits ... SP integral derivatives will be done elsewhere.
 Leave Link  702 at Tue Aug 18 12:51:36 2026, MaxMem=  2684354560 cpu:               0.0 elap:               0.0
 (Enter /mnt/data/applications/G16/g16/l703.exe)
 Integral derivatives from FoFJK, PRISM(SPDF).
 Compute integral first derivatives, UseDBF=F ICtDFT=           0.
 Calling FoFJK, ICntrl=      2127 FMM=F ISym2X=0 I1Cent= 0 IOpClX= 1 NMat=1 NMatS=1 NMatT=0.
 FoFJK:  IHMeth= 1 ICntrl=    2127 DoSepK=F KAlg= 0 I1Cent=           0 FoldK=F
 IRaf=         0 NMat=       1 IRICut=       1 DoRegI=T DoRafI=F ISym2E= 0 IDoP0=0 IntGTp=1.
 FoFCou: FMM=F IPFlag=           0 FMFlag=      100000 FMFlg1=         800
         NFxFlg=           0 DoJE=F BraDBF=F KetDBF=F FulRan=T
         wScrn=  0.000000 ICntrl=      2127 IOpCl=  1 I1Cent=           0 NGrid=           0
         NMat0=    1 NMatS0=      1 NMatT0=    0 NMatD0=    1 NMtDS0=    0 NMtDT0=    0
 Symmetry not used in FoFCou.
 Leave Link  703 at Tue Aug 18 12:56:05 2026, MaxMem=  2684354560 cpu:             268.7 elap:             269.1
 (Enter /mnt/data/applications/G16/g16/l716.exe)
 Dipole        =-4.66679897D-01-3.54647341D-01-6.96887215D-01
 -------------------------------------------------------------------
 Center     Atomic                   Forces (Hartrees/Bohr)
 Number     Number              X              Y              Z
 -------------------------------------------------------------------
      1        6           0.000007308   -0.000000342    0.000002844
      2        6          -0.000003205   -0.000008102    0.000000937
      3        1          -0.000002427    0.000000150   -0.000001160
      4        6          -0.000008193   -0.000003596   -0.000013957
      5        1           0.000002878   -0.000001217    0.000001727
      6        1           0.000003122    0.000001378   -0.000001552
      7        1           0.000001601    0.000002722   -0.000000487
      8        6           0.000008588   -0.000002974   -0.000010672
      9        8          -0.000006731    0.000002739    0.000006313
     10        8          -0.000002958   -0.000007032    0.000001823
     11        6          -0.000004439    0.000006016    0.000001326
     12        1           0.000000196    0.000000343    0.000001509
     13        1           0.000002208   -0.000000548    0.000002408
     14        5           0.000011891    0.000007636    0.000001731
     15        8          -0.000004513    0.000006647   -0.000007902
     16        8          -0.000001501   -0.000005764    0.000006573
     17        6           0.000002326   -0.000004483    0.000001242
     18        6          -0.000006613    0.000000651   -0.000000835
     19        6           0.000005768    0.000002416    0.000006218
     20        6          -0.000002096    0.000004776   -0.000002611
     21        6           0.000000498   -0.000001782    0.000000187
     22        6           0.000004857    0.000004650   -0.000001194
     23        1          -0.000001260   -0.000002095   -0.000001091
     24        1          -0.000000344    0.000000141    0.000001730
     25        1          -0.000001017   -0.000000961    0.000002316
     26        1          -0.000000732    0.000002491    0.000001487
     27        1          -0.000001512    0.000001045    0.000001234
     28        1          -0.000001681   -0.000002728    0.000003358
     29        1           0.000000447   -0.000000522   -0.000001232
     30        1          -0.000001718    0.000000847   -0.000000976
     31        1          -0.000000699    0.000001110   -0.000002074
     32        1           0.000000106   -0.000003300    0.000000812
     33        1           0.000001775   -0.000003129   -0.000000456
     34        1           0.000000228   -0.000001221    0.000000435
     35        6           0.000002129    0.000002947   -0.000000862
     36        1          -0.000001292    0.000001336    0.000000354
     37        1          -0.000000837   -0.000001343    0.000000717
     38        1          -0.000002159    0.000001097   -0.000000222
 -------------------------------------------------------------------
 Cartesian Forces:  Max     0.000013957 RMS     0.000003793
 Leave Link  716 at Tue Aug 18 12:56:05 2026, MaxMem=  2684354560 cpu:               0.0 elap:               0.0
 (Enter /mnt/data/applications/G16/g16/l103.exe)

 GradGradGradGradGradGradGradGradGradGradGradGradGradGradGradGradGradGrad
 Berny optimization.
 FormGI is forming the generalized inverse of G from B-inverse, IUseBI=4.
 Internal  Forces:  Max     0.000010797 RMS     0.000002272
 Search for a local minimum.
 Step number   1 out of a maximum of  204
 All quantities printed in internal units (Hartrees-Bohrs-Radians)
 RMS Force = .22716D-05 SwitMx=.10000D-02 MixMth= 2
 Mixed Optimization -- En-DIIS/RFO-DIIS
 Second derivative matrix not updated -- first step.
 ITU=  0
     Eigenvalues ---    0.00368   0.00372   0.00472   0.00473   0.00588
     Eigenvalues ---    0.00629   0.00750   0.00800   0.00935   0.01091
     Eigenvalues ---    0.01317   0.01354   0.01392   0.01451   0.01684
     Eigenvalues ---    0.02128   0.02286   0.03814   0.04059   0.05380
     Eigenvalues ---    0.05454   0.05464   0.05551   0.05554   0.05616
     Eigenvalues ---    0.05676   0.05694   0.05757   0.05761   0.05773
     Eigenvalues ---    0.05776   0.05825   0.06129   0.07081   0.07369
     Eigenvalues ---    0.07449   0.11137   0.11256   0.12549   0.13588
     Eigenvalues ---    0.14624   0.15997   0.16000   0.16000   0.16000
     Eigenvalues ---    0.16000   0.16000   0.16000   0.16000   0.16000
     Eigenvalues ---    0.16000   0.16000   0.16000   0.16000   0.16000
     Eigenvalues ---    0.16000   0.16000   0.16000   0.16000   0.16000
     Eigenvalues ---    0.17562   0.21673   0.21918   0.22001   0.24912
     Eigenvalues ---    0.24932   0.24998   0.25000   0.25000   0.25000
     Eigenvalues ---    0.25117   0.28748   0.29417   0.29445   0.30153
     Eigenvalues ---    0.30161   0.31004   0.32248   0.32911   0.33079
     Eigenvalues ---    0.33483   0.33492   0.33556   0.33557   0.33584
     Eigenvalues ---    0.33586   0.33588   0.33650   0.33650   0.33686
     Eigenvalues ---    0.33687   0.33690   0.33690   0.33705   0.33709
     Eigenvalues ---    0.33825   0.33956   0.33957   0.34169   0.34591
     Eigenvalues ---    0.35729   0.37177   0.37895   0.38855   0.44117
     Eigenvalues ---    0.48526   0.53948   0.91993
 RFO step:  Lambda=-1.14505516D-08 EMin= 3.68244360D-03
 Linear search not attempted -- first point.
 Iteration  1 RMS(Cart)=  0.00048419 RMS(Int)=  0.00000004
 Iteration  2 RMS(Cart)=  0.00000009 RMS(Int)=  0.00000000
 ITry= 1 IFail=0 DXMaxC= 1.55D-03 DCOld= 1.00D+10 DXMaxT= 3.00D-01 DXLimC= 3.00D+00 Rises=F
 Variable       Old X    -DE/DX   Delta X   Delta X   Delta X     New X
                                 (Linear)    (Quad)   (Total)
    R1        2.75580  -0.00001   0.00000  -0.00003  -0.00003   2.75577
    R2        2.83693  -0.00001   0.00000  -0.00002  -0.00002   2.83691
    R3        2.90531  -0.00001   0.00000  -0.00002  -0.00002   2.90529
    R4        2.07046  -0.00000   0.00000  -0.00000  -0.00000   2.07045
    R5        2.74518  -0.00000   0.00000  -0.00000  -0.00000   2.74518
    R6        2.09207   0.00000   0.00000   0.00001   0.00001   2.09208
    R7        2.07626  -0.00000   0.00000  -0.00001  -0.00001   2.07625
    R8        2.08912  -0.00000   0.00000  -0.00000  -0.00000   2.08912
    R9        2.32028   0.00001   0.00000   0.00001   0.00001   2.32029
   R10        2.56079  -0.00000   0.00000  -0.00001  -0.00001   2.56078
   R11        2.73140   0.00001   0.00000   0.00002   0.00002   2.73142
   R12        2.08197  -0.00000   0.00000  -0.00000  -0.00000   2.08197
   R13        2.08211   0.00000   0.00000   0.00001   0.00001   2.08212
   R14        2.86004   0.00000   0.00000   0.00001   0.00001   2.86005
   R15        2.60306   0.00001   0.00000   0.00002   0.00002   2.60308
   R16        2.60224   0.00001   0.00000   0.00002   0.00002   2.60226
   R17        2.76371   0.00000   0.00000  -0.00000  -0.00000   2.76371
   R18        2.76552   0.00000   0.00000   0.00001   0.00001   2.76553
   R19        2.97244   0.00000   0.00000  -0.00001  -0.00001   2.97243
   R20        2.89140   0.00000   0.00000   0.00000   0.00000   2.89141
   R21        2.87644   0.00000   0.00000   0.00001   0.00001   2.87644
   R22        2.89084   0.00000   0.00000   0.00001   0.00001   2.89084
   R23        2.87660  -0.00000   0.00000  -0.00001  -0.00001   2.87659
   R24        2.07862  -0.00000   0.00000  -0.00001  -0.00001   2.07861
   R25        2.07856   0.00000   0.00000   0.00000   0.00000   2.07856
   R26        2.07824   0.00000   0.00000   0.00000   0.00000   2.07824
   R27        2.07403  -0.00000   0.00000  -0.00000  -0.00000   2.07402
   R28        2.08034   0.00000   0.00000   0.00000   0.00000   2.08034
   R29        2.07924  -0.00000   0.00000  -0.00001  -0.00001   2.07923
   R30        2.07857   0.00000   0.00000   0.00000   0.00000   2.07857
   R31        2.07831   0.00000   0.00000   0.00000   0.00000   2.07831
   R32        2.07861   0.00000   0.00000   0.00000   0.00000   2.07861
   R33        2.07925   0.00000   0.00000   0.00001   0.00001   2.07925
   R34        2.07404  -0.00000   0.00000  -0.00001  -0.00001   2.07404
   R35        2.08031   0.00000   0.00000   0.00000   0.00000   2.08031
   R36        2.08083   0.00000   0.00000   0.00000   0.00000   2.08083
   R37        2.08038  -0.00000   0.00000  -0.00001  -0.00001   2.08037
   R38        2.08086  -0.00000   0.00000  -0.00000  -0.00000   2.08085
    A1        2.06521   0.00001   0.00000   0.00002   0.00002   2.06523
    A2        2.08805  -0.00001   0.00000  -0.00004  -0.00004   2.08801
    A3        2.12621   0.00001   0.00000   0.00002   0.00002   2.12623
    A4        2.12330   0.00000   0.00000   0.00000   0.00000   2.12330
    A5        2.10278  -0.00000   0.00000  -0.00002  -0.00002   2.10276
    A6        2.05687   0.00000   0.00000   0.00001   0.00001   2.05688
    A7        1.92214   0.00000   0.00000   0.00001   0.00001   1.92215
    A8        1.94620   0.00000   0.00000   0.00001   0.00001   1.94621
    A9        1.94304   0.00000   0.00000   0.00001   0.00001   1.94305
   A10        1.89577  -0.00000   0.00000  -0.00002  -0.00002   1.89575
   A11        1.85076  -0.00000   0.00000  -0.00003  -0.00003   1.85073
   A12        1.90293   0.00000   0.00000   0.00001   0.00001   1.90294
   A13        2.17433  -0.00000   0.00000  -0.00001  -0.00001   2.17432
   A14        1.95601   0.00000   0.00000   0.00001   0.00001   1.95603
   A15        2.15283  -0.00000   0.00000  -0.00000  -0.00000   2.15283
   A16        2.02295   0.00000   0.00000   0.00000   0.00000   2.02295
   A17        1.89902   0.00000   0.00000   0.00001   0.00001   1.89902
   A18        1.89937  -0.00000   0.00000  -0.00001  -0.00001   1.89936
   A19        1.87452  -0.00000   0.00000  -0.00001  -0.00001   1.87451
   A20        1.87707   0.00000   0.00000   0.00000   0.00000   1.87708
   A21        1.95654   0.00000   0.00000   0.00000   0.00000   1.95654
   A22        1.95617   0.00000   0.00000  -0.00000  -0.00000   1.95617
   A23        2.15264  -0.00000   0.00000  -0.00001  -0.00001   2.15264
   A24        2.15106   0.00000   0.00000   0.00001   0.00001   2.15106
   A25        1.97941  -0.00000   0.00000  -0.00000  -0.00000   1.97941
   A26        1.86626  -0.00000   0.00000  -0.00002  -0.00002   1.86623
   A27        1.86754  -0.00000   0.00000  -0.00001  -0.00001   1.86753
   A28        1.78603   0.00000   0.00000   0.00000   0.00000   1.78603
   A29        1.85881  -0.00000   0.00000  -0.00001  -0.00001   1.85880
   A30        1.89635  -0.00000   0.00000   0.00001   0.00001   1.89636
   A31        1.97598  -0.00000   0.00000  -0.00002  -0.00002   1.97597
   A32        2.00532  -0.00000   0.00000   0.00001   0.00001   2.00533
   A33        1.92846   0.00000   0.00000   0.00001   0.00001   1.92846
   A34        1.78607   0.00000   0.00000  -0.00001  -0.00001   1.78605
   A35        1.86046   0.00000   0.00000   0.00001   0.00001   1.86047
   A36        1.89435  -0.00000   0.00000  -0.00001  -0.00001   1.89434
   A37        1.97596  -0.00000   0.00000   0.00001   0.00001   1.97597
   A38        2.00501  -0.00000   0.00000  -0.00000  -0.00000   2.00501
   A39        1.92909   0.00000   0.00000   0.00000   0.00000   1.92909
   A40        1.94232  -0.00000   0.00000  -0.00000  -0.00000   1.94232
   A41        1.89985   0.00000   0.00000   0.00000   0.00000   1.89985
   A42        1.94504  -0.00000   0.00000  -0.00001  -0.00001   1.94503
   A43        1.88675   0.00000   0.00000   0.00001   0.00001   1.88676
   A44        1.89631   0.00000   0.00000  -0.00000  -0.00000   1.89631
   A45        1.89203   0.00000   0.00000   0.00000   0.00000   1.89203
   A46        1.94939  -0.00000   0.00000  -0.00001  -0.00001   1.94938
   A47        1.92800   0.00000   0.00000   0.00001   0.00001   1.92801
   A48        1.91413   0.00000   0.00000   0.00000   0.00000   1.91414
   A49        1.89660   0.00000   0.00000   0.00001   0.00001   1.89661
   A50        1.88886   0.00000   0.00000  -0.00000  -0.00000   1.88886
   A51        1.88529  -0.00000   0.00000  -0.00000  -0.00000   1.88529
   A52        1.90062   0.00000   0.00000   0.00001   0.00001   1.90062
   A53        1.94440  -0.00000   0.00000  -0.00001  -0.00001   1.94439
   A54        1.94223  -0.00000   0.00000  -0.00000  -0.00000   1.94223
   A55        1.89150   0.00000   0.00000   0.00000   0.00000   1.89150
   A56        1.88850   0.00000   0.00000   0.00000   0.00000   1.88850
   A57        1.89513  -0.00000   0.00000  -0.00000  -0.00000   1.89513
   A58        1.91456   0.00000   0.00000   0.00001   0.00001   1.91456
   A59        1.94880  -0.00000   0.00000  -0.00000  -0.00000   1.94880
   A60        1.92797  -0.00000   0.00000  -0.00000  -0.00000   1.92797
   A61        1.88893  -0.00000   0.00000  -0.00000  -0.00000   1.88893
   A62        1.88554  -0.00000   0.00000  -0.00001  -0.00001   1.88553
   A63        1.89651   0.00000   0.00000   0.00001   0.00001   1.89652
   A64        1.93513   0.00000   0.00000   0.00000   0.00000   1.93513
   A65        1.91591  -0.00000   0.00000  -0.00000  -0.00000   1.91591
   A66        1.93531  -0.00000   0.00000  -0.00000  -0.00000   1.93531
   A67        1.89143  -0.00000   0.00000  -0.00000  -0.00000   1.89142
   A68        1.89364  -0.00000   0.00000  -0.00000  -0.00000   1.89364
   A69        1.89128   0.00000   0.00000   0.00000   0.00000   1.89128
    D1        1.58849  -0.00000   0.00000  -0.00005  -0.00005   1.58844
    D2       -1.57685  -0.00000   0.00000  -0.00028  -0.00028  -1.57712
    D3       -1.64386  -0.00000   0.00000  -0.00010  -0.00010  -1.64396
    D4        1.47400  -0.00000   0.00000  -0.00033  -0.00033   1.47367
    D5        1.06860   0.00000   0.00000   0.00009   0.00009   1.06869
    D6       -3.10864  -0.00000   0.00000   0.00007   0.00007  -3.10857
    D7       -0.97912   0.00000   0.00000   0.00011   0.00011  -0.97901
    D8       -1.98015   0.00000   0.00000   0.00014   0.00014  -1.98001
    D9        0.12579   0.00000   0.00000   0.00013   0.00013   0.12592
   D10        2.25531   0.00000   0.00000   0.00017   0.00017   2.25548
   D11        0.06339  -0.00000   0.00000  -0.00022  -0.00022   0.06317
   D12       -3.06466  -0.00000   0.00000  -0.00022  -0.00022  -3.06488
   D13        3.11095  -0.00000   0.00000  -0.00027  -0.00027   3.11068
   D14       -0.01709  -0.00000   0.00000  -0.00027  -0.00027  -0.01736
   D15       -0.00638  -0.00000   0.00000  -0.00004  -0.00004  -0.00642
   D16        3.13945   0.00000   0.00000   0.00017   0.00017   3.13962
   D17        3.11235  -0.00000   0.00000  -0.00026  -0.00026   3.11209
   D18       -0.02500  -0.00000   0.00000  -0.00005  -0.00005  -0.02505
   D19        3.13332  -0.00000   0.00000  -0.00010  -0.00010   3.13322
   D20       -0.00409   0.00000   0.00000   0.00011   0.00011  -0.00398
   D21       -1.01054   0.00000   0.00000   0.00005   0.00005  -1.01049
   D22        1.02995   0.00000   0.00000   0.00006   0.00006   1.03000
   D23       -3.13201   0.00000   0.00000   0.00005   0.00005  -3.13197
   D24        1.05263   0.00000   0.00000   0.00001   0.00001   1.05264
   D25       -3.14131   0.00000   0.00000   0.00001   0.00001  -3.14130
   D26       -1.05213   0.00000   0.00000   0.00001   0.00001  -1.05212
   D27       -1.03243  -0.00000   0.00000   0.00000   0.00000  -1.03242
   D28        1.05682  -0.00000   0.00000   0.00000   0.00000   1.05682
   D29       -3.13718   0.00000   0.00000   0.00000   0.00000  -3.13718
   D30        3.13789  -0.00000   0.00000  -0.00000  -0.00000   3.13789
   D31       -1.05604  -0.00000   0.00000  -0.00000  -0.00000  -1.05605
   D32        1.03313  -0.00000   0.00000  -0.00000  -0.00000   1.03313
   D33       -2.95083   0.00000   0.00000   0.00006   0.00006  -2.95077
   D34        0.17842   0.00000   0.00000   0.00006   0.00006   0.17848
   D35       -2.99595  -0.00000   0.00000  -0.00001  -0.00001  -2.99596
   D36        0.15798  -0.00000   0.00000  -0.00001  -0.00001   0.15797
   D37       -0.40686  -0.00000   0.00000  -0.00008  -0.00008  -0.40694
   D38        1.67099  -0.00000   0.00000  -0.00011  -0.00011   1.67089
   D39       -2.53461  -0.00000   0.00000  -0.00010  -0.00010  -2.53471
   D40       -0.39522  -0.00000   0.00000  -0.00004  -0.00004  -0.39527
   D41        1.68330   0.00000   0.00000  -0.00003  -0.00003   1.68326
   D42       -2.52171   0.00000   0.00000  -0.00003  -0.00003  -2.52173
   D43        0.48456   0.00000   0.00000   0.00008   0.00008   0.48464
   D44       -1.51080  -0.00000   0.00000   0.00007   0.00007  -1.51073
   D45        2.53350  -0.00000   0.00000   0.00006   0.00006   2.53356
   D46       -1.50886   0.00000   0.00000   0.00010   0.00010  -1.50876
   D47        2.77898   0.00000   0.00000   0.00009   0.00009   2.77907
   D48        0.54009   0.00000   0.00000   0.00008   0.00008   0.54017
   D49        2.53604   0.00000   0.00000   0.00010   0.00010   2.53614
   D50        0.54069   0.00000   0.00000   0.00009   0.00009   0.54078
   D51       -1.69820  -0.00000   0.00000   0.00008   0.00008  -1.69812
   D52       -1.08990  -0.00000   0.00000  -0.00003  -0.00003  -1.08993
   D53        0.98774  -0.00000   0.00000  -0.00002  -0.00002   0.98772
   D54        3.07357  -0.00000   0.00000  -0.00002  -0.00002   3.07355
   D55        0.85931   0.00000   0.00000  -0.00004  -0.00004   0.85927
   D56        2.93695   0.00000   0.00000  -0.00003  -0.00003   2.93692
   D57       -1.26040   0.00000   0.00000  -0.00003  -0.00003  -1.26043
   D58        3.13679  -0.00000   0.00000  -0.00004  -0.00004   3.13675
   D59       -1.06876   0.00000   0.00000  -0.00002  -0.00002  -1.06878
   D60        1.01708   0.00000   0.00000  -0.00002  -0.00002   1.01705
   D61        0.94686   0.00000   0.00000  -0.00003  -0.00003   0.94683
   D62        3.05999   0.00000   0.00000  -0.00003  -0.00003   3.05996
   D63       -1.14711   0.00000   0.00000  -0.00002  -0.00002  -1.14713
   D64       -1.04111  -0.00000   0.00000  -0.00005  -0.00005  -1.04115
   D65        1.07202  -0.00000   0.00000  -0.00004  -0.00004   1.07198
   D66       -3.13508  -0.00000   0.00000  -0.00004  -0.00004  -3.13512
   D67        2.98018  -0.00000   0.00000  -0.00004  -0.00004   2.98014
   D68       -1.18988   0.00000   0.00000  -0.00003  -0.00003  -1.18991
   D69        0.88621   0.00000   0.00000  -0.00003  -0.00003   0.88618
   D70        0.98412  -0.00000   0.00000  -0.00003  -0.00003   0.98408
   D71        3.06938  -0.00000   0.00000  -0.00003  -0.00003   3.06935
   D72       -1.09611  -0.00000   0.00000  -0.00004  -0.00004  -1.09615
   D73        2.93431   0.00000   0.00000  -0.00004  -0.00004   2.93427
   D74       -1.26361   0.00000   0.00000  -0.00003  -0.00003  -1.26364
   D75        0.85408   0.00000   0.00000  -0.00004  -0.00004   0.85404
   D76       -1.07128   0.00000   0.00000  -0.00003  -0.00003  -1.07132
   D77        1.01398   0.00000   0.00000  -0.00003  -0.00003   1.01395
   D78        3.13167  -0.00000   0.00000  -0.00004  -0.00004   3.13163
   D79       -1.15109  -0.00000   0.00000  -0.00006  -0.00006  -1.15116
   D80        0.94286  -0.00000   0.00000  -0.00006  -0.00006   0.94280
   D81        3.05545  -0.00000   0.00000  -0.00006  -0.00006   3.05540
   D82       -3.13762  -0.00000   0.00000  -0.00004  -0.00004  -3.13765
   D83       -1.04366  -0.00000   0.00000  -0.00003  -0.00003  -1.04370
   D84        1.06893   0.00000   0.00000  -0.00003  -0.00003   1.06890
   D85        0.88340  -0.00000   0.00000  -0.00005  -0.00005   0.88335
   D86        2.97735   0.00000   0.00000  -0.00005  -0.00005   2.97731
   D87       -1.19324   0.00000   0.00000  -0.00004  -0.00004  -1.19328
         Item               Value     Threshold  Converged?
 Maximum Force            0.000011     0.000450     YES
 RMS     Force            0.000002     0.000300     YES
 Maximum Displacement     0.001549     0.001800     YES
 RMS     Displacement     0.000484     0.001200     YES
 Predicted change in Energy=-5.725240D-09
 Optimization completed.
    -- Stationary point found.
                           ----------------------------
                           !   Optimized Parameters   !
                           ! (Angstroms and Degrees)  !
 --------------------------                            --------------------------
 ! Name  Definition              Value          Derivative Info.                !
 --------------------------------------------------------------------------------
 ! R1    R(1,2)                  1.4583         -DE/DX =    0.0                 !
 ! R2    R(1,4)                  1.5012         -DE/DX =    0.0                 !
 ! R3    R(1,14)                 1.5374         -DE/DX =    0.0                 !
 ! R4    R(2,3)                  1.0956         -DE/DX =    0.0                 !
 ! R5    R(2,8)                  1.4527         -DE/DX =    0.0                 !
 ! R6    R(4,5)                  1.1071         -DE/DX =    0.0                 !
 ! R7    R(4,6)                  1.0987         -DE/DX =    0.0                 !
 ! R8    R(4,7)                  1.1055         -DE/DX =    0.0                 !
 ! R9    R(8,9)                  1.2278         -DE/DX =    0.0                 !
 ! R10   R(8,10)                 1.3551         -DE/DX =    0.0                 !
 ! R11   R(10,11)                1.4454         -DE/DX =    0.0                 !
 ! R12   R(11,12)                1.1017         -DE/DX =    0.0                 !
 ! R13   R(11,13)                1.1018         -DE/DX =    0.0                 !
 ! R14   R(11,35)                1.5135         -DE/DX =    0.0                 !
 ! R15   R(14,15)                1.3775         -DE/DX =    0.0                 !
 ! R16   R(14,16)                1.377          -DE/DX =    0.0                 !
 ! R17   R(15,17)                1.4625         -DE/DX =    0.0                 !
 ! R18   R(16,18)                1.4634         -DE/DX =    0.0                 !
 ! R19   R(17,18)                1.5729         -DE/DX =    0.0                 !
 ! R20   R(17,19)                1.5301         -DE/DX =    0.0                 !
 ! R21   R(17,20)                1.5221         -DE/DX =    0.0                 !
 ! R22   R(18,21)                1.5298         -DE/DX =    0.0                 !
 ! R23   R(18,22)                1.5222         -DE/DX =    0.0                 !
 ! R24   R(19,23)                1.1            -DE/DX =    0.0                 !
 ! R25   R(19,24)                1.0999         -DE/DX =    0.0                 !
 ! R26   R(19,25)                1.0998         -DE/DX =    0.0                 !
 ! R27   R(20,26)                1.0975         -DE/DX =    0.0                 !
 ! R28   R(20,27)                1.1009         -DE/DX =    0.0                 !
 ! R29   R(20,28)                1.1003         -DE/DX =    0.0                 !
 ! R30   R(21,29)                1.0999         -DE/DX =    0.0                 !
 ! R31   R(21,30)                1.0998         -DE/DX =    0.0                 !
 ! R32   R(21,31)                1.1            -DE/DX =    0.0                 !
 ! R33   R(22,32)                1.1003         -DE/DX =    0.0                 !
 ! R34   R(22,33)                1.0975         -DE/DX =    0.0                 !
 ! R35   R(22,34)                1.1009         -DE/DX =    0.0                 !
 ! R36   R(35,36)                1.1011         -DE/DX =    0.0                 !
 ! R37   R(35,37)                1.1009         -DE/DX =    0.0                 !
 ! R38   R(35,38)                1.1011         -DE/DX =    0.0                 !
 ! A1    A(2,1,4)              118.3279         -DE/DX =    0.0                 !
 ! A2    A(2,1,14)             119.6365         -DE/DX =    0.0                 !
 ! A3    A(4,1,14)             121.8231         -DE/DX =    0.0                 !
 ! A4    A(1,2,3)              121.656          -DE/DX =    0.0                 !
 ! A5    A(1,2,8)              120.4807         -DE/DX =    0.0                 !
 ! A6    A(3,2,8)              117.8499         -DE/DX =    0.0                 !
 ! A7    A(1,4,5)              110.1305         -DE/DX =    0.0                 !
 ! A8    A(1,4,6)              111.5089         -DE/DX =    0.0                 !
 ! A9    A(1,4,7)              111.328          -DE/DX =    0.0                 !
 ! A10   A(5,4,6)              108.6195         -DE/DX =    0.0                 !
 ! A11   A(5,4,7)              106.0407         -DE/DX =    0.0                 !
 ! A12   A(6,4,7)              109.0298         -DE/DX =    0.0                 !
 ! A13   A(2,8,9)              124.5799         -DE/DX =    0.0                 !
 ! A14   A(2,8,10)             112.0714         -DE/DX =    0.0                 !
 ! A15   A(9,8,10)             123.3483         -DE/DX =    0.0                 !
 ! A16   A(8,10,11)            115.9065         -DE/DX =    0.0                 !
 ! A17   A(10,11,12)           108.8057         -DE/DX =    0.0                 !
 ! A18   A(10,11,13)           108.8256         -DE/DX =    0.0                 !
 ! A19   A(10,11,35)           107.402          -DE/DX =    0.0                 !
 ! A20   A(12,11,13)           107.5483         -DE/DX =    0.0                 !
 ! A21   A(12,11,35)           112.1015         -DE/DX =    0.0                 !
 ! A22   A(13,11,35)           112.0803         -DE/DX =    0.0                 !
 ! A23   A(1,14,15)            123.3374         -DE/DX =    0.0                 !
 ! A24   A(1,14,16)            123.2464         -DE/DX =    0.0                 !
 ! A25   A(15,14,16)           113.4121         -DE/DX =    0.0                 !
 ! A26   A(14,15,17)           106.9287         -DE/DX =    0.0                 !
 ! A27   A(14,16,18)           107.0019         -DE/DX =    0.0                 !
 ! A28   A(15,17,18)           102.3321         -DE/DX =    0.0                 !
 ! A29   A(15,17,19)           106.5022         -DE/DX =    0.0                 !
 ! A30   A(15,17,20)           108.6527         -DE/DX =    0.0                 !
 ! A31   A(18,17,19)           113.2155         -DE/DX =    0.0                 !
 ! A32   A(18,17,20)           114.8962         -DE/DX =    0.0                 !
 ! A33   A(19,17,20)           110.4924         -DE/DX =    0.0                 !
 ! A34   A(16,18,17)           102.3341         -DE/DX =    0.0                 !
 ! A35   A(16,18,21)           106.5965         -DE/DX =    0.0                 !
 ! A36   A(16,18,22)           108.5382         -DE/DX =    0.0                 !
 ! A37   A(17,18,21)           113.2141         -DE/DX =    0.0                 !
 ! A38   A(17,18,22)           114.8786         -DE/DX =    0.0                 !
 ! A39   A(21,18,22)           110.5286         -DE/DX =    0.0                 !
 ! A40   A(17,19,23)           111.2868         -DE/DX =    0.0                 !
 ! A41   A(17,19,24)           108.8533         -DE/DX =    0.0                 !
 ! A42   A(17,19,25)           111.4427         -DE/DX =    0.0                 !
 ! A43   A(23,19,24)           108.1029         -DE/DX =    0.0                 !
 ! A44   A(23,19,25)           108.6507         -DE/DX =    0.0                 !
 ! A45   A(24,19,25)           108.4055         -DE/DX =    0.0                 !
 ! A46   A(17,20,26)           111.6919         -DE/DX =    0.0                 !
 ! A47   A(17,20,27)           110.4663         -DE/DX =    0.0                 !
 ! A48   A(17,20,28)           109.6717         -DE/DX =    0.0                 !
 ! A49   A(26,20,27)           108.6674         -DE/DX =    0.0                 !
 ! A50   A(26,20,28)           108.2238         -DE/DX =    0.0                 !
 ! A51   A(27,20,28)           108.0193         -DE/DX =    0.0                 !
 ! A52   A(18,21,29)           108.8972         -DE/DX =    0.0                 !
 ! A53   A(18,21,30)           111.4056         -DE/DX =    0.0                 !
 ! A54   A(18,21,31)           111.2815         -DE/DX =    0.0                 !
 ! A55   A(29,21,30)           108.375          -DE/DX =    0.0                 !
 ! A56   A(29,21,31)           108.2031         -DE/DX =    0.0                 !
 ! A57   A(30,21,31)           108.5832         -DE/DX =    0.0                 !
 ! A58   A(18,22,32)           109.696          -DE/DX =    0.0                 !
 ! A59   A(18,22,33)           111.6578         -DE/DX =    0.0                 !
 ! A60   A(18,22,34)           110.4647         -DE/DX =    0.0                 !
 ! A61   A(32,22,33)           108.2277         -DE/DX =    0.0                 !
 ! A62   A(32,22,34)           108.0333         -DE/DX =    0.0                 !
 ! A63   A(33,22,34)           108.6622         -DE/DX =    0.0                 !
 ! A64   A(11,35,36)           110.8747         -DE/DX =    0.0                 !
 ! A65   A(11,35,37)           109.7735         -DE/DX =    0.0                 !
 ! A66   A(11,35,38)           110.8852         -DE/DX =    0.0                 !
 ! A67   A(36,35,37)           108.3707         -DE/DX =    0.0                 !
 ! A68   A(36,35,38)           108.4978         -DE/DX =    0.0                 !
 ! A69   A(37,35,38)           108.3622         -DE/DX =    0.0                 !
 ! D1    D(4,1,2,3)             91.0135         -DE/DX =    0.0                 !
 ! D2    D(4,1,2,8)            -90.3467         -DE/DX =    0.0                 !
 ! D3    D(14,1,2,3)           -94.1861         -DE/DX =    0.0                 !
 ! D4    D(14,1,2,8)            84.4537         -DE/DX =    0.0                 !
 ! D5    D(2,1,4,5)             61.2264         -DE/DX =    0.0                 !
 ! D6    D(2,1,4,6)           -178.1121         -DE/DX =    0.0                 !
 ! D7    D(2,1,4,7)            -56.0997         -DE/DX =    0.0                 !
 ! D8    D(14,1,4,5)          -113.4543         -DE/DX =    0.0                 !
 ! D9    D(14,1,4,6)             7.2071         -DE/DX =    0.0                 !
 ! D10   D(14,1,4,7)           129.2196         -DE/DX =    0.0                 !
 ! D11   D(2,1,14,15)            3.6317         -DE/DX =    0.0                 !
 ! D12   D(2,1,14,16)         -175.592          -DE/DX =    0.0                 !
 ! D13   D(4,1,14,15)          178.2445         -DE/DX =    0.0                 !
 ! D14   D(4,1,14,16)           -0.9792         -DE/DX =    0.0                 !
 ! D15   D(1,2,8,9)             -0.3658         -DE/DX =    0.0                 !
 ! D16   D(1,2,8,10)           179.8771         -DE/DX =    0.0                 !
 ! D17   D(3,2,8,9)            178.3247         -DE/DX =    0.0                 !
 ! D18   D(3,2,8,10)            -1.4324         -DE/DX =    0.0                 !
 ! D19   D(2,8,10,11)          179.526          -DE/DX =    0.0                 !
 ! D20   D(9,8,10,11)           -0.2346         -DE/DX =    0.0                 !
 ! D21   D(8,10,11,12)         -57.8998         -DE/DX =    0.0                 !
 ! D22   D(8,10,11,13)          59.0116         -DE/DX =    0.0                 !
 ! D23   D(8,10,11,35)        -179.4511         -DE/DX =    0.0                 !
 ! D24   D(10,11,35,36)         60.3112         -DE/DX =    0.0                 !
 ! D25   D(10,11,35,37)       -179.9837         -DE/DX =    0.0                 !
 ! D26   D(10,11,35,38)        -60.2826         -DE/DX =    0.0                 !
 ! D27   D(12,11,35,36)        -59.1536         -DE/DX =    0.0                 !
 ! D28   D(12,11,35,37)         60.5514         -DE/DX =    0.0                 !
 ! D29   D(12,11,35,38)       -179.7474         -DE/DX =    0.0                 !
 ! D30   D(13,11,35,36)        179.788          -DE/DX =    0.0                 !
 ! D31   D(13,11,35,37)        -60.5069         -DE/DX =    0.0                 !
 ! D32   D(13,11,35,38)         59.1942         -DE/DX =    0.0                 !
 ! D33   D(1,14,15,17)        -169.07           -DE/DX =    0.0                 !
 ! D34   D(16,14,15,17)         10.2226         -DE/DX =    0.0                 !
 ! D35   D(1,14,16,18)        -171.6553         -DE/DX =    0.0                 !
 ! D36   D(15,14,16,18)          9.0514         -DE/DX =    0.0                 !
 ! D37   D(14,15,17,18)        -23.3112         -DE/DX =    0.0                 !
 ! D38   D(14,15,17,19)         95.7409         -DE/DX =    0.0                 !
 ! D39   D(14,15,17,20)       -145.2225         -DE/DX =    0.0                 !
 ! D40   D(14,16,18,17)        -22.6446         -DE/DX =    0.0                 !
 ! D41   D(14,16,18,21)         96.4459         -DE/DX =    0.0                 !
 ! D42   D(14,16,18,22)       -144.4832         -DE/DX =    0.0                 !
 ! D43   D(15,17,18,16)         27.763          -DE/DX =    0.0                 !
 ! D44   D(15,17,18,21)        -86.5622         -DE/DX =    0.0                 !
 ! D45   D(15,17,18,22)        145.159          -DE/DX =    0.0                 !
 ! D46   D(19,17,18,16)        -86.4512         -DE/DX =    0.0                 !
 ! D47   D(19,17,18,21)        159.2235         -DE/DX =    0.0                 !
 ! D48   D(19,17,18,22)         30.9447         -DE/DX =    0.0                 !
 ! D49   D(20,17,18,16)        145.3044         -DE/DX =    0.0                 !
 ! D50   D(20,17,18,21)         30.9792         -DE/DX =    0.0                 !
 ! D51   D(20,17,18,22)        -97.2996         -DE/DX =    0.0                 !
 ! D52   D(15,17,19,23)        -62.4468         -DE/DX =    0.0                 !
 ! D53   D(15,17,19,24)         56.5933         -DE/DX =    0.0                 !
 ! D54   D(15,17,19,25)        176.1026         -DE/DX =    0.0                 !
 ! D55   D(18,17,19,23)         49.2348         -DE/DX =    0.0                 !
 ! D56   D(18,17,19,24)        168.275          -DE/DX =    0.0                 !
 ! D57   D(18,17,19,25)        -72.2157         -DE/DX =    0.0                 !
 ! D58   D(20,17,19,23)        179.7246         -DE/DX =    0.0                 !
 ! D59   D(20,17,19,24)        -61.2352         -DE/DX =    0.0                 !
 ! D60   D(20,17,19,25)         58.2741         -DE/DX =    0.0                 !
 ! D61   D(15,17,20,26)         54.251          -DE/DX =    0.0                 !
 ! D62   D(15,17,20,27)        175.3243         -DE/DX =    0.0                 !
 ! D63   D(15,17,20,28)        -65.7244         -DE/DX =    0.0                 !
 ! D64   D(18,17,20,26)        -59.6511         -DE/DX =    0.0                 !
 ! D65   D(18,17,20,27)         61.4222         -DE/DX =    0.0                 !
 ! D66   D(18,17,20,28)       -179.6266         -DE/DX =    0.0                 !
 ! D67   D(19,17,20,26)        170.7518         -DE/DX =    0.0                 !
 ! D68   D(19,17,20,27)        -68.1749         -DE/DX =    0.0                 !
 ! D69   D(19,17,20,28)         50.7764         -DE/DX =    0.0                 !
 ! D70   D(16,18,21,29)         56.3858         -DE/DX =    0.0                 !
 ! D71   D(16,18,21,30)        175.8627         -DE/DX =    0.0                 !
 ! D72   D(16,18,21,31)        -62.8027         -DE/DX =    0.0                 !
 ! D73   D(17,18,21,29)        168.1237         -DE/DX =    0.0                 !
 ! D74   D(17,18,21,30)        -72.3993         -DE/DX =    0.0                 !
 ! D75   D(17,18,21,31)         48.9352         -DE/DX =    0.0                 !
 ! D76   D(22,18,21,29)        -61.38           -DE/DX =    0.0                 !
 ! D77   D(22,18,21,30)         58.097          -DE/DX =    0.0                 !
 ! D78   D(22,18,21,31)        179.4315         -DE/DX =    0.0                 !
 ! D79   D(16,18,22,32)        -65.9528         -DE/DX =    0.0                 !
 ! D80   D(16,18,22,33)         54.0219         -DE/DX =    0.0                 !
 ! D81   D(16,18,22,34)        175.0645         -DE/DX =    0.0                 !
 ! D82   D(17,18,22,32)       -179.7721         -DE/DX =    0.0                 !
 ! D83   D(17,18,22,33)        -59.7975         -DE/DX =    0.0                 !
 ! D84   D(17,18,22,34)         61.2451         -DE/DX =    0.0                 !
 ! D85   D(21,18,22,32)         50.6151         -DE/DX =    0.0                 !
 ! D86   D(21,18,22,33)        170.5898         -DE/DX =    0.0                 !
 ! D87   D(21,18,22,34)        -68.3676         -DE/DX =    0.0                 !
 --------------------------------------------------------------------------------
 Lowest energy point so far.  Saving SCF results.
 Largest change from initial coordinates is atom    0       0.000 Angstoms.
 GradGradGradGradGradGradGradGradGradGradGradGradGradGradGradGradGradGrad

 Leave Link  103 at Tue Aug 18 12:56:05 2026, MaxMem=  2684354560 cpu:               0.1 elap:               0.1
 (Enter /mnt/data/applications/G16/g16/l202.exe)
                          Input orientation:                          
 ---------------------------------------------------------------------
 Center     Atomic      Atomic             Coordinates (Angstroms)
 Number     Number       Type             X           Y           Z
 ---------------------------------------------------------------------
      1          6           0       -1.283080    0.598280    0.676600
      2          6           0       -0.617730    1.612220   -0.133270
      3          1           0       -0.114230    1.358480   -1.072700
      4          6           0       -0.489150   -0.091720    1.747720
      5          1           0       -0.134950    0.645330    2.493990
      6          1           0       -1.087690   -0.854400    2.264660
      7          1           0        0.418800   -0.566440    1.332470
      8          6           0       -0.630460    3.006350    0.274830
      9          8           0       -1.182420    3.431490    1.285860
     10          8           0        0.038670    3.798440   -0.597630
     11          6           0        0.068820    5.207330   -0.276250
     12          1           0       -0.966420    5.576790   -0.201510
     13          1           0        0.539840    5.336720    0.711360
     14          5           0       -2.789930    0.350960    0.497960
     15          8           0       -3.555170    0.992700   -0.450740
     16          8           0       -3.509660   -0.523090    1.281720
     17          6           0       -4.953710    0.699430   -0.139350
     18          6           0       -4.841490   -0.635120    0.685600
     19          6           0       -5.471200    1.878070    0.687760
     20          6           0       -5.728890    0.582950   -1.444130
     21          6           0       -4.823060   -1.887330   -0.192930
     22          6           0       -5.861980   -0.783580    1.805310
     23          1           0       -4.922750    1.971370    1.636660
     24          1           0       -5.324130    2.805740    0.115360
     25          1           0       -6.543180    1.773400    0.909950
     26          1           0       -5.272180   -0.148160   -2.123440
     27          1           0       -6.769000    0.280130   -1.248210
     28          1           0       -5.748420    1.558950   -1.951750
     29          1           0       -4.531390   -2.750530    0.423240
     30          1           0       -5.814020   -2.088980   -0.625230
     31          1           0       -4.096350   -1.789160   -1.012780
     32          1           0       -5.704470   -1.739870    2.326210
     33          1           0       -5.776650    0.026280    2.541130
     34          1           0       -6.884310   -0.782270    1.397000
     35          6           0        0.844730    5.905140   -1.372430
     36          1           0        0.359320    5.760070   -2.350090
     37          1           0        0.892100    6.985360   -1.165460
     38          1           0        1.873820    5.517990   -1.432450
 ---------------------------------------------------------------------
                    Distance matrix (angstroms):
                    1          2          3          4          5
     1  C    0.000000
     2  C    1.458305   0.000000
     3  H    2.236999   1.095639   0.000000
     4  C    1.501240   2.541273   3.193496   0.000000
     5  H    2.150191   2.840853   3.637347   1.107077   0.000000
     6  H    2.161109   3.472052   4.120975   1.098707   1.791507
     7  H    2.164055   2.823003   3.126385   1.105516   1.767528
     8  C    2.527080   1.452689   2.190389   3.433280   3.277898
     9  O    2.899726   2.375405   3.316807   3.620352   3.212391
    10  O    3.689405   2.329388   2.490477   4.573030   4.419317
    11  C    4.896825   3.662869   3.934652   5.699800   5.341123
    12  H    5.065265   3.980459   4.390824   6.013260   5.681229
    13  H    5.077111   3.990648   4.408749   5.621461   5.063818
    14  B    1.537425   2.589919   3.262122   2.655457   3.334623
    15  O    2.566877   3.018799   3.515778   3.925515   4.526589
    16  O    2.565404   3.863289   4.540104   3.086538   3.771402
    17  C    3.761586   4.431021   4.972530   4.911135   5.491617
    18  C    3.766117   4.853992   5.423380   4.512898   5.202052
    19  C    4.379308   4.929598   5.662713   5.461173   5.766947
    20  C    4.925744   5.376031   5.680124   6.172355   6.841407
    21  C    4.412006   5.471308   5.786394   5.076723   5.967603
    22  C    4.914250   6.082771   6.775544   5.417498   5.942637
    23  H    4.006780   4.668494   5.553209   4.891368   5.041471
    24  H    4.638745   4.861739   5.536163   5.868297   6.103511
    25  H    5.394813   6.018741   6.740509   6.389977   6.696800
    26  H    4.930549   5.359442   5.475260   6.153571   6.952799
    27  H    5.822494   6.391845   6.743857   6.967811   7.625487
    28  H    5.269760   5.443683   5.705875   6.638577   7.218750
    29  H    4.672284   5.887277   6.215553   5.016296   5.928622
    30  H    5.426375   6.398620   6.676288   6.162319   7.032625
    31  H    4.058123   4.944059   5.076269   4.849078   5.823819
    32  H    5.266578   6.569663   7.239002   5.500056   6.061096
    33  H    4.898554   6.023461   6.848177   5.347998   5.675758
    34  H    5.813663   6.880795   7.517727   6.441889   6.985362
    35  C    6.073620   4.701433   4.656346   6.890348   6.601104
    36  H    6.205031   4.803496   4.607599   7.194122   7.061868
    37  H    6.994239   5.675882   5.716912   7.776859   7.392049
    38  H    6.214311   4.811520   4.624207   6.867747   6.572283
                    6          7          8          9         10
     6  H    0.000000
     7  H    1.794829   0.000000
     8  C    4.367365   3.870966   0.000000
     9  O    4.397258   4.306916   1.227838   0.000000
    10  O    5.577662   4.787689   1.355112   2.274477   0.000000
    11  C    6.673703   6.003906   2.374236   2.675705   1.445394
    12  H    6.888897   6.481605   2.635703   2.619396   2.080780
    13  H    6.587227   5.936980   2.644009   2.631754   2.081089
    14  B    2.733449   3.440055   3.429897   3.562940   4.591995
    15  O    4.107753   4.626359   3.624247   3.820133   4.561736
    16  O    2.634744   3.929027   4.664822   4.588547   5.899002
    17  C    4.810381   5.712490   4.917714   4.870113   5.893873
    18  C    4.078300   5.300359   5.582276   5.503310   6.717075
    19  C    5.400756   6.409632   4.987614   4.600486   5.974840
    20  C    6.112433   6.842857   5.900990   6.019752   6.657378
    21  C    4.589083   5.616822   6.461021   6.612936   7.491874
    22  C    4.796860   6.302295   6.638881   6.319409   7.847719
    23  H    4.804898   5.921585   4.620554   4.030519   5.739854
    24  H    5.996961   6.770096   4.700661   4.349183   5.500312
    25  H    6.205074   7.356802   6.073204   5.623906   7.049421
    26  H    6.104437   6.671246   6.103130   6.415868   6.790352
    27  H    6.775301   7.683818   6.887206   6.896554   7.690652
    28  H    6.732368   7.303286   5.765947   5.902278   6.351328
    29  H    4.341107   5.486468   6.955641   7.083579   8.050878
    30  H    5.675724   6.708112   7.324056   7.455171   8.301594
    31  H    4.546144   5.232764   6.055349   6.405460   6.963621
    32  H    4.701330   6.313390   7.244332   6.947966   8.497375
    33  H    4.778952   6.340014   6.363977   5.854751   7.609136
    34  H    5.861641   7.306583   7.397537   7.090816   8.537512
    35  C    7.915431   7.027037   3.645907   4.158700   2.385002
    36  H    8.193959   7.320486   3.931010   4.584690   2.649891
    37  H    8.783344   7.968271   4.497237   4.789843   3.347721
    38  H    7.940184   6.839748   3.936313   4.591655   2.649821
                   11         12         13         14         15
    11  C    0.000000
    12  H    1.101730   0.000000
    13  H    1.101805   1.777578   0.000000
    14  B    5.688249   5.578866   5.999226   0.000000
    15  O    5.561192   5.270448   6.081948   1.377481   0.000000
    16  O    6.933289   6.773225   7.145707   1.377046   2.302414
    17  C    6.750238   6.300078   7.239286   2.282442   1.462493
    18  C    7.692238   7.375023   8.038796   2.283957   2.365520
    19  C    6.534915   5.896132   6.935086   3.091488   2.398173
    20  C    7.507481   7.011680   8.157294   3.530300   2.424825
    21  C    8.618099   8.401597   9.042419   3.101756   3.157306
    22  C    8.683218   8.273339   8.924018   3.526165   3.683246
    23  H    6.248714   5.659547   6.482411   2.910548   2.680543
    24  H    5.916494   5.173854   6.414610   3.548873   2.595535
    25  H    7.544368   6.841153   7.931321   4.034843   3.374785
    26  H    7.785863   7.416767   8.479362   3.644506   2.654734
    27  H    8.483972   7.925915   9.100998   4.345932   3.387096
    28  H    7.068116   6.486440   7.804224   4.026535   2.717355
    29  H    9.218392   9.079845   9.550079   3.557739   3.965932
    30  H    9.379005   9.079801   9.864027   4.044748   3.824866
    31  H    8.175695   8.044367   8.674392   2.927317   2.889206
    32  H    9.400386   9.075902   9.574825   4.025992   4.449481
    33  H    8.303639   7.840188   8.452625   3.633243   3.849705
    34  H    9.328510   8.832570   9.645214   4.342399   4.200933
    35  C    1.513468   2.181543   2.181339   6.896233   6.658881
    36  H    2.165808   2.531319   3.095850   6.876601   6.454346
    37  H    2.151714   2.523364   2.522807   7.767855   7.496733
    38  H    2.165949   3.096068   2.531459   7.223243   7.135540
                   16         17         18         19         20
    16  O    0.000000
    17  C    2.366279   0.000000
    18  C    1.463448   1.572946   0.000000
    19  C    3.156897   1.530065   2.590881   0.000000
    20  C    3.684910   1.522144   2.609008   2.507727   0.000000
    21  C    2.400159   2.590611   1.529766   3.920961   2.913471
    22  C    2.423925   2.608826   1.522232   2.913075   3.527602
    23  H    2.888795   2.184720   2.775772   1.099961   3.474023
    24  H    3.966586   2.153748   3.521027   1.099929   2.745293
    25  H    3.822868   2.186517   2.957541   1.099757   2.760785
    26  H    3.852553   2.180928   2.883285   3.471032   1.097528
    27  H    4.203452   2.168101   2.879687   2.825894   1.100869
    28  H    4.449974   2.157576   3.548532   2.673145   1.100289
    29  H    2.596615   3.520950   2.154055   4.730449   4.004144
    30  H    3.376173   2.958284   2.185818   4.192726   2.795900
    31  H    2.685492   2.773270   2.184385   4.269734   2.911727
    32  H    2.718217   3.548635   2.157964   3.978495   4.428493
    33  H    2.650880   2.883632   2.180588   2.637690   4.024234
    34  H    3.386551   2.878024   2.168146   3.094723   3.357207
    35  C    8.205325   7.889348   8.907502   7.768697   8.458329
    36  H    8.224181   7.663272   8.784207   7.635013   8.042987
    37  H    9.041073   8.645190   9.714535   8.367223   9.214446
    38  H    8.534824   8.456110   9.351058   8.467209   9.063992
                   21         22         23         24         25
    21  C    0.000000
    22  C    2.508103   0.000000
    23  H    4.271639   2.915535   0.000000
    24  H    4.729801   4.003552   1.780908   0.000000
    25  H    4.192386   2.793537   1.786923   1.784147   0.000000
    26  H    2.636909   4.023270   4.330457   3.706811   3.809106
    27  H    3.098093   3.358295   3.819870   3.213359   2.634104
    28  H    3.978264   4.428978   3.705200   2.451010   2.977744
    29  H    1.099932   2.747632   4.891001   5.620975   4.974950
    30  H    1.099794   2.759329   4.732542   4.974611   4.219767
    31  H    1.099954   3.474230   4.673762   4.888072   4.730296
    32  H    2.672956   1.100289   3.854850   5.069032   3.879728
    33  H    3.470781   1.097536   2.308806   3.716791   2.510128
    34  H    2.828036   1.100853   3.389349   4.117108   2.623935
    35  C    9.707608   9.990844   7.602170   7.062197   8.767083
    36  H    9.486471   9.939380   7.625529   6.863535   8.611963
    37  H   10.598750  10.714453   8.173399   7.599424   9.314249
    38  H   10.060983  10.489780   8.257803   7.846177   9.505508
                   26         27         28         29         30
    26  H    0.000000
    27  H    1.786038   0.000000
    28  H    1.780592   1.780992   0.000000
    29  H    3.715734   4.121352   5.068862   0.000000
    30  H    2.510977   2.629215   3.882184   1.783838   0.000000
    31  H    2.304132   3.388281   3.849784   1.782034   1.786191
    32  H    4.745503   4.241474   5.402322   2.453333   2.974034
    33  H    4.695011   3.925340   4.747193   3.707668   3.808091
    34  H    3.923590   2.852915   4.240953   3.218461   2.634848
    35  C    8.638463   9.467051   7.917993  10.346387  10.430878
    36  H    8.165313   9.058522   7.423784  10.200035  10.133748
    37  H    9.476454  10.181327   8.611660  11.257254  11.296351
    38  H    9.145930  10.107792   8.604778  10.622557  10.845298
                   31         32         33         34         35
    31  H    0.000000
    32  H    3.706391   0.000000
    33  H    4.330070   1.780642   0.000000
    34  H    3.820156   1.781138   1.785972   0.000000
    35  C    9.151277  10.724651   9.680889  10.589110   0.000000
    36  H    8.867484  10.718509   9.718565  10.455289   1.101130
    37  H   10.094560  11.481992  10.326656  11.286046   1.100889
    38  H    9.445290  11.146055  10.221444  11.153650   1.101142
                   36         37         38
    36  H    0.000000
    37  H    1.785648   0.000000
    38  H    1.787282   1.785562   0.000000
 Symmetry turned off by external request.
 Stoichiometry    C12H21BO4(3)
 Framework group  C1[X(C12H21BO4)]
 Deg. of freedom   108
 Full point group                 C1      NOp   1
 Rotational constants (GHZ):           0.8703360           0.2234991           0.2008030
 Leave Link  202 at Tue Aug 18 12:56:05 2026, MaxMem=  2684354560 cpu:               0.0 elap:               0.0
 (Enter /mnt/data/applications/G16/g16/l9999.exe)
 1\1\GINC-KIMIK2195\FOpt\UB3LYP\Gen\C12H21B1O4(3)\ASOLE\18-Aug-2026\0\\
 #p opt freq b3lyp/gen EmpiricalDispersion=GD3BJ pseudo=read scrf=(solv
 ent=acetonitrile,pcm) nosymm pop=(Orbitals=20)\\Title Card Required\\0
 ,3\C,-1.28308,0.59828,0.6766\C,-0.61773,1.61222,-0.13327\H,-0.11423,1.
 35848,-1.0727\C,-0.48915,-0.09172,1.74772\H,-0.13495,0.64533,2.49399\H
 ,-1.08769,-0.8544,2.26466\H,0.4188,-0.56644,1.33247\C,-0.63046,3.00635
 ,0.27483\O,-1.18242,3.43149,1.28586\O,0.03867,3.79844,-0.59763\C,0.068
 82,5.20733,-0.27625\H,-0.96642,5.57679,-0.20151\H,0.53984,5.33672,0.71
 136\B,-2.78993,0.35096,0.49796\O,-3.55517,0.9927,-0.45074\O,-3.50966,-
 0.52309,1.28172\C,-4.95371,0.69943,-0.13935\C,-4.84149,-0.63512,0.6856
 \C,-5.4712,1.87807,0.68776\C,-5.72889,0.58295,-1.44413\C,-4.82306,-1.8
 8733,-0.19293\C,-5.86198,-0.78358,1.80531\H,-4.92275,1.97137,1.63666\H
 ,-5.32413,2.80574,0.11536\H,-6.54318,1.7734,0.90995\H,-5.27218,-0.1481
 6,-2.12344\H,-6.769,0.28013,-1.24821\H,-5.74842,1.55895,-1.95175\H,-4.
 53139,-2.75053,0.42324\H,-5.81402,-2.08898,-0.62523\H,-4.09635,-1.7891
 6,-1.01278\H,-5.70447,-1.73987,2.32621\H,-5.77665,0.02628,2.54113\H,-6
 .88431,-0.78227,1.397\C,0.84473,5.90514,-1.37243\H,0.35932,5.76007,-2.
 35009\H,0.8921,6.98536,-1.16546\H,1.87382,5.51799,-1.43245\\Version=AM
 64L-G16RevA.03\HF=-795.8192916\S2=2.0071\S2-1=0.\S2A=2.000028\RMSD=7.2
 08e-09\RMSF=3.793e-06\Dipole=-0.4666799,-0.3546473,-0.6968872\Quadrupo
 le=10.9055781,-1.4883856,-9.4171925,5.6890501,2.4987743,-4.2361975\PG=
 C01 [X(C12H21B1O4)]\\@


 REFRAIN FROM ILLUSIONS, INSIST ON WORK AND NOT WORDS,
 PATIENTLY SEEK DIVINE AND SCIENTIFIC TRUTH.
 LAST WORDS OF MARIA MENDELEEVA TO HER SON DMITRI, C. 1850
 Leave Link 9999 at Tue Aug 18 12:56:06 2026, MaxMem=  2684354560 cpu:               0.0 elap:               0.1
 Job cpu time:       0 days  0 hours 40 minutes 44.7 seconds.
 Elapsed time:       0 days  0 hours 40 minutes 48.7 seconds.
 File lengths (MBytes):  RWF=    232 Int=      0 D2E=      0 Chk=     15 Scr=      1
 Normal termination of Gaussian 16 at Tue Aug 18 12:56:06 2026.
 (Enter /mnt/data/applications/G16/g16/l1.exe)
 Link1:  Proceeding to internal job step number  2.
 ------------------------------------------------------------------
 #P Geom=AllCheck Guess=TCheck SCRF=Check GenChk UB3LYP/ChkBas Freq
 ------------------------------------------------------------------
 1/10=4,29=7,30=1,38=1,40=1/1,3;
 2/12=2,15=1,40=1/2;
 3/5=7,6=2,11=2,14=-4,16=1,17=8,25=1,30=1,67=1,70=2,71=2,74=-5,82=7,116=2,124=41,140=1/1,2,3;
 4/5=101/1;
 5/5=2,38=6,98=1/2;
 8/6=4,10=90,11=11/1;
 11/6=1,8=1,9=11,15=111,16=1,31=1/1,2,10;
 10/6=1,31=1/2;
 6/7=2,8=2,9=2,10=2,28=1/1;
 7/8=1,10=1,25=1,30=1/1,2,3,16;
 1/10=4,30=1/3;
 99//99;
 Leave Link    1 at Tue Aug 18 12:56:06 2026, MaxMem=  2684354560 cpu:               0.0 elap:               0.0
 (Enter /mnt/data/applications/G16/g16/l101.exe)
 Structure from the checkpoint file:  "alkene_triplet.chk"
 -------------------
 Title Card Required
 -------------------
 Charge =  0 Multiplicity = 3
 Redundant internal coordinates found in file.  (old form).
 C,0,-1.28308,0.59828,0.6766
 C,0,-0.61773,1.61222,-0.13327
 H,0,-0.11423,1.35848,-1.0727
 C,0,-0.48915,-0.09172,1.74772
 H,0,-0.13495,0.64533,2.49399
 H,0,-1.08769,-0.8544,2.26466
 H,0,0.4188,-0.56644,1.33247
 C,0,-0.63046,3.00635,0.27483
 O,0,-1.18242,3.43149,1.28586
 O,0,0.03867,3.79844,-0.59763
 C,0,0.06882,5.20733,-0.27625
 H,0,-0.96642,5.57679,-0.20151
 H,0,0.53984,5.33672,0.71136
 B,0,-2.78993,0.35096,0.49796
 O,0,-3.55517,0.9927,-0.45074
 O,0,-3.50966,-0.52309,1.28172
 C,0,-4.95371,0.69943,-0.13935
 C,0,-4.84149,-0.63512,0.6856
 C,0,-5.4712,1.87807,0.68776
 C,0,-5.72889,0.58295,-1.44413
 C,0,-4.82306,-1.88733,-0.19293
 C,0,-5.86198,-0.78358,1.80531
 H,0,-4.92275,1.97137,1.63666
 H,0,-5.32413,2.80574,0.11536
 H,0,-6.54318,1.7734,0.90995
 H,0,-5.27218,-0.14816,-2.12344
 H,0,-6.769,0.28013,-1.24821
 H,0,-5.74842,1.55895,-1.95175
 H,0,-4.53139,-2.75053,0.42324
 H,0,-5.81402,-2.08898,-0.62523
 H,0,-4.09635,-1.78916,-1.01278
 H,0,-5.70447,-1.73987,2.32621
 H,0,-5.77665,0.02628,2.54113
 H,0,-6.88431,-0.78227,1.397
 C,0,0.84473,5.90514,-1.37243
 H,0,0.35932,5.76007,-2.35009
 H,0,0.8921,6.98536,-1.16546
 H,0,1.87382,5.51799,-1.43245
 Recover connectivity data from disk.
 ITRead=  0  0  0  0  0  0  0  0  0  0  0  0  0  0  0  0  0  0  0  0
 ITRead=  0  0  0  0  0  0  0  0  0  0  0  0  0  0  0  0  0  0
 MicOpt= -1 -1 -1 -1 -1 -1 -1 -1 -1 -1 -1 -1 -1 -1 -1 -1 -1 -1 -1 -1
 MicOpt= -1 -1 -1 -1 -1 -1 -1 -1 -1 -1 -1 -1 -1 -1 -1 -1 -1 -1
 NAtoms=     38 NQM=       38 NQMF=       0 NMMI=      0 NMMIF=      0
                NMic=       0 NMicF=      0.
                    Isotopes and Nuclear Properties:
 (Nuclear quadrupole moments (NQMom) in fm**2, nuclear magnetic moments (NMagM)
  in nuclear magnetons)

  Atom         1           2           3           4           5           6           7           8           9          10
 IAtWgt=          12          12           1          12           1           1           1          12          16          16
 AtmWgt=  12.0000000  12.0000000   1.0078250  12.0000000   1.0078250   1.0078250   1.0078250  12.0000000  15.9949146  15.9949146
 NucSpn=           0           0           1           0           1           1           1           0           0           0
 AtZEff=   3.6000000   3.6000000   1.0000000   3.6000000   1.0000000   1.0000000   1.0000000   3.6000000   5.6000000   5.6000000
 NQMom=    0.0000000   0.0000000   0.0000000   0.0000000   0.0000000   0.0000000   0.0000000   0.0000000   0.0000000   0.0000000
 NMagM=    0.0000000   0.0000000   2.7928460   0.0000000   2.7928460   2.7928460   2.7928460   0.0000000   0.0000000   0.0000000
 AtZNuc=   6.0000000   6.0000000   1.0000000   6.0000000   1.0000000   1.0000000   1.0000000   6.0000000   8.0000000   8.0000000

  Atom        11          12          13          14          15          16          17          18          19          20
 IAtWgt=          12           1           1          11          16          16          12          12          12          12
 AtmWgt=  12.0000000   1.0078250   1.0078250  11.0093053  15.9949146  15.9949146  12.0000000  12.0000000  12.0000000  12.0000000
 NucSpn=           0           1           1           3           0           0           0           0           0           0
 AtZEff=   3.6000000   1.0000000   1.0000000   2.7500000   5.6000000   5.6000000   3.6000000   3.6000000   3.6000000   3.6000000
 NQMom=    0.0000000   0.0000000   0.0000000   4.0590000   0.0000000   0.0000000   0.0000000   0.0000000   0.0000000   0.0000000
 NMagM=    0.0000000   2.7928460   2.7928460   2.6886370   0.0000000   0.0000000   0.0000000   0.0000000   0.0000000   0.0000000
 AtZNuc=   6.0000000   1.0000000   1.0000000   5.0000000   8.0000000   8.0000000   6.0000000   6.0000000   6.0000000   6.0000000

  Atom        21          22          23          24          25          26          27          28          29          30
 IAtWgt=          12          12           1           1           1           1           1           1           1           1
 AtmWgt=  12.0000000  12.0000000   1.0078250   1.0078250   1.0078250   1.0078250   1.0078250   1.0078250   1.0078250   1.0078250
 NucSpn=           0           0           1           1           1           1           1           1           1           1
 AtZEff=   3.6000000   3.6000000   1.0000000   1.0000000   1.0000000   1.0000000   1.0000000   1.0000000   1.0000000   1.0000000
 NQMom=    0.0000000   0.0000000   0.0000000   0.0000000   0.0000000   0.0000000   0.0000000   0.0000000   0.0000000   0.0000000
 NMagM=    0.0000000   0.0000000   2.7928460   2.7928460   2.7928460   2.7928460   2.7928460   2.7928460   2.7928460   2.7928460
 AtZNuc=   6.0000000   6.0000000   1.0000000   1.0000000   1.0000000   1.0000000   1.0000000   1.0000000   1.0000000   1.0000000

  Atom        31          32          33          34          35          36          37          38
 IAtWgt=           1           1           1           1          12           1           1           1
 AtmWgt=   1.0078250   1.0078250   1.0078250   1.0078250  12.0000000   1.0078250   1.0078250   1.0078250
 NucSpn=           1           1           1           1           0           1           1           1
 AtZEff=   1.0000000   1.0000000   1.0000000   1.0000000   3.6000000   1.0000000   1.0000000   1.0000000
 NQMom=    0.0000000   0.0000000   0.0000000   0.0000000   0.0000000   0.0000000   0.0000000   0.0000000
 NMagM=    2.7928460   2.7928460   2.7928460   2.7928460   0.0000000   2.7928460   2.7928460   2.7928460
 AtZNuc=   1.0000000   1.0000000   1.0000000   1.0000000   6.0000000   1.0000000   1.0000000   1.0000000
 Leave Link  101 at Tue Aug 18 12:56:06 2026, MaxMem=  2684354560 cpu:               0.3 elap:               0.3
 (Enter /mnt/data/applications/G16/g16/l103.exe)

 GradGradGradGradGradGradGradGradGradGradGradGradGradGradGradGradGradGrad
 Berny optimization.
 Initialization pass.
                           ----------------------------
                           !    Initial Parameters    !
                           ! (Angstroms and Degrees)  !
 --------------------------                            --------------------------
 ! Name  Definition              Value          Derivative Info.                !
 --------------------------------------------------------------------------------
 ! R1    R(1,2)                  1.4583         calculate D2E/DX2 analytically  !
 ! R2    R(1,4)                  1.5012         calculate D2E/DX2 analytically  !
 ! R3    R(1,14)                 1.5374         calculate D2E/DX2 analytically  !
 ! R4    R(2,3)                  1.0956         calculate D2E/DX2 analytically  !
 ! R5    R(2,8)                  1.4527         calculate D2E/DX2 analytically  !
 ! R6    R(4,5)                  1.1071         calculate D2E/DX2 analytically  !
 ! R7    R(4,6)                  1.0987         calculate D2E/DX2 analytically  !
 ! R8    R(4,7)                  1.1055         calculate D2E/DX2 analytically  !
 ! R9    R(8,9)                  1.2278         calculate D2E/DX2 analytically  !
 ! R10   R(8,10)                 1.3551         calculate D2E/DX2 analytically  !
 ! R11   R(10,11)                1.4454         calculate D2E/DX2 analytically  !
 ! R12   R(11,12)                1.1017         calculate D2E/DX2 analytically  !
 ! R13   R(11,13)                1.1018         calculate D2E/DX2 analytically  !
 ! R14   R(11,35)                1.5135         calculate D2E/DX2 analytically  !
 ! R15   R(14,15)                1.3775         calculate D2E/DX2 analytically  !
 ! R16   R(14,16)                1.377          calculate D2E/DX2 analytically  !
 ! R17   R(15,17)                1.4625         calculate D2E/DX2 analytically  !
 ! R18   R(16,18)                1.4634         calculate D2E/DX2 analytically  !
 ! R19   R(17,18)                1.5729         calculate D2E/DX2 analytically  !
 ! R20   R(17,19)                1.5301         calculate D2E/DX2 analytically  !
 ! R21   R(17,20)                1.5221         calculate D2E/DX2 analytically  !
 ! R22   R(18,21)                1.5298         calculate D2E/DX2 analytically  !
 ! R23   R(18,22)                1.5222         calculate D2E/DX2 analytically  !
 ! R24   R(19,23)                1.1            calculate D2E/DX2 analytically  !
 ! R25   R(19,24)                1.0999         calculate D2E/DX2 analytically  !
 ! R26   R(19,25)                1.0998         calculate D2E/DX2 analytically  !
 ! R27   R(20,26)                1.0975         calculate D2E/DX2 analytically  !
 ! R28   R(20,27)                1.1009         calculate D2E/DX2 analytically  !
 ! R29   R(20,28)                1.1003         calculate D2E/DX2 analytically  !
 ! R30   R(21,29)                1.0999         calculate D2E/DX2 analytically  !
 ! R31   R(21,30)                1.0998         calculate D2E/DX2 analytically  !
 ! R32   R(21,31)                1.1            calculate D2E/DX2 analytically  !
 ! R33   R(22,32)                1.1003         calculate D2E/DX2 analytically  !
 ! R34   R(22,33)                1.0975         calculate D2E/DX2 analytically  !
 ! R35   R(22,34)                1.1009         calculate D2E/DX2 analytically  !
 ! R36   R(35,36)                1.1011         calculate D2E/DX2 analytically  !
 ! R37   R(35,37)                1.1009         calculate D2E/DX2 analytically  !
 ! R38   R(35,38)                1.1011         calculate D2E/DX2 analytically  !
 ! A1    A(2,1,4)              118.3279         calculate D2E/DX2 analytically  !
 ! A2    A(2,1,14)             119.6365         calculate D2E/DX2 analytically  !
 ! A3    A(4,1,14)             121.8231         calculate D2E/DX2 analytically  !
 ! A4    A(1,2,3)              121.656          calculate D2E/DX2 analytically  !
 ! A5    A(1,2,8)              120.4807         calculate D2E/DX2 analytically  !
 ! A6    A(3,2,8)              117.8499         calculate D2E/DX2 analytically  !
 ! A7    A(1,4,5)              110.1305         calculate D2E/DX2 analytically  !
 ! A8    A(1,4,6)              111.5089         calculate D2E/DX2 analytically  !
 ! A9    A(1,4,7)              111.328          calculate D2E/DX2 analytically  !
 ! A10   A(5,4,6)              108.6195         calculate D2E/DX2 analytically  !
 ! A11   A(5,4,7)              106.0407         calculate D2E/DX2 analytically  !
 ! A12   A(6,4,7)              109.0298         calculate D2E/DX2 analytically  !
 ! A13   A(2,8,9)              124.5799         calculate D2E/DX2 analytically  !
 ! A14   A(2,8,10)             112.0714         calculate D2E/DX2 analytically  !
 ! A15   A(9,8,10)             123.3483         calculate D2E/DX2 analytically  !
 ! A16   A(8,10,11)            115.9065         calculate D2E/DX2 analytically  !
 ! A17   A(10,11,12)           108.8057         calculate D2E/DX2 analytically  !
 ! A18   A(10,11,13)           108.8256         calculate D2E/DX2 analytically  !
 ! A19   A(10,11,35)           107.402          calculate D2E/DX2 analytically  !
 ! A20   A(12,11,13)           107.5483         calculate D2E/DX2 analytically  !
 ! A21   A(12,11,35)           112.1015         calculate D2E/DX2 analytically  !
 ! A22   A(13,11,35)           112.0803         calculate D2E/DX2 analytically  !
 ! A23   A(1,14,15)            123.3374         calculate D2E/DX2 analytically  !
 ! A24   A(1,14,16)            123.2464         calculate D2E/DX2 analytically  !
 ! A25   A(15,14,16)           113.4121         calculate D2E/DX2 analytically  !
 ! A26   A(14,15,17)           106.9287         calculate D2E/DX2 analytically  !
 ! A27   A(14,16,18)           107.0019         calculate D2E/DX2 analytically  !
 ! A28   A(15,17,18)           102.3321         calculate D2E/DX2 analytically  !
 ! A29   A(15,17,19)           106.5022         calculate D2E/DX2 analytically  !
 ! A30   A(15,17,20)           108.6527         calculate D2E/DX2 analytically  !
 ! A31   A(18,17,19)           113.2155         calculate D2E/DX2 analytically  !
 ! A32   A(18,17,20)           114.8962         calculate D2E/DX2 analytically  !
 ! A33   A(19,17,20)           110.4924         calculate D2E/DX2 analytically  !
 ! A34   A(16,18,17)           102.3341         calculate D2E/DX2 analytically  !
 ! A35   A(16,18,21)           106.5965         calculate D2E/DX2 analytically  !
 ! A36   A(16,18,22)           108.5382         calculate D2E/DX2 analytically  !
 ! A37   A(17,18,21)           113.2141         calculate D2E/DX2 analytically  !
 ! A38   A(17,18,22)           114.8786         calculate D2E/DX2 analytically  !
 ! A39   A(21,18,22)           110.5286         calculate D2E/DX2 analytically  !
 ! A40   A(17,19,23)           111.2868         calculate D2E/DX2 analytically  !
 ! A41   A(17,19,24)           108.8533         calculate D2E/DX2 analytically  !
 ! A42   A(17,19,25)           111.4427         calculate D2E/DX2 analytically  !
 ! A43   A(23,19,24)           108.1029         calculate D2E/DX2 analytically  !
 ! A44   A(23,19,25)           108.6507         calculate D2E/DX2 analytically  !
 ! A45   A(24,19,25)           108.4055         calculate D2E/DX2 analytically  !
 ! A46   A(17,20,26)           111.6919         calculate D2E/DX2 analytically  !
 ! A47   A(17,20,27)           110.4663         calculate D2E/DX2 analytically  !
 ! A48   A(17,20,28)           109.6717         calculate D2E/DX2 analytically  !
 ! A49   A(26,20,27)           108.6674         calculate D2E/DX2 analytically  !
 ! A50   A(26,20,28)           108.2238         calculate D2E/DX2 analytically  !
 ! A51   A(27,20,28)           108.0193         calculate D2E/DX2 analytically  !
 ! A52   A(18,21,29)           108.8972         calculate D2E/DX2 analytically  !
 ! A53   A(18,21,30)           111.4056         calculate D2E/DX2 analytically  !
 ! A54   A(18,21,31)           111.2815         calculate D2E/DX2 analytically  !
 ! A55   A(29,21,30)           108.375          calculate D2E/DX2 analytically  !
 ! A56   A(29,21,31)           108.2031         calculate D2E/DX2 analytically  !
 ! A57   A(30,21,31)           108.5832         calculate D2E/DX2 analytically  !
 ! A58   A(18,22,32)           109.696          calculate D2E/DX2 analytically  !
 ! A59   A(18,22,33)           111.6578         calculate D2E/DX2 analytically  !
 ! A60   A(18,22,34)           110.4647         calculate D2E/DX2 analytically  !
 ! A61   A(32,22,33)           108.2277         calculate D2E/DX2 analytically  !
 ! A62   A(32,22,34)           108.0333         calculate D2E/DX2 analytically  !
 ! A63   A(33,22,34)           108.6622         calculate D2E/DX2 analytically  !
 ! A64   A(11,35,36)           110.8747         calculate D2E/DX2 analytically  !
 ! A65   A(11,35,37)           109.7735         calculate D2E/DX2 analytically  !
 ! A66   A(11,35,38)           110.8852         calculate D2E/DX2 analytically  !
 ! A67   A(36,35,37)           108.3707         calculate D2E/DX2 analytically  !
 ! A68   A(36,35,38)           108.4978         calculate D2E/DX2 analytically  !
 ! A69   A(37,35,38)           108.3622         calculate D2E/DX2 analytically  !
 ! D1    D(4,1,2,3)             91.0135         calculate D2E/DX2 analytically  !
 ! D2    D(4,1,2,8)            -90.3467         calculate D2E/DX2 analytically  !
 ! D3    D(14,1,2,3)           -94.1861         calculate D2E/DX2 analytically  !
 ! D4    D(14,1,2,8)            84.4537         calculate D2E/DX2 analytically  !
 ! D5    D(2,1,4,5)             61.2264         calculate D2E/DX2 analytically  !
 ! D6    D(2,1,4,6)           -178.1121         calculate D2E/DX2 analytically  !
 ! D7    D(2,1,4,7)            -56.0997         calculate D2E/DX2 analytically  !
 ! D8    D(14,1,4,5)          -113.4543         calculate D2E/DX2 analytically  !
 ! D9    D(14,1,4,6)             7.2071         calculate D2E/DX2 analytically  !
 ! D10   D(14,1,4,7)           129.2196         calculate D2E/DX2 analytically  !
 ! D11   D(2,1,14,15)            3.6317         calculate D2E/DX2 analytically  !
 ! D12   D(2,1,14,16)         -175.592          calculate D2E/DX2 analytically  !
 ! D13   D(4,1,14,15)          178.2445         calculate D2E/DX2 analytically  !
 ! D14   D(4,1,14,16)           -0.9792         calculate D2E/DX2 analytically  !
 ! D15   D(1,2,8,9)             -0.3658         calculate D2E/DX2 analytically  !
 ! D16   D(1,2,8,10)           179.8771         calculate D2E/DX2 analytically  !
 ! D17   D(3,2,8,9)            178.3247         calculate D2E/DX2 analytically  !
 ! D18   D(3,2,8,10)            -1.4324         calculate D2E/DX2 analytically  !
 ! D19   D(2,8,10,11)          179.526          calculate D2E/DX2 analytically  !
 ! D20   D(9,8,10,11)           -0.2346         calculate D2E/DX2 analytically  !
 ! D21   D(8,10,11,12)         -57.8998         calculate D2E/DX2 analytically  !
 ! D22   D(8,10,11,13)          59.0116         calculate D2E/DX2 analytically  !
 ! D23   D(8,10,11,35)        -179.4511         calculate D2E/DX2 analytically  !
 ! D24   D(10,11,35,36)         60.3112         calculate D2E/DX2 analytically  !
 ! D25   D(10,11,35,37)       -179.9837         calculate D2E/DX2 analytically  !
 ! D26   D(10,11,35,38)        -60.2826         calculate D2E/DX2 analytically  !
 ! D27   D(12,11,35,36)        -59.1536         calculate D2E/DX2 analytically  !
 ! D28   D(12,11,35,37)         60.5514         calculate D2E/DX2 analytically  !
 ! D29   D(12,11,35,38)       -179.7474         calculate D2E/DX2 analytically  !
 ! D30   D(13,11,35,36)        179.788          calculate D2E/DX2 analytically  !
 ! D31   D(13,11,35,37)        -60.5069         calculate D2E/DX2 analytically  !
 ! D32   D(13,11,35,38)         59.1942         calculate D2E/DX2 analytically  !
 ! D33   D(1,14,15,17)        -169.07           calculate D2E/DX2 analytically  !
 ! D34   D(16,14,15,17)         10.2226         calculate D2E/DX2 analytically  !
 ! D35   D(1,14,16,18)        -171.6553         calculate D2E/DX2 analytically  !
 ! D36   D(15,14,16,18)          9.0514         calculate D2E/DX2 analytically  !
 ! D37   D(14,15,17,18)        -23.3112         calculate D2E/DX2 analytically  !
 ! D38   D(14,15,17,19)         95.7409         calculate D2E/DX2 analytically  !
 ! D39   D(14,15,17,20)       -145.2225         calculate D2E/DX2 analytically  !
 ! D40   D(14,16,18,17)        -22.6446         calculate D2E/DX2 analytically  !
 ! D41   D(14,16,18,21)         96.4459         calculate D2E/DX2 analytically  !
 ! D42   D(14,16,18,22)       -144.4832         calculate D2E/DX2 analytically  !
 ! D43   D(15,17,18,16)         27.763          calculate D2E/DX2 analytically  !
 ! D44   D(15,17,18,21)        -86.5622         calculate D2E/DX2 analytically  !
 ! D45   D(15,17,18,22)        145.159          calculate D2E/DX2 analytically  !
 ! D46   D(19,17,18,16)        -86.4512         calculate D2E/DX2 analytically  !
 ! D47   D(19,17,18,21)        159.2235         calculate D2E/DX2 analytically  !
 ! D48   D(19,17,18,22)         30.9447         calculate D2E/DX2 analytically  !
 ! D49   D(20,17,18,16)        145.3044         calculate D2E/DX2 analytically  !
 ! D50   D(20,17,18,21)         30.9792         calculate D2E/DX2 analytically  !
 ! D51   D(20,17,18,22)        -97.2996         calculate D2E/DX2 analytically  !
 ! D52   D(15,17,19,23)        -62.4468         calculate D2E/DX2 analytically  !
 ! D53   D(15,17,19,24)         56.5933         calculate D2E/DX2 analytically  !
 ! D54   D(15,17,19,25)        176.1026         calculate D2E/DX2 analytically  !
 ! D55   D(18,17,19,23)         49.2348         calculate D2E/DX2 analytically  !
 ! D56   D(18,17,19,24)        168.275          calculate D2E/DX2 analytically  !
 ! D57   D(18,17,19,25)        -72.2157         calculate D2E/DX2 analytically  !
 ! D58   D(20,17,19,23)        179.7246         calculate D2E/DX2 analytically  !
 ! D59   D(20,17,19,24)        -61.2352         calculate D2E/DX2 analytically  !
 ! D60   D(20,17,19,25)         58.2741         calculate D2E/DX2 analytically  !
 ! D61   D(15,17,20,26)         54.251          calculate D2E/DX2 analytically  !
 ! D62   D(15,17,20,27)        175.3243         calculate D2E/DX2 analytically  !
 ! D63   D(15,17,20,28)        -65.7244         calculate D2E/DX2 analytically  !
 ! D64   D(18,17,20,26)        -59.6511         calculate D2E/DX2 analytically  !
 ! D65   D(18,17,20,27)         61.4222         calculate D2E/DX2 analytically  !
 ! D66   D(18,17,20,28)       -179.6266         calculate D2E/DX2 analytically  !
 ! D67   D(19,17,20,26)        170.7518         calculate D2E/DX2 analytically  !
 ! D68   D(19,17,20,27)        -68.1749         calculate D2E/DX2 analytically  !
 ! D69   D(19,17,20,28)         50.7764         calculate D2E/DX2 analytically  !
 ! D70   D(16,18,21,29)         56.3858         calculate D2E/DX2 analytically  !
 ! D71   D(16,18,21,30)        175.8627         calculate D2E/DX2 analytically  !
 ! D72   D(16,18,21,31)        -62.8027         calculate D2E/DX2 analytically  !
 ! D73   D(17,18,21,29)        168.1237         calculate D2E/DX2 analytically  !
 ! D74   D(17,18,21,30)        -72.3993         calculate D2E/DX2 analytically  !
 ! D75   D(17,18,21,31)         48.9352         calculate D2E/DX2 analytically  !
 ! D76   D(22,18,21,29)        -61.38           calculate D2E/DX2 analytically  !
 ! D77   D(22,18,21,30)         58.097          calculate D2E/DX2 analytically  !
 ! D78   D(22,18,21,31)        179.4315         calculate D2E/DX2 analytically  !
 ! D79   D(16,18,22,32)        -65.9528         calculate D2E/DX2 analytically  !
 ! D80   D(16,18,22,33)         54.0219         calculate D2E/DX2 analytically  !
 ! D81   D(16,18,22,34)        175.0645         calculate D2E/DX2 analytically  !
 ! D82   D(17,18,22,32)       -179.7721         calculate D2E/DX2 analytically  !
 ! D83   D(17,18,22,33)        -59.7975         calculate D2E/DX2 analytically  !
 ! D84   D(17,18,22,34)         61.2451         calculate D2E/DX2 analytically  !
 ! D85   D(21,18,22,32)         50.6151         calculate D2E/DX2 analytically  !
 ! D86   D(21,18,22,33)        170.5898         calculate D2E/DX2 analytically  !
 ! D87   D(21,18,22,34)        -68.3676         calculate D2E/DX2 analytically  !
 --------------------------------------------------------------------------------
 Trust Radius=3.00D-01 FncErr=1.00D-07 GrdErr=1.00D-07 EigMax=2.50D+02 EigMin=1.00D-04
 Number of steps in this run=      2 maximum allowed number of steps=      2.
 GradGradGradGradGradGradGradGradGradGradGradGradGradGradGradGradGradGrad

 Leave Link  103 at Tue Aug 18 12:56:06 2026, MaxMem=  2684354560 cpu:               0.0 elap:               0.0
 (Enter /mnt/data/applications/G16/g16/l202.exe)
                          Input orientation:                          
 ---------------------------------------------------------------------
 Center     Atomic      Atomic             Coordinates (Angstroms)
 Number     Number       Type             X           Y           Z
 ---------------------------------------------------------------------
      1          6           0       -1.283080    0.598280    0.676600
      2          6           0       -0.617730    1.612220   -0.133270
      3          1           0       -0.114230    1.358480   -1.072700
      4          6           0       -0.489150   -0.091720    1.747720
      5          1           0       -0.134950    0.645330    2.493990
      6          1           0       -1.087690   -0.854400    2.264660
      7          1           0        0.418800   -0.566440    1.332470
      8          6           0       -0.630460    3.006350    0.274830
      9          8           0       -1.182420    3.431490    1.285860
     10          8           0        0.038670    3.798440   -0.597630
     11          6           0        0.068820    5.207330   -0.276250
     12          1           0       -0.966420    5.576790   -0.201510
     13          1           0        0.539840    5.336720    0.711360
     14          5           0       -2.789930    0.350960    0.497960
     15          8           0       -3.555170    0.992700   -0.450740
     16          8           0       -3.509660   -0.523090    1.281720
     17          6           0       -4.953710    0.699430   -0.139350
     18          6           0       -4.841490   -0.635120    0.685600
     19          6           0       -5.471200    1.878070    0.687760
     20          6           0       -5.728890    0.582950   -1.444130
     21          6           0       -4.823060   -1.887330   -0.192930
     22          6           0       -5.861980   -0.783580    1.805310
     23          1           0       -4.922750    1.971370    1.636660
     24          1           0       -5.324130    2.805740    0.115360
     25          1           0       -6.543180    1.773400    0.909950
     26          1           0       -5.272180   -0.148160   -2.123440
     27          1           0       -6.769000    0.280130   -1.248210
     28          1           0       -5.748420    1.558950   -1.951750
     29          1           0       -4.531390   -2.750530    0.423240
     30          1           0       -5.814020   -2.088980   -0.625230
     31          1           0       -4.096350   -1.789160   -1.012780
     32          1           0       -5.704470   -1.739870    2.326210
     33          1           0       -5.776650    0.026280    2.541130
     34          1           0       -6.884310   -0.782270    1.397000
     35          6           0        0.844730    5.905140   -1.372430
     36          1           0        0.359320    5.760070   -2.350090
     37          1           0        0.892100    6.985360   -1.165460
     38          1           0        1.873820    5.517990   -1.432450
 ---------------------------------------------------------------------
                    Distance matrix (angstroms):
                    1          2          3          4          5
     1  C    0.000000
     2  C    1.458305   0.000000
     3  H    2.236999   1.095639   0.000000
     4  C    1.501240   2.541273   3.193496   0.000000
     5  H    2.150191   2.840853   3.637347   1.107077   0.000000
     6  H    2.161109   3.472052   4.120975   1.098707   1.791507
     7  H    2.164055   2.823003   3.126385   1.105516   1.767528
     8  C    2.527080   1.452689   2.190389   3.433280   3.277898
     9  O    2.899726   2.375405   3.316807   3.620352   3.212391
    10  O    3.689405   2.329388   2.490477   4.573030   4.419317
    11  C    4.896825   3.662869   3.934652   5.699800   5.341123
    12  H    5.065265   3.980459   4.390824   6.013260   5.681229
    13  H    5.077111   3.990648   4.408749   5.621461   5.063818
    14  B    1.537425   2.589919   3.262122   2.655457   3.334623
    15  O    2.566877   3.018799   3.515778   3.925515   4.526589
    16  O    2.565404   3.863289   4.540104   3.086538   3.771402
    17  C    3.761586   4.431021   4.972530   4.911135   5.491617
    18  C    3.766117   4.853992   5.423380   4.512898   5.202052
    19  C    4.379308   4.929598   5.662713   5.461173   5.766947
    20  C    4.925744   5.376031   5.680124   6.172355   6.841407
    21  C    4.412006   5.471308   5.786394   5.076723   5.967603
    22  C    4.914250   6.082771   6.775544   5.417498   5.942637
    23  H    4.006780   4.668494   5.553209   4.891368   5.041471
    24  H    4.638745   4.861739   5.536163   5.868297   6.103511
    25  H    5.394813   6.018741   6.740509   6.389977   6.696800
    26  H    4.930549   5.359442   5.475260   6.153571   6.952799
    27  H    5.822494   6.391845   6.743857   6.967811   7.625487
    28  H    5.269760   5.443683   5.705875   6.638577   7.218750
    29  H    4.672284   5.887277   6.215553   5.016296   5.928622
    30  H    5.426375   6.398620   6.676288   6.162319   7.032625
    31  H    4.058123   4.944059   5.076269   4.849078   5.823819
    32  H    5.266578   6.569663   7.239002   5.500056   6.061096
    33  H    4.898554   6.023461   6.848177   5.347998   5.675758
    34  H    5.813663   6.880795   7.517727   6.441889   6.985362
    35  C    6.073620   4.701433   4.656346   6.890348   6.601104
    36  H    6.205031   4.803496   4.607599   7.194122   7.061868
    37  H    6.994239   5.675882   5.716912   7.776859   7.392049
    38  H    6.214311   4.811520   4.624207   6.867747   6.572283
                    6          7          8          9         10
     6  H    0.000000
     7  H    1.794829   0.000000
     8  C    4.367365   3.870966   0.000000
     9  O    4.397258   4.306916   1.227838   0.000000
    10  O    5.577662   4.787689   1.355112   2.274477   0.000000
    11  C    6.673703   6.003906   2.374236   2.675705   1.445394
    12  H    6.888897   6.481605   2.635703   2.619396   2.080780
    13  H    6.587227   5.936980   2.644009   2.631754   2.081089
    14  B    2.733449   3.440055   3.429897   3.562940   4.591995
    15  O    4.107753   4.626359   3.624247   3.820133   4.561736
    16  O    2.634744   3.929027   4.664822   4.588547   5.899002
    17  C    4.810381   5.712490   4.917714   4.870113   5.893873
    18  C    4.078300   5.300359   5.582276   5.503310   6.717075
    19  C    5.400756   6.409632   4.987614   4.600486   5.974840
    20  C    6.112433   6.842857   5.900990   6.019752   6.657378
    21  C    4.589083   5.616822   6.461021   6.612936   7.491874
    22  C    4.796860   6.302295   6.638881   6.319409   7.847719
    23  H    4.804898   5.921585   4.620554   4.030519   5.739854
    24  H    5.996961   6.770096   4.700661   4.349183   5.500312
    25  H    6.205074   7.356802   6.073204   5.623906   7.049421
    26  H    6.104437   6.671246   6.103130   6.415868   6.790352
    27  H    6.775301   7.683818   6.887206   6.896554   7.690652
    28  H    6.732368   7.303286   5.765947   5.902278   6.351328
    29  H    4.341107   5.486468   6.955641   7.083579   8.050878
    30  H    5.675724   6.708112   7.324056   7.455171   8.301594
    31  H    4.546144   5.232764   6.055349   6.405460   6.963621
    32  H    4.701330   6.313390   7.244332   6.947966   8.497375
    33  H    4.778952   6.340014   6.363977   5.854751   7.609136
    34  H    5.861641   7.306583   7.397537   7.090816   8.537512
    35  C    7.915431   7.027037   3.645907   4.158700   2.385002
    36  H    8.193959   7.320486   3.931010   4.584690   2.649891
    37  H    8.783344   7.968271   4.497237   4.789843   3.347721
    38  H    7.940184   6.839748   3.936313   4.591655   2.649821
                   11         12         13         14         15
    11  C    0.000000
    12  H    1.101730   0.000000
    13  H    1.101805   1.777578   0.000000
    14  B    5.688249   5.578866   5.999226   0.000000
    15  O    5.561192   5.270448   6.081948   1.377481   0.000000
    16  O    6.933289   6.773225   7.145707   1.377046   2.302414
    17  C    6.750238   6.300078   7.239286   2.282442   1.462493
    18  C    7.692238   7.375023   8.038796   2.283957   2.365520
    19  C    6.534915   5.896132   6.935086   3.091488   2.398173
    20  C    7.507481   7.011680   8.157294   3.530300   2.424825
    21  C    8.618099   8.401597   9.042419   3.101756   3.157306
    22  C    8.683218   8.273339   8.924018   3.526165   3.683246
    23  H    6.248714   5.659547   6.482411   2.910548   2.680543
    24  H    5.916494   5.173854   6.414610   3.548873   2.595535
    25  H    7.544368   6.841153   7.931321   4.034843   3.374785
    26  H    7.785863   7.416767   8.479362   3.644506   2.654734
    27  H    8.483972   7.925915   9.100998   4.345932   3.387096
    28  H    7.068116   6.486440   7.804224   4.026535   2.717355
    29  H    9.218392   9.079845   9.550079   3.557739   3.965932
    30  H    9.379005   9.079801   9.864027   4.044748   3.824866
    31  H    8.175695   8.044367   8.674392   2.927317   2.889206
    32  H    9.400386   9.075902   9.574825   4.025992   4.449481
    33  H    8.303639   7.840188   8.452625   3.633243   3.849705
    34  H    9.328510   8.832570   9.645214   4.342399   4.200933
    35  C    1.513468   2.181543   2.181339   6.896233   6.658881
    36  H    2.165808   2.531319   3.095850   6.876601   6.454346
    37  H    2.151714   2.523364   2.522807   7.767855   7.496733
    38  H    2.165949   3.096068   2.531459   7.223243   7.135540
                   16         17         18         19         20
    16  O    0.000000
    17  C    2.366279   0.000000
    18  C    1.463448   1.572946   0.000000
    19  C    3.156897   1.530065   2.590881   0.000000
    20  C    3.684910   1.522144   2.609008   2.507727   0.000000
    21  C    2.400159   2.590611   1.529766   3.920961   2.913471
    22  C    2.423925   2.608826   1.522232   2.913075   3.527602
    23  H    2.888795   2.184720   2.775772   1.099961   3.474023
    24  H    3.966586   2.153748   3.521027   1.099929   2.745293
    25  H    3.822868   2.186517   2.957541   1.099757   2.760785
    26  H    3.852553   2.180928   2.883285   3.471032   1.097528
    27  H    4.203452   2.168101   2.879687   2.825894   1.100869
    28  H    4.449974   2.157576   3.548532   2.673145   1.100289
    29  H    2.596615   3.520950   2.154055   4.730449   4.004144
    30  H    3.376173   2.958284   2.185818   4.192726   2.795900
    31  H    2.685492   2.773270   2.184385   4.269734   2.911727
    32  H    2.718217   3.548635   2.157964   3.978495   4.428493
    33  H    2.650880   2.883632   2.180588   2.637690   4.024234
    34  H    3.386551   2.878024   2.168146   3.094723   3.357207
    35  C    8.205325   7.889348   8.907502   7.768697   8.458329
    36  H    8.224181   7.663272   8.784207   7.635013   8.042987
    37  H    9.041073   8.645190   9.714535   8.367223   9.214446
    38  H    8.534824   8.456110   9.351058   8.467209   9.063992
                   21         22         23         24         25
    21  C    0.000000
    22  C    2.508103   0.000000
    23  H    4.271639   2.915535   0.000000
    24  H    4.729801   4.003552   1.780908   0.000000
    25  H    4.192386   2.793537   1.786923   1.784147   0.000000
    26  H    2.636909   4.023270   4.330457   3.706811   3.809106
    27  H    3.098093   3.358295   3.819870   3.213359   2.634104
    28  H    3.978264   4.428978   3.705200   2.451010   2.977744
    29  H    1.099932   2.747632   4.891001   5.620975   4.974950
    30  H    1.099794   2.759329   4.732542   4.974611   4.219767
    31  H    1.099954   3.474230   4.673762   4.888072   4.730296
    32  H    2.672956   1.100289   3.854850   5.069032   3.879728
    33  H    3.470781   1.097536   2.308806   3.716791   2.510128
    34  H    2.828036   1.100853   3.389349   4.117108   2.623935
    35  C    9.707608   9.990844   7.602170   7.062197   8.767083
    36  H    9.486471   9.939380   7.625529   6.863535   8.611963
    37  H   10.598750  10.714453   8.173399   7.599424   9.314249
    38  H   10.060983  10.489780   8.257803   7.846177   9.505508
                   26         27         28         29         30
    26  H    0.000000
    27  H    1.786038   0.000000
    28  H    1.780592   1.780992   0.000000
    29  H    3.715734   4.121352   5.068862   0.000000
    30  H    2.510977   2.629215   3.882184   1.783838   0.000000
    31  H    2.304132   3.388281   3.849784   1.782034   1.786191
    32  H    4.745503   4.241474   5.402322   2.453333   2.974034
    33  H    4.695011   3.925340   4.747193   3.707668   3.808091
    34  H    3.923590   2.852915   4.240953   3.218461   2.634848
    35  C    8.638463   9.467051   7.917993  10.346387  10.430878
    36  H    8.165313   9.058522   7.423784  10.200035  10.133748
    37  H    9.476454  10.181327   8.611660  11.257254  11.296351
    38  H    9.145930  10.107792   8.604778  10.622557  10.845298
                   31         32         33         34         35
    31  H    0.000000
    32  H    3.706391   0.000000
    33  H    4.330070   1.780642   0.000000
    34  H    3.820156   1.781138   1.785972   0.000000
    35  C    9.151277  10.724651   9.680889  10.589110   0.000000
    36  H    8.867484  10.718509   9.718565  10.455289   1.101130
    37  H   10.094560  11.481992  10.326656  11.286046   1.100889
    38  H    9.445290  11.146055  10.221444  11.153650   1.101142
                   36         37         38
    36  H    0.000000
    37  H    1.785648   0.000000
    38  H    1.787282   1.785562   0.000000
 Symmetry turned off by external request.
 Stoichiometry    C12H21BO4(3)
 Framework group  C1[X(C12H21BO4)]
 Deg. of freedom   108
 Full point group                 C1      NOp   1
 Rotational constants (GHZ):           0.8703360           0.2234991           0.2008030
 Leave Link  202 at Tue Aug 18 12:56:06 2026, MaxMem=  2684354560 cpu:               0.0 elap:               0.0
 (Enter /mnt/data/applications/G16/g16/l301.exe)
 Basis read from chk: "alkene_triplet.chk" (5D, 7F)
 Pseudo-potential data read from chk file.
   343 basis functions,   708 primitive gaussians,   360 cartesian basis functions
    66 alpha electrons       64 beta electrons
       nuclear repulsion energy      1259.6752861424 Hartrees.
 IExCor=  402 DFT=T Ex+Corr=B3LYP ExCW=0 ScaHFX=  0.200000
 ScaDFX=  0.800000  0.720000  1.000000  0.810000 ScalE2=  1.000000  1.000000
 IRadAn=      5 IRanWt=     -1 IRanGd=            0 ICorTp=0 IEmpDi=141
 NAtoms=   38 NActive=   38 NUniq=   38 SFac= 1.00D+00 NAtFMM=   60 NAOKFM=F Big=F
 Integral buffers will be    131072 words long.
 Raffenetti 2 integral format.
 Two-electron integral symmetry is turned off.
 R6Disp:  Grimme-D3(BJ) Dispersion energy=       -0.0651038580 Hartrees.
 Nuclear repulsion after empirical dispersion term =     1259.6101822843 Hartrees.
 No density basis found on file 20724.
 Force inversion solution in PCM.
 ------------------------------------------------------------------------------
 Polarizable Continuum Model (PCM)
 =================================
 Model                : PCM.
 Atomic radii         : UFF (Universal Force Field).
 Polarization charges : Total charges.
 Charge compensation  : None.
 Solution method      : Matrix inversion.
 Cavity type          : Scaled VdW (van der Waals Surface) (Alpha=1.100).
 Cavity algorithm     : GePol (No added spheres)
                        Default sphere list used, NSphG=   38.
                        Lebedev-Laikov grids with approx.  5.0 points / Ang**2.
                        Smoothing algorithm: York/Karplus (Gamma=1.0000).
                        Polarization charges: spherical gaussians, with
                                              point-specific exponents (IZeta= 3).
                        Self-potential: point-specific (ISelfS= 7).
                        Self-field    : sphere-specific E.n sum rule (ISelfD= 2).
 1st derivatives      : Analytical E(r).r(x)/FMM algorithm (CHGder, D1EAlg=3).
                        Cavity 1st derivative terms included.
 2nd derivatives      : Analytical E(r).r(xy)/FMM algorithm (CHGder, D2EAlg=3).
                        Cavity 2nd derivative terms included.
 Solvent              : Acetonitrile, Eps=  35.688000 Eps(inf)=   1.806874
 ------------------------------------------------------------------------------
 GePol: Number of generator spheres                  =      38
 GePol: Total number of spheres                      =      38
 GePol: Number of exposed spheres                    =      38 (100.00%)
 GePol: Number of points                             =    2656
 GePol: Average weight of points                     =       0.13
 GePol: Minimum weight of points                     =   0.12D-10
 GePol: Maximum weight of points                     =    0.20577
 GePol: Number of points with low weight             =     160
 GePol: Fraction of low-weight points (<1% of avg)   =       6.02%
 GePol: Cavity surface area                          =    355.595 Ang**2
 GePol: Cavity volume                                =    374.354 Ang**3
 Leave Link  301 at Tue Aug 18 12:56:06 2026, MaxMem=  2684354560 cpu:               0.1 elap:               0.1
 (Enter /mnt/data/applications/G16/g16/l302.exe)
 NPDir=0 NMtPBC=     1 NCelOv=     1 NCel=       1 NClECP=     1 NCelD=      1
         NCelK=      1 NCelE2=     1 NClLst=     1 CellRange=     0.0.
 One-electron integrals computed using PRISM.
   1 Symmetry operations used in ECPInt.
 ECPInt:  NShTT=   13695 NPrTT=  100063 LenC2=   12378 LenP2D=   51044.
 LDataN:  DoStor=T MaxTD1= 4 Len=   56
 NBasis=   343 RedAO= T EigKep=  1.68D-03  NBF=   343
 NBsUse=   343 1.00D-06 EigRej= -1.00D+00 NBFU=   343
 Precomputing XC quadrature grid using
 IXCGrd= 4 IRadAn=           5 IRanWt=          -1 IRanGd=           0 AccXCQ= 0.00D+00.
 Generated NRdTot=       0 NPtTot=           0 NUsed=           0 NTot=          32
 NSgBfM=   358   358   358   358   358 MxSgAt=    38 MxSgA2=    38.
 Leave Link  302 at Tue Aug 18 12:56:09 2026, MaxMem=  2684354560 cpu:               3.0 elap:               3.0
 (Enter /mnt/data/applications/G16/g16/l303.exe)
 DipDrv:  MaxL=1.
 Leave Link  303 at Tue Aug 18 12:56:10 2026, MaxMem=  2684354560 cpu:               0.1 elap:               0.1
 (Enter /mnt/data/applications/G16/g16/l401.exe)
 Initial guess from the checkpoint file:  "alkene_triplet.chk"
 B after Tr=     0.000000    0.000000    0.000000
         Rot=    1.000000    0.000000    0.000000    0.000000 Ang=   0.00 deg.
 Guess basis will be translated and rotated to current coordinates.
 JPrj=2 DoOrth=T DoCkMO=T.
 Initial guess <Sx>= 0.0000 <Sy>= 0.0000 <Sz>= 1.0000 <S**2>= 2.0071 S= 1.0024
 Leave Link  401 at Tue Aug 18 12:56:10 2026, MaxMem=  2684354560 cpu:               0.6 elap:               0.6
 (Enter /mnt/data/applications/G16/g16/l502.exe)
 Two-electron integral symmetry not used.
 UHF open shell SCF:
 Using DIIS extrapolation, IDIIS=  1040.
 NGot=  2684354560 LenX=  2684090050 LenY=  2683960009
 Requested convergence on RMS density matrix=1.00D-08 within 128 cycles.
 Requested convergence on MAX density matrix=1.00D-06.
 Requested convergence on             energy=1.00D-06.
 No special actions if energy rises.
 Fock matrices will be formed incrementally for  20 cycles.

 Cycle   1  Pass 1  IDiag  1:
 FoFJK:  IHMeth= 1 ICntrl=       0 DoSepK=F KAlg= 0 I1Cent=           0 FoldK=F
 IRaf= 830000000 NMat=       1 IRICut=       1 DoRegI=T DoRafI=F ISym2E= 0 IDoP0=0 IntGTp=1.
 FoFCou: FMM=F IPFlag=           0 FMFlag=      100000 FMFlg1=           0
         NFxFlg=           0 DoJE=F BraDBF=F KetDBF=F FulRan=T
         wScrn=  0.000000 ICntrl=         0 IOpCl=  1 I1Cent=           0 NGrid=           0
         NMat0=    1 NMatS0=      1 NMatT0=    0 NMatD0=    1 NMtDS0=    0 NMtDT0=    0
 Symmetry not used in FoFCou.
 Inv3:  Mode=1 IEnd=    21163008.
 Iteration    1 A*A^-1 deviation from unit magnitude is 2.33D-15 for    667.
 Iteration    1 A*A^-1 deviation from orthogonality  is 1.46D-15 for   2283   1229.
 Iteration    1 A^-1*A deviation from unit magnitude is 1.89D-15 for    667.
 Iteration    1 A^-1*A deviation from orthogonality  is 1.09D-15 for   1950   1174.
 E= -795.819291553075    
 DIIS: error= 3.26D-08 at cycle   1 NSaved=   1.
 NSaved= 1 IEnMin= 1 EnMin= -795.819291553075     IErMin= 1 ErrMin= 3.26D-08
 ErrMax= 3.26D-08  0.00D+00 EMaxC= 1.00D-01 BMatC= 3.47D-12 BMatP= 3.47D-12
 IDIUse=1 WtCom= 1.00D+00 WtEn= 0.00D+00
 Coeff-Com:  0.100D+01
 Coeff:      0.100D+01
 Gap=     0.254 Goal=   None    Shift=    0.000
 Gap=     0.162 Goal=   None    Shift=    0.000
 RMSDP=4.87D-09 MaxDP=2.81D-07              OVMax= 4.80D-07

 Error on total polarization charges =  0.01343
 SCF Done:  E(UB3LYP) =  -795.819291553     A.U. after    1 cycles
            NFock=  1  Conv=0.49D-08     -V/T= 2.0069
 <Sx>= 0.0000 <Sy>= 0.0000 <Sz>= 1.0000 <S**2>= 2.0071 S= 1.0024
 <L.S>= 0.000000000000E+00
 KE= 7.903436566533D+02 PE=-4.375906755374D+03 EE= 1.530133624883D+03
 Annihilation of the first spin contaminant:
 S**2 before annihilation     2.0071,   after     2.0000
 Leave Link  502 at Tue Aug 18 12:59:36 2026, MaxMem=  2684354560 cpu:             205.6 elap:             205.9
 (Enter /mnt/data/applications/G16/g16/l801.exe)
 DoSCS=F DFT=T ScalE2(SS,OS)=  1.000000  1.000000
 Range of M.O.s used for correlation:     1   343
 NBasis=   343 NAE=    66 NBE=    64 NFC=     0 NFV=     0
 NROrb=    343 NOA=    66 NOB=    64 NVA=   277 NVB=   279
 Leave Link  801 at Tue Aug 18 12:59:36 2026, MaxMem=  2684354560 cpu:               0.0 elap:               0.0
 (Enter /mnt/data/applications/G16/g16/l1101.exe)
 Using compressed storage, NAtomX=    38.
 Will process     39 centers per pass.
   1 Symmetry operations used in ECPInt.
 ECPInt:  NShTT=   13695 NPrTT=  100063 LenC2=   12378 LenP2D=   51044.
 LDataN:  DoStor=T MaxTD1= 5 Len=  102
 R6Disp: Adding Grimme-D3(BJ) dispersion energy 1st derivatives to the gradient.
 Leave Link 1101 at Tue Aug 18 12:59:38 2026, MaxMem=  2684354560 cpu:               0.8 elap:               0.8
 (Enter /mnt/data/applications/G16/g16/l1102.exe)
 Symmetrizing basis deriv contribution to polar:
 IMax=3 JMax=2 DiffMx= 0.00D+00
 Leave Link 1102 at Tue Aug 18 12:59:38 2026, MaxMem=  2684354560 cpu:               0.1 elap:               0.1
 (Enter /mnt/data/applications/G16/g16/l1110.exe)
 Forming Gx(P) for the SCF density, NAtomX=    38.
 Integral derivatives from FoFJK, PRISM(SPDF).
 Do as many integral derivatives as possible in FoFJK.
 G2DrvN: MDV=    2684351688.
 G2DrvN: will do    39 centers at a time, making    1 passes.
 Calling FoFCou, ICntrl=  3107 FMM=F I1Cent=   0 AccDes= 0.00D+00.
 FoFJK:  IHMeth= 1 ICntrl=    3107 DoSepK=F KAlg= 0 I1Cent=           0 FoldK=F
 IRaf=         0 NMat=       1 IRICut=       1 DoRegI=T DoRafI=F ISym2E= 0 IDoP0=0 IntGTp=1.
 FoFCou: FMM=F IPFlag=           0 FMFlag=      100000 FMFlg1=           0
         NFxFlg=           0 DoJE=F BraDBF=F KetDBF=F FulRan=T
         wScrn=  0.000000 ICntrl=      3107 IOpCl=  1 I1Cent=           0 NGrid=           0
         NMat0=    1 NMatS0=      1 NMatT0=    0 NMatD0=    1 NMtDS0=    0 NMtDT0=    0
 Symmetry not used in FoFCou.
 NEqPCM:  Using equilibrium solvation (IEInf=0, Eps=  35.6880, EpsInf=   1.8069)
 G2PCM: DoFxE=T DoFxN=T DoGrad=T DoDP/DQ/DG/TGxP=FFFF NFrqRd=   0 IEInf=0 SqF1=F DoCFld=F IF1Alg=4.
 GePol: Maximum number of non-zero 1st derivatives   =     221
 End of G2Drv F.D. properties file   721 does not exist.
 End of G2Drv F.D. properties file   722 does not exist.
 End of G2Drv F.D. properties file   788 does not exist.
 Leave Link 1110 at Tue Aug 18 14:33:38 2026, MaxMem=  2684354560 cpu:            5631.5 elap:            5639.5
 (Enter /mnt/data/applications/G16/g16/l1002.exe)
 Minotr:  UHF open shell wavefunction.
          IDoAtm=11111111111111111111111111111111111111
 NEqPCM:  Using equilibrium solvation (IEInf=0, Eps=  35.6880, EpsInf=   1.8069)
          Direct CPHF calculation.
          Differentiating once with respect to electric field.
                with respect to dipole field.
          Differentiating once with respect to nuclear coordinates.
          Requested convergence is 1.0D-08 RMS, and 1.0D-07 maximum.
          Secondary convergence is 1.0D-12 RMS, and 1.0D-12 maximum.
          NewPWx=T KeepS1=F KeepF1=F KeepIn=T MapXYZ=F SortEE=F KeepMc=T.
        11514 words used for storage of precomputed grid.
 Two-electron integral symmetry not used.
          MDV=    2684354560 using IRadAn=       1.
          Solving linear equations simultaneously, MaxMat=     384.
 FoF2E skips out because all densities are zero.
 CalDSu exits because no D1Ps are significant.
 FoFJK:  IHMeth= 1 ICntrl=       0 DoSepK=F KAlg= 0 I1Cent=           0 FoldK=F
 IRaf= 800000000 NMat=     114 IRICut=     285 DoRegI=T DoRafI=T ISym2E= 0 IDoP0=3 IntGTp=3.
          There are   117 degrees of freedom in the 1st order CPHF.  IDoFFX=6 NUNeed=     3.
    114 vectors produced by pass  0 Test12= 3.61D-14 1.00D-09 XBig12= 2.13D+02 4.75D+00.
 AX will form   114 AO Fock derivatives at one time.
    114 vectors produced by pass  1 Test12= 3.61D-14 1.00D-09 XBig12= 3.65D+01 1.17D+00.
    114 vectors produced by pass  2 Test12= 3.61D-14 1.00D-09 XBig12= 6.57D-01 1.85D-01.
    114 vectors produced by pass  3 Test12= 3.61D-14 1.00D-09 XBig12= 5.61D-03 8.93D-03.
    114 vectors produced by pass  4 Test12= 3.61D-14 1.00D-09 XBig12= 2.45D-05 3.84D-04.
    111 vectors produced by pass  5 Test12= 3.61D-14 1.00D-09 XBig12= 9.17D-08 3.11D-05.
     59 vectors produced by pass  6 Test12= 3.61D-14 1.00D-09 XBig12= 2.93D-10 1.39D-06.
      6 vectors produced by pass  7 Test12= 3.61D-14 1.00D-09 XBig12= 9.87D-13 5.93D-08.
      3 vectors produced by pass  8 Test12= 3.61D-14 1.00D-09 XBig12= 3.67D-15 4.65D-09.
      1 vectors produced by pass  9 Test12= 3.61D-14 1.00D-09 XBig12= 2.92D-16 1.11D-09.
 InvSVY:  IOpt=1 It=  1 EMax= 8.88D-15
 Solved reduced A of dimension   750 with   117 vectors.
 FullF1:  Do perturbations      1 to       3.
 Isotropic polarizability for W=    0.000000      198.44 Bohr**3.
 End of Minotr F.D. properties file   721 does not exist.
 End of Minotr F.D. properties file   722 does not exist.
 End of Minotr F.D. properties file   788 does not exist.
 Leave Link 1002 at Tue Aug 18 17:01:02 2026, MaxMem=  2684354560 cpu:            8831.0 elap:            8843.6
 (Enter /mnt/data/applications/G16/g16/l601.exe)
 Copying SCF densities to generalized density rwf, IOpCl= 1 IROHF=0.

 **********************************************************************

            Population analysis using the SCF density.

 **********************************************************************

 Alpha  occ. eigenvalues --  -19.18108 -19.14490 -19.14427 -19.13063 -10.31212
 Alpha  occ. eigenvalues --  -10.24940 -10.24900 -10.24209 -10.22376 -10.20158
 Alpha  occ. eigenvalues --  -10.19216 -10.18527 -10.18184 -10.18178 -10.18063
 Alpha  occ. eigenvalues --  -10.18013  -6.78028  -1.10069  -1.06258  -1.01450
 Alpha  occ. eigenvalues --   -0.99564  -0.82053  -0.80591  -0.77378  -0.75342
 Alpha  occ. eigenvalues --   -0.72051  -0.70700  -0.67973  -0.64735  -0.62323
 Alpha  occ. eigenvalues --   -0.59372  -0.55998  -0.55417  -0.53179  -0.51075
 Alpha  occ. eigenvalues --   -0.49188  -0.48156  -0.46784  -0.46603  -0.44958
 Alpha  occ. eigenvalues --   -0.44548  -0.43951  -0.42830  -0.41823  -0.40779
 Alpha  occ. eigenvalues --   -0.40265  -0.40124  -0.39809  -0.39741  -0.39184
 Alpha  occ. eigenvalues --   -0.38474  -0.37520  -0.37033  -0.36589  -0.36224
 Alpha  occ. eigenvalues --   -0.35444  -0.35229  -0.34914  -0.34061  -0.33594
 Alpha  occ. eigenvalues --   -0.31271  -0.30673  -0.28123  -0.27771  -0.23275
 Alpha  occ. eigenvalues --   -0.21443
 Alpha virt. eigenvalues --    0.03935   0.04972   0.06805   0.06931   0.08120
 Alpha virt. eigenvalues --    0.08759   0.09513   0.10165   0.10227   0.11020
 Alpha virt. eigenvalues --    0.11287   0.11722   0.12082   0.12483   0.12793
 Alpha virt. eigenvalues --    0.13383   0.13850   0.14332   0.14716   0.15154
 Alpha virt. eigenvalues --    0.15611   0.16085   0.16315   0.16644   0.18117
 Alpha virt. eigenvalues --    0.19629   0.20503   0.21194   0.21683   0.21943
 Alpha virt. eigenvalues --    0.22849   0.23445   0.25639   0.26753   0.27888
 Alpha virt. eigenvalues --    0.28503   0.30373   0.30848   0.32368   0.32892
 Alpha virt. eigenvalues --    0.37032   0.39114   0.40607   0.41081   0.41202
 Alpha virt. eigenvalues --    0.42296   0.43518   0.44313   0.44984   0.46182
 Alpha virt. eigenvalues --    0.47870   0.48045   0.48170   0.49801   0.49840
 Alpha virt. eigenvalues --    0.50268   0.51776   0.52352   0.53847   0.54672
 Alpha virt. eigenvalues --    0.54877   0.57226   0.57350   0.58031   0.58549
 Alpha virt. eigenvalues --    0.58750   0.59726   0.60573   0.61884   0.61948
 Alpha virt. eigenvalues --    0.62396   0.62673   0.62943   0.63353   0.63756
 Alpha virt. eigenvalues --    0.64403   0.65015   0.65147   0.65352   0.65667
 Alpha virt. eigenvalues --    0.65875   0.66723   0.66893   0.67132   0.67631
 Alpha virt. eigenvalues --    0.68013   0.68728   0.69159   0.69443   0.70525
 Alpha virt. eigenvalues --    0.71239   0.71944   0.72795   0.73596   0.75095
 Alpha virt. eigenvalues --    0.76159   0.77198   0.78684   0.79713   0.81981
 Alpha virt. eigenvalues --    0.83367   0.84469   0.86268   0.88072   0.89219
 Alpha virt. eigenvalues --    0.89567   0.89968   0.91576   0.92954   0.96494
 Alpha virt. eigenvalues --    0.97489   0.99521   1.01176   1.02334   1.04048
 Alpha virt. eigenvalues --    1.05057   1.06551   1.07483   1.11578   1.12979
 Alpha virt. eigenvalues --    1.14872   1.16359   1.17631   1.19808   1.20217
 Alpha virt. eigenvalues --    1.21678   1.22621   1.23141   1.23977   1.24847
 Alpha virt. eigenvalues --    1.26476   1.27499   1.28897   1.30993   1.32911
 Alpha virt. eigenvalues --    1.33205   1.33910   1.35434   1.35993   1.36243
 Alpha virt. eigenvalues --    1.38162   1.39456   1.40104   1.40450   1.41351
 Alpha virt. eigenvalues --    1.41582   1.41908   1.42198   1.43874   1.44686
 Alpha virt. eigenvalues --    1.46331   1.48594   1.50215   1.50857   1.53214
 Alpha virt. eigenvalues --    1.53384   1.54779   1.56598   1.57227   1.58284
 Alpha virt. eigenvalues --    1.59257   1.60365   1.60559   1.60960   1.61193
 Alpha virt. eigenvalues --    1.61861   1.63011   1.63655   1.63803   1.64069
 Alpha virt. eigenvalues --    1.64667   1.65774   1.66945   1.67657   1.68185
 Alpha virt. eigenvalues --    1.68489   1.69330   1.69561   1.70337   1.71556
 Alpha virt. eigenvalues --    1.72071   1.72508   1.72916   1.73757   1.74843
 Alpha virt. eigenvalues --    1.76408   1.76779   1.78353   1.78584   1.79430
 Alpha virt. eigenvalues --    1.80069   1.81738   1.83760   1.84030   1.84750
 Alpha virt. eigenvalues --    1.85774   1.87155   1.88578   1.90196   1.90732
 Alpha virt. eigenvalues --    1.93558   1.93685   1.94459   1.95018   1.99530
 Alpha virt. eigenvalues --    2.00020   2.00595   2.01626   2.02087   2.02975
 Alpha virt. eigenvalues --    2.03828   2.05730   2.07926   2.08778   2.09164
 Alpha virt. eigenvalues --    2.12474   2.13394   2.15316   2.17331   2.18341
 Alpha virt. eigenvalues --    2.18936   2.20472   2.22219   2.23180   2.23525
 Alpha virt. eigenvalues --    2.28101   2.28668   2.29312   2.32151   2.32427
 Alpha virt. eigenvalues --    2.33826   2.35339   2.36515   2.38600   2.40583
 Alpha virt. eigenvalues --    2.41116   2.41748   2.41863   2.42235   2.43700
 Alpha virt. eigenvalues --    2.44615   2.45745   2.45926   2.46945   2.48128
 Alpha virt. eigenvalues --    2.48875   2.49680   2.50721   2.52721   2.53648
 Alpha virt. eigenvalues --    2.54174   2.54397   2.55688   2.56129   2.59377
 Alpha virt. eigenvalues --    2.59648   2.62748   2.64186   2.71820   2.87877
 Alpha virt. eigenvalues --    2.88483   2.89355   2.91021   2.97922   2.99864
 Alpha virt. eigenvalues --    3.01430   3.04828   3.15478   3.16215   3.18169
 Alpha virt. eigenvalues --    3.23994   3.35302   3.36557   3.43115   3.43684
 Alpha virt. eigenvalues --    3.48432   3.54482
  Beta  occ. eigenvalues --  -19.17987 -19.14370 -19.14312 -19.12647 -10.31228
  Beta  occ. eigenvalues --  -10.24939 -10.24905 -10.24211 -10.21259 -10.19182
  Beta  occ. eigenvalues --  -10.19002 -10.18527 -10.18181 -10.18176 -10.18059
  Beta  occ. eigenvalues --  -10.18009  -6.77955  -1.09711  -1.06051  -1.00781
  Beta  occ. eigenvalues --   -0.99315  -0.81046  -0.78965  -0.76720  -0.75311
  Beta  occ. eigenvalues --   -0.70706  -0.70576  -0.67963  -0.64055  -0.62141
  Beta  occ. eigenvalues --   -0.58285  -0.55573  -0.55169  -0.52557  -0.49672
  Beta  occ. eigenvalues --   -0.48710  -0.47812  -0.46598  -0.46042  -0.44822
  Beta  occ. eigenvalues --   -0.43981  -0.43547  -0.41636  -0.40883  -0.40310
  Beta  occ. eigenvalues --   -0.40138  -0.39699  -0.39629  -0.39530  -0.39087
  Beta  occ. eigenvalues --   -0.38127  -0.37280  -0.37018  -0.36452  -0.35618
  Beta  occ. eigenvalues --   -0.35175  -0.35044  -0.34010  -0.33510  -0.33307
  Beta  occ. eigenvalues --   -0.31217  -0.29357  -0.27542  -0.27279
  Beta virt. eigenvalues --   -0.11051  -0.09075   0.04943   0.06220   0.06922
  Beta virt. eigenvalues --    0.08212   0.08811   0.08861   0.09667   0.10241
  Beta virt. eigenvalues --    0.10330   0.11136   0.11765   0.12152   0.12191
  Beta virt. eigenvalues --    0.12644   0.12966   0.13474   0.14283   0.14492
  Beta virt. eigenvalues --    0.14834   0.15416   0.15685   0.16223   0.16362
  Beta virt. eigenvalues --    0.16747   0.18179   0.19941   0.20606   0.21392
  Beta virt. eigenvalues --    0.21836   0.22353   0.23000   0.23981   0.25986
  Beta virt. eigenvalues --    0.27200   0.28397   0.28963   0.30767   0.32099
  Beta virt. eigenvalues --    0.33216   0.34410   0.37545   0.39146   0.40779
  Beta virt. eigenvalues --    0.41133   0.41970   0.43373   0.44317   0.44779
  Beta virt. eigenvalues --    0.45677   0.46603   0.48199   0.48230   0.48461
  Beta virt. eigenvalues --    0.50094   0.50350   0.50767   0.52430   0.52807
  Beta virt. eigenvalues --    0.54041   0.55127   0.55854   0.57325   0.57866
  Beta virt. eigenvalues --    0.58496   0.58682   0.59324   0.60132   0.60952
  Beta virt. eigenvalues --    0.62121   0.62203   0.62551   0.62887   0.63318
  Beta virt. eigenvalues --    0.63954   0.64185   0.64520   0.65220   0.65238
  Beta virt. eigenvalues --    0.65498   0.65820   0.65959   0.66992   0.67250
  Beta virt. eigenvalues --    0.67739   0.67753   0.68256   0.69122   0.69370
  Beta virt. eigenvalues --    0.69608   0.71162   0.71920   0.72321   0.73283
  Beta virt. eigenvalues --    0.74269   0.75450   0.76466   0.77425   0.78912
  Beta virt. eigenvalues --    0.80152   0.82602   0.83714   0.85214   0.86834
  Beta virt. eigenvalues --    0.88798   0.89452   0.89920   0.90752   0.92040
  Beta virt. eigenvalues --    0.93231   0.97278   0.98787   1.00694   1.01576
  Beta virt. eigenvalues --    1.03141   1.05210   1.05698   1.06942   1.07521
  Beta virt. eigenvalues --    1.12131   1.13405   1.15154   1.17030   1.17964
  Beta virt. eigenvalues --    1.19935   1.20281   1.22308   1.23048   1.23926
  Beta virt. eigenvalues --    1.24287   1.25398   1.26740   1.27916   1.29496
  Beta virt. eigenvalues --    1.31178   1.33392   1.33605   1.35014   1.35977
  Beta virt. eigenvalues --    1.36309   1.36650   1.38467   1.39690   1.40398
  Beta virt. eigenvalues --    1.41293   1.41519   1.41593   1.42022   1.42652
  Beta virt. eigenvalues --    1.44486   1.44878   1.46896   1.48757   1.50948
  Beta virt. eigenvalues --    1.51935   1.53445   1.53779   1.55487   1.56835
  Beta virt. eigenvalues --    1.57523   1.58551   1.59631   1.60496   1.60605
  Beta virt. eigenvalues --    1.61100   1.61387   1.61961   1.63175   1.63759
  Beta virt. eigenvalues --    1.63922   1.64594   1.64984   1.66281   1.67202
  Beta virt. eigenvalues --    1.67850   1.68516   1.69017   1.69535   1.69860
  Beta virt. eigenvalues --    1.70911   1.72136   1.72466   1.72623   1.73272
  Beta virt. eigenvalues --    1.74339   1.75084   1.76621   1.77003   1.78526
  Beta virt. eigenvalues --    1.78877   1.79669   1.80860   1.81948   1.84104
  Beta virt. eigenvalues --    1.84593   1.85442   1.85856   1.87200   1.89848
  Beta virt. eigenvalues --    1.90994   1.92443   1.93720   1.93757   1.94985
  Beta virt. eigenvalues --    1.95959   1.99707   2.00132   2.00802   2.02059
  Beta virt. eigenvalues --    2.02755   2.03421   2.04187   2.05792   2.07969
  Beta virt. eigenvalues --    2.08997   2.09921   2.12897   2.13751   2.15939
  Beta virt. eigenvalues --    2.18312   2.18507   2.19014   2.20636   2.23059
  Beta virt. eigenvalues --    2.23286   2.23690   2.28142   2.29235   2.29848
  Beta virt. eigenvalues --    2.32212   2.32591   2.33938   2.35822   2.36626
  Beta virt. eigenvalues --    2.39027   2.40623   2.41292   2.41774   2.42149
  Beta virt. eigenvalues --    2.42451   2.43839   2.45109   2.45815   2.45979
  Beta virt. eigenvalues --    2.47287   2.48137   2.48903   2.49695   2.50783
  Beta virt. eigenvalues --    2.53152   2.53839   2.54538   2.54935   2.55736
  Beta virt. eigenvalues --    2.56333   2.59574   2.59828   2.62990   2.65076
  Beta virt. eigenvalues --    2.72932   2.88255   2.88869   2.89938   2.91472
  Beta virt. eigenvalues --    2.98222   3.00225   3.01711   3.05127   3.16348
  Beta virt. eigenvalues --    3.16515   3.18379   3.24290   3.35388   3.36895
  Beta virt. eigenvalues --    3.43307   3.43929   3.48809   3.54763
          Condensed to atoms (all electrons):
               1          2          3          4          5          6
     1  C    5.092302   0.306052  -0.031615   0.434601  -0.017702  -0.013168
     2  C    0.306052   5.262118   0.356200  -0.057001  -0.007783   0.008403
     3  H   -0.031615   0.356200   0.648200   0.000715  -0.000283  -0.000305
     4  C    0.434601  -0.057001   0.000715   4.538404   0.365524   0.381262
     5  H   -0.017702  -0.007783  -0.000283   0.365524   0.656872  -0.028002
     6  H   -0.013168   0.008403  -0.000305   0.381262  -0.028002   0.658082
     7  H   -0.019323  -0.002798   0.002337   0.373269  -0.028968  -0.027415
     8  C   -0.060703   0.393257  -0.024099  -0.002867   0.003084  -0.000035
     9  O    0.009146  -0.091790   0.003872  -0.003084   0.004180  -0.000118
    10  O    0.003720  -0.055635   0.006204  -0.000075  -0.000010   0.000001
    11  C   -0.000325   0.007234  -0.000719   0.000012  -0.000016  -0.000000
    12  H    0.000036   0.001330   0.000038   0.000003  -0.000006  -0.000000
    13  H    0.000055   0.001122   0.000043  -0.000008   0.000020   0.000000
    14  B    0.436048  -0.086747   0.006264  -0.043371   0.008534  -0.017255
    15  O   -0.020695   0.003334   0.000201   0.000882  -0.000022   0.000067
    16  O   -0.016716   0.000750  -0.000015  -0.002586  -0.000048   0.009665
    17  C    0.002900  -0.000419   0.000001   0.000071   0.000007   0.000011
    18  C    0.000174   0.000109   0.000011  -0.000282   0.000018  -0.000409
    19  C   -0.000171  -0.000058   0.000000   0.000008   0.000000  -0.000004
    20  C    0.000026  -0.000021   0.000001  -0.000001  -0.000000  -0.000002
    21  C   -0.000228  -0.000006  -0.000000   0.000003   0.000000  -0.000011
    22  C   -0.000004  -0.000005  -0.000000  -0.000011   0.000002  -0.000011
    23  H    0.000112  -0.000171  -0.000002   0.000003   0.000007  -0.000022
    24  H   -0.000191   0.000050   0.000001  -0.000001  -0.000000   0.000002
    25  H    0.000001  -0.000002  -0.000000  -0.000000   0.000000  -0.000000
    26  H   -0.000044   0.000009   0.000002   0.000000  -0.000000   0.000000
    27  H    0.000003   0.000001   0.000000  -0.000000   0.000000  -0.000000
    28  H   -0.000036   0.000012   0.000000   0.000000   0.000000   0.000000
    29  H   -0.000138  -0.000001   0.000000  -0.000002  -0.000000   0.000116
    30  H    0.000004  -0.000001   0.000000  -0.000001  -0.000000  -0.000001
    31  H    0.000086  -0.000037  -0.000000  -0.000001   0.000001  -0.000042
    32  H   -0.000025   0.000000   0.000000  -0.000005  -0.000000   0.000049
    33  H   -0.000053   0.000001  -0.000000   0.000005   0.000001   0.000001
    34  H    0.000003  -0.000000   0.000000   0.000001   0.000000  -0.000002
    35  C   -0.000001  -0.000080  -0.000127   0.000000  -0.000001   0.000000
    36  H    0.000002  -0.000027   0.000053  -0.000000   0.000000   0.000000
    37  H   -0.000000   0.000020   0.000004   0.000000  -0.000000  -0.000000
    38  H    0.000002  -0.000018   0.000051   0.000000  -0.000000  -0.000000
               7          8          9         10         11         12
     1  C   -0.019323  -0.060703   0.009146   0.003720  -0.000325   0.000036
     2  C   -0.002798   0.393257  -0.091790  -0.055635   0.007234   0.001330
     3  H    0.002337  -0.024099   0.003872   0.006204  -0.000719   0.000038
     4  C    0.373269  -0.002867  -0.003084  -0.000075   0.000012   0.000003
     5  H   -0.028968   0.003084   0.004180  -0.000010  -0.000016  -0.000006
     6  H   -0.027415  -0.000035  -0.000118   0.000001  -0.000000  -0.000000
     7  H    0.659641  -0.000784  -0.000008  -0.000003   0.000000  -0.000000
     8  C   -0.000784   4.401946   0.706834   0.385427  -0.049766  -0.001220
     9  O   -0.000008   0.706834   7.697067  -0.060676   0.000398   0.008134
    10  O   -0.000003   0.385427  -0.060676   7.794525   0.292890  -0.030458
    11  C    0.000000  -0.049766   0.000398   0.292890   4.480854   0.379480
    12  H   -0.000000  -0.001220   0.008134  -0.030458   0.379480   0.691038
    13  H    0.000000  -0.001159   0.007737  -0.030340   0.379689  -0.049267
    14  B    0.003402  -0.001148   0.020346   0.000735  -0.000104   0.000048
    15  O   -0.000026   0.000145  -0.000204  -0.000000  -0.000000  -0.000001
    16  O   -0.000020   0.000008  -0.000003  -0.000000   0.000000   0.000000
    17  C    0.000006  -0.000068  -0.000052   0.000000   0.000000  -0.000001
    18  C    0.000005  -0.000011   0.000010  -0.000000  -0.000000   0.000000
    19  C   -0.000000   0.000036  -0.000009   0.000000  -0.000000  -0.000000
    20  C   -0.000000  -0.000001  -0.000000   0.000000  -0.000000  -0.000000
    21  C    0.000004   0.000001   0.000000   0.000000  -0.000000   0.000000
    22  C   -0.000001   0.000000   0.000000   0.000000  -0.000000   0.000000
    23  H   -0.000000   0.000080   0.000334   0.000001  -0.000000   0.000000
    24  H   -0.000000   0.000052   0.000057  -0.000001  -0.000001   0.000008
    25  H   -0.000000   0.000001   0.000000   0.000000  -0.000000  -0.000000
    26  H    0.000000  -0.000000  -0.000000   0.000000   0.000000  -0.000000
    27  H    0.000000  -0.000000   0.000000   0.000000   0.000000   0.000000
    28  H   -0.000000  -0.000001  -0.000000   0.000000  -0.000000  -0.000000
    29  H   -0.000001  -0.000000   0.000000  -0.000000  -0.000000   0.000000
    30  H   -0.000000  -0.000000   0.000000   0.000000  -0.000000   0.000000
    31  H    0.000002   0.000002   0.000000   0.000000  -0.000000   0.000000
    32  H   -0.000000  -0.000000   0.000000   0.000000  -0.000000  -0.000000
    33  H   -0.000000  -0.000000  -0.000000  -0.000000   0.000000   0.000000
    34  H    0.000000   0.000000   0.000000  -0.000000   0.000000  -0.000000
    35  C    0.000000   0.003429   0.001201  -0.033625   0.450231  -0.026452
    36  H    0.000000   0.000186  -0.000021   0.002896  -0.019356  -0.010672
    37  H    0.000000  -0.000008   0.000041   0.002927  -0.011837  -0.001283
    38  H   -0.000000   0.000188  -0.000020   0.002843  -0.019254   0.008976
              13         14         15         16         17         18
     1  C    0.000055   0.436048  -0.020695  -0.016716   0.002900   0.000174
     2  C    0.001122  -0.086747   0.003334   0.000750  -0.000419   0.000109
     3  H    0.000043   0.006264   0.000201  -0.000015   0.000001   0.000011
     4  C   -0.000008  -0.043371   0.000882  -0.002586   0.000071  -0.000282
     5  H    0.000020   0.008534  -0.000022  -0.000048   0.000007   0.000018
     6  H    0.000000  -0.017255   0.000067   0.009665   0.000011  -0.000409
     7  H    0.000000   0.003402  -0.000026  -0.000020   0.000006   0.000005
     8  C   -0.001159  -0.001148   0.000145   0.000008  -0.000068  -0.000011
     9  O    0.007737   0.020346  -0.000204  -0.000003  -0.000052   0.000010
    10  O   -0.030340   0.000735  -0.000000  -0.000000   0.000000  -0.000000
    11  C    0.379689  -0.000104  -0.000000   0.000000   0.000000  -0.000000
    12  H   -0.049267   0.000048  -0.000001   0.000000  -0.000001   0.000000
    13  H    0.691437  -0.000035   0.000000   0.000000   0.000000  -0.000000
    14  B   -0.000035   3.677853   0.529005   0.518492  -0.100525  -0.101810
    15  O    0.000000   0.529005   7.586210  -0.018348   0.264198  -0.056806
    16  O    0.000000   0.518492  -0.018348   7.591295  -0.057005   0.264554
    17  C    0.000000  -0.100525   0.264198  -0.057005   4.992479   0.292381
    18  C   -0.000000  -0.101810  -0.056806   0.264554   0.292381   4.996377
    19  C    0.000000   0.007744  -0.040065   0.000491   0.420186  -0.057084
    20  C    0.000000  -0.001776  -0.032553   0.003189   0.443922  -0.052100
    21  C   -0.000000   0.007018   0.000231  -0.039930  -0.056906   0.421402
    22  C   -0.000000  -0.001778   0.003187  -0.032294  -0.052137   0.444247
    23  H   -0.000000   0.006045  -0.004250   0.002541  -0.006524  -0.008555
    24  H   -0.000000   0.000610   0.002266  -0.000224  -0.009938   0.007738
    25  H    0.000000  -0.001430   0.004307  -0.000102  -0.009852  -0.006967
    26  H    0.000000   0.001867   0.000533  -0.000004  -0.000498  -0.014362
    27  H   -0.000000   0.000593   0.003574   0.000029  -0.012932  -0.001898
    28  H    0.000000  -0.000274   0.000012  -0.000141  -0.008477   0.007756
    29  H   -0.000000   0.000053  -0.000231   0.002275   0.007720  -0.010146
    30  H   -0.000000  -0.001289  -0.000107   0.004276  -0.006790  -0.009428
    31  H   -0.000000   0.005974   0.002758  -0.004139  -0.008440  -0.006287
    32  H    0.000000  -0.000508  -0.000140  -0.000019   0.007746  -0.008728
    33  H    0.000000   0.001886  -0.000023   0.000721  -0.014259  -0.000191
    34  H    0.000000   0.000590   0.000031   0.003574  -0.001955  -0.012936
    35  C   -0.026420  -0.000009  -0.000000   0.000000   0.000000  -0.000000
    36  H    0.008996  -0.000000   0.000000  -0.000000   0.000000  -0.000000
    37  H   -0.001244  -0.000000   0.000000  -0.000000   0.000000  -0.000000
    38  H   -0.010643   0.000001  -0.000000   0.000000  -0.000000   0.000000
              19         20         21         22         23         24
     1  C   -0.000171   0.000026  -0.000228  -0.000004   0.000112  -0.000191
     2  C   -0.000058  -0.000021  -0.000006  -0.000005  -0.000171   0.000050
     3  H    0.000000   0.000001  -0.000000  -0.000000  -0.000002   0.000001
     4  C    0.000008  -0.000001   0.000003  -0.000011   0.000003  -0.000001
     5  H    0.000000  -0.000000   0.000000   0.000002   0.000007  -0.000000
     6  H   -0.000004  -0.000002  -0.000011  -0.000011  -0.000022   0.000002
     7  H   -0.000000  -0.000000   0.000004  -0.000001  -0.000000  -0.000000
     8  C    0.000036  -0.000001   0.000001   0.000000   0.000080   0.000052
     9  O   -0.000009  -0.000000   0.000000   0.000000   0.000334   0.000057
    10  O    0.000000   0.000000   0.000000   0.000000   0.000001  -0.000001
    11  C   -0.000000  -0.000000  -0.000000  -0.000000  -0.000000  -0.000001
    12  H   -0.000000  -0.000000   0.000000   0.000000   0.000000   0.000008
    13  H    0.000000   0.000000  -0.000000  -0.000000  -0.000000  -0.000000
    14  B    0.007744  -0.001776   0.007018  -0.001778   0.006045   0.000610
    15  O   -0.040065  -0.032553   0.000231   0.003187  -0.004250   0.002266
    16  O    0.000491   0.003189  -0.039930  -0.032294   0.002541  -0.000224
    17  C    0.420186   0.443922  -0.056906  -0.052137  -0.006524  -0.009938
    18  C   -0.057084  -0.052100   0.421402   0.444247  -0.008555   0.007738
    19  C    4.537632  -0.056577   0.007599  -0.002327   0.375856   0.366587
    20  C   -0.056577   4.519354  -0.002496   0.002845   0.007398  -0.008329
    21  C    0.007599  -0.002496   4.537712  -0.056378   0.000246  -0.000337
    22  C   -0.002327   0.002845  -0.056378   4.518561  -0.000960   0.000249
    23  H    0.375856   0.007398   0.000246  -0.000960   0.656110  -0.027443
    24  H    0.366587  -0.008329  -0.000337   0.000249  -0.027443   0.665334
    25  H    0.366574  -0.001103  -0.000247   0.006719  -0.029414  -0.023921
    26  H    0.007594   0.364876   0.009599  -0.000142  -0.000506  -0.000024
    27  H   -0.000204   0.369894  -0.000833  -0.000207   0.000038  -0.000377
    28  H   -0.008422   0.369037  -0.000123  -0.000300   0.000043   0.005177
    29  H   -0.000345   0.000246   0.366924  -0.008219  -0.000036   0.000017
    30  H   -0.000244   0.006518   0.366737  -0.001238  -0.000010   0.000007
    31  H    0.000263  -0.001180   0.375588   0.007470   0.000067  -0.000036
    32  H   -0.000144  -0.000300  -0.008288   0.369167  -0.000128  -0.000016
    33  H    0.009646  -0.000148   0.007604   0.364498   0.001603  -0.000087
    34  H   -0.000790  -0.000219  -0.000202   0.369934   0.000192  -0.000012
    35  C   -0.000000  -0.000000  -0.000000  -0.000000  -0.000000  -0.000000
    36  H    0.000000   0.000000  -0.000000  -0.000000  -0.000000  -0.000000
    37  H    0.000000  -0.000000  -0.000000  -0.000000  -0.000000  -0.000000
    38  H   -0.000000   0.000000   0.000000   0.000000   0.000000   0.000000
              25         26         27         28         29         30
     1  C    0.000001  -0.000044   0.000003  -0.000036  -0.000138   0.000004
     2  C   -0.000002   0.000009   0.000001   0.000012  -0.000001  -0.000001
     3  H   -0.000000   0.000002   0.000000   0.000000   0.000000   0.000000
     4  C   -0.000000   0.000000  -0.000000   0.000000  -0.000002  -0.000001
     5  H    0.000000  -0.000000   0.000000   0.000000  -0.000000  -0.000000
     6  H   -0.000000   0.000000  -0.000000   0.000000   0.000116  -0.000001
     7  H   -0.000000   0.000000   0.000000  -0.000000  -0.000001  -0.000000
     8  C    0.000001  -0.000000  -0.000000  -0.000001  -0.000000  -0.000000
     9  O    0.000000  -0.000000   0.000000  -0.000000   0.000000   0.000000
    10  O    0.000000   0.000000   0.000000   0.000000  -0.000000   0.000000
    11  C   -0.000000   0.000000   0.000000  -0.000000  -0.000000  -0.000000
    12  H   -0.000000  -0.000000   0.000000  -0.000000   0.000000   0.000000
    13  H    0.000000   0.000000  -0.000000   0.000000  -0.000000  -0.000000
    14  B   -0.001430   0.001867   0.000593  -0.000274   0.000053  -0.001289
    15  O    0.004307   0.000533   0.003574   0.000012  -0.000231  -0.000107
    16  O   -0.000102  -0.000004   0.000029  -0.000141   0.002275   0.004276
    17  C   -0.009852  -0.000498  -0.012932  -0.008477   0.007720  -0.006790
    18  C   -0.006967  -0.014362  -0.001898   0.007756  -0.010146  -0.009428
    19  C    0.366574   0.007594  -0.000204  -0.008422  -0.000345  -0.000244
    20  C   -0.001103   0.364876   0.369894   0.369037   0.000246   0.006518
    21  C   -0.000247   0.009599  -0.000833  -0.000123   0.366924   0.366737
    22  C    0.006719  -0.000142  -0.000207  -0.000300  -0.008219  -0.001238
    23  H   -0.029414  -0.000506   0.000038   0.000043  -0.000036  -0.000010
    24  H   -0.023921  -0.000024  -0.000377   0.005177   0.000017   0.000007
    25  H    0.668181  -0.000022   0.001694  -0.000247   0.000005  -0.000023
    26  H   -0.000022   0.660210  -0.025500  -0.027419  -0.000095  -0.000094
    27  H    0.001694  -0.025500   0.658002  -0.025611  -0.000013   0.000238
    28  H   -0.000247  -0.027419  -0.025611   0.666889  -0.000016   0.000149
    29  H    0.000005  -0.000095  -0.000013  -0.000016   0.665822  -0.023823
    30  H   -0.000023  -0.000094   0.000238   0.000149  -0.023823   0.666974
    31  H   -0.000009   0.001711   0.000198  -0.000134  -0.027600  -0.029552
    32  H    0.000147  -0.000008  -0.000123   0.000023   0.005216  -0.000211
    33  H   -0.000143  -0.000025  -0.000083  -0.000005  -0.000014  -0.000026
    34  H    0.000200  -0.000079   0.001762  -0.000124  -0.000378   0.001684
    35  C   -0.000000   0.000000   0.000000  -0.000000  -0.000000  -0.000000
    36  H   -0.000000   0.000000  -0.000000   0.000000  -0.000000  -0.000000
    37  H    0.000000  -0.000000  -0.000000   0.000000  -0.000000  -0.000000
    38  H    0.000000   0.000000   0.000000  -0.000000   0.000000   0.000000
              31         32         33         34         35         36
     1  C    0.000086  -0.000025  -0.000053   0.000003  -0.000001   0.000002
     2  C   -0.000037   0.000000   0.000001  -0.000000  -0.000080  -0.000027
     3  H   -0.000000   0.000000  -0.000000   0.000000  -0.000127   0.000053
     4  C   -0.000001  -0.000005   0.000005   0.000001   0.000000  -0.000000
     5  H    0.000001  -0.000000   0.000001   0.000000  -0.000001   0.000000
     6  H   -0.000042   0.000049   0.000001  -0.000002   0.000000   0.000000
     7  H    0.000002  -0.000000  -0.000000   0.000000   0.000000   0.000000
     8  C    0.000002  -0.000000  -0.000000   0.000000   0.003429   0.000186
     9  O    0.000000   0.000000  -0.000000   0.000000   0.001201  -0.000021
    10  O    0.000000   0.000000  -0.000000  -0.000000  -0.033625   0.002896
    11  C   -0.000000  -0.000000   0.000000   0.000000   0.450231  -0.019356
    12  H    0.000000  -0.000000   0.000000  -0.000000  -0.026452  -0.010672
    13  H   -0.000000   0.000000   0.000000   0.000000  -0.026420   0.008996
    14  B    0.005974  -0.000508   0.001886   0.000590  -0.000009  -0.000000
    15  O    0.002758  -0.000140  -0.000023   0.000031  -0.000000   0.000000
    16  O   -0.004139  -0.000019   0.000721   0.003574   0.000000  -0.000000
    17  C   -0.008440   0.007746  -0.014259  -0.001955   0.000000   0.000000
    18  C   -0.006287  -0.008728  -0.000191  -0.012936  -0.000000  -0.000000
    19  C    0.000263  -0.000144   0.009646  -0.000790  -0.000000   0.000000
    20  C   -0.001180  -0.000300  -0.000148  -0.000219  -0.000000   0.000000
    21  C    0.375588  -0.008288   0.007604  -0.000202  -0.000000  -0.000000
    22  C    0.007470   0.369167   0.364498   0.369934  -0.000000  -0.000000
    23  H    0.000067  -0.000128   0.001603   0.000192  -0.000000  -0.000000
    24  H   -0.000036  -0.000016  -0.000087  -0.000012  -0.000000  -0.000000
    25  H   -0.000009   0.000147  -0.000143   0.000200  -0.000000  -0.000000
    26  H    0.001711  -0.000008  -0.000025  -0.000079   0.000000   0.000000
    27  H    0.000198  -0.000123  -0.000083   0.001762   0.000000  -0.000000
    28  H   -0.000134   0.000023  -0.000005  -0.000124  -0.000000   0.000000
    29  H   -0.027600   0.005216  -0.000014  -0.000378  -0.000000  -0.000000
    30  H   -0.029552  -0.000211  -0.000026   0.001684  -0.000000  -0.000000
    31  H    0.656848   0.000055  -0.000511   0.000033  -0.000000  -0.000000
    32  H    0.000055   0.666974  -0.027254  -0.025630  -0.000000   0.000000
    33  H   -0.000511  -0.027254   0.659450  -0.025431   0.000000   0.000000
    34  H    0.000033  -0.025630  -0.025431   0.657764  -0.000000   0.000000
    35  C   -0.000000  -0.000000   0.000000  -0.000000   4.518066   0.381800
    36  H   -0.000000   0.000000   0.000000   0.000000   0.381800   0.659153
    37  H   -0.000000  -0.000000   0.000000   0.000000   0.373908  -0.024048
    38  H    0.000000  -0.000000   0.000000  -0.000000   0.381669  -0.032201
              37         38
     1  C   -0.000000   0.000002
     2  C    0.000020  -0.000018
     3  H    0.000004   0.000051
     4  C    0.000000   0.000000
     5  H   -0.000000  -0.000000
     6  H   -0.000000  -0.000000
     7  H    0.000000  -0.000000
     8  C   -0.000008   0.000188
     9  O    0.000041  -0.000020
    10  O    0.002927   0.002843
    11  C   -0.011837  -0.019254
    12  H   -0.001283   0.008976
    13  H   -0.001244  -0.010643
    14  B   -0.000000   0.000001
    15  O    0.000000  -0.000000
    16  O   -0.000000   0.000000
    17  C    0.000000  -0.000000
    18  C   -0.000000   0.000000
    19  C    0.000000  -0.000000
    20  C   -0.000000   0.000000
    21  C   -0.000000   0.000000
    22  C   -0.000000   0.000000
    23  H   -0.000000   0.000000
    24  H   -0.000000   0.000000
    25  H    0.000000   0.000000
    26  H   -0.000000   0.000000
    27  H   -0.000000   0.000000
    28  H    0.000000  -0.000000
    29  H   -0.000000   0.000000
    30  H   -0.000000   0.000000
    31  H   -0.000000   0.000000
    32  H   -0.000000  -0.000000
    33  H    0.000000   0.000000
    34  H    0.000000  -0.000000
    35  C    0.373908   0.381669
    36  H   -0.024048  -0.032201
    37  H    0.652771  -0.024100
    38  H   -0.024100   0.659489
          Atomic-Atomic Spin Densities.
               1          2          3          4          5          6
     1  C    0.890793  -0.051431  -0.014461  -0.006993  -0.023087  -0.001855
     2  C   -0.051431   0.866330   0.016860  -0.018698   0.001191   0.000944
     3  H   -0.014461   0.016860   0.012108   0.000453  -0.001048   0.000065
     4  C   -0.006993  -0.018698   0.000453  -0.005941   0.009204  -0.001275
     5  H   -0.023087   0.001191  -0.001048   0.009204   0.073724  -0.001360
     6  H   -0.001855   0.000944   0.000065  -0.001275  -0.001360   0.005330
     7  H   -0.018943   0.003015   0.002221   0.006849  -0.017129   0.002391
     8  C   -0.025666   0.028309  -0.015249   0.000060   0.002571  -0.000052
     9  O    0.001283  -0.013213   0.000017   0.000268  -0.000168  -0.000013
    10  O    0.000570  -0.010269   0.001353   0.000009  -0.000026  -0.000000
    11  C   -0.000053  -0.000281  -0.000147   0.000001   0.000004  -0.000000
    12  H   -0.000011   0.000106  -0.000009   0.000001   0.000001  -0.000000
    13  H   -0.000014   0.000140  -0.000001  -0.000001   0.000001   0.000000
    14  B    0.076988  -0.017419  -0.001990  -0.010379   0.000097   0.002274
    15  O   -0.004932  -0.000467   0.000096   0.000015   0.000021  -0.000012
    16  O   -0.005730   0.000163   0.000013   0.000701   0.000099  -0.000538
    17  C   -0.000028   0.000112   0.000003   0.000019  -0.000007  -0.000000
    18  C    0.000295  -0.000138  -0.000009  -0.000083   0.000008   0.000090
    19  C    0.000047   0.000011   0.000001  -0.000000   0.000000  -0.000001
    20  C    0.000006  -0.000001  -0.000001  -0.000000   0.000000  -0.000000
    21  C    0.000041   0.000003  -0.000000   0.000003   0.000001  -0.000010
    22  C    0.000002   0.000002   0.000000   0.000002  -0.000000  -0.000005
    23  H    0.000049  -0.000035  -0.000000  -0.000007   0.000002   0.000002
    24  H    0.000001  -0.000011  -0.000000  -0.000000   0.000000   0.000000
    25  H   -0.000011  -0.000001  -0.000000  -0.000000   0.000000  -0.000000
    26  H   -0.000021   0.000005   0.000003   0.000000  -0.000000   0.000000
    27  H    0.000000  -0.000000   0.000000  -0.000000  -0.000000   0.000000
    28  H   -0.000001   0.000001  -0.000000   0.000000   0.000000  -0.000000
    29  H    0.000003  -0.000000   0.000000   0.000000   0.000000  -0.000002
    30  H   -0.000005  -0.000001   0.000000  -0.000000  -0.000000   0.000001
    31  H    0.000089  -0.000011  -0.000001  -0.000005   0.000000   0.000001
    32  H    0.000001  -0.000000   0.000000  -0.000000  -0.000000   0.000000
    33  H   -0.000034   0.000001  -0.000000   0.000001   0.000002  -0.000004
    34  H   -0.000000  -0.000000  -0.000000  -0.000000   0.000000   0.000000
    35  C    0.000001   0.000038   0.000017  -0.000000  -0.000000   0.000000
    36  H    0.000000  -0.000018   0.000004  -0.000000  -0.000000   0.000000
    37  H   -0.000000  -0.000001  -0.000001   0.000000   0.000000  -0.000000
    38  H    0.000000  -0.000020   0.000002   0.000000  -0.000000  -0.000000
               7          8          9         10         11         12
     1  C   -0.018943  -0.025666   0.001283   0.000570  -0.000053  -0.000011
     2  C    0.003015   0.028309  -0.013213  -0.010269  -0.000281   0.000106
     3  H    0.002221  -0.015249   0.000017   0.001353  -0.000147  -0.000009
     4  C    0.006849   0.000060   0.000268   0.000009   0.000001   0.000001
     5  H   -0.017129   0.002571  -0.000168  -0.000026   0.000004   0.000001
     6  H    0.002391  -0.000052  -0.000013  -0.000000  -0.000000  -0.000000
     7  H    0.062110  -0.001059  -0.000019   0.000005  -0.000001  -0.000000
     8  C   -0.001059   0.009036  -0.016788  -0.003874   0.001289  -0.000185
     9  O   -0.000019  -0.016788   0.183491   0.002869  -0.000176  -0.000570
    10  O    0.000005  -0.003874   0.002869   0.049472  -0.000947  -0.000126
    11  C   -0.000001   0.001289  -0.000176  -0.000947  -0.004921   0.000997
    12  H   -0.000000  -0.000185  -0.000570  -0.000126   0.000997   0.001869
    13  H    0.000000  -0.000142  -0.000574  -0.000178   0.000976   0.000202
    14  B   -0.001486  -0.000073   0.000152   0.000010   0.000009  -0.000012
    15  O    0.000005   0.000279   0.000011  -0.000001   0.000000   0.000000
    16  O    0.000055   0.000010  -0.000000  -0.000000   0.000000   0.000000
    17  C    0.000003   0.000014  -0.000003  -0.000000   0.000000   0.000000
    18  C    0.000000   0.000006   0.000001   0.000000   0.000000  -0.000000
    19  C    0.000000  -0.000000  -0.000002  -0.000000  -0.000000   0.000000
    20  C   -0.000000   0.000000  -0.000000   0.000000  -0.000000   0.000000
    21  C   -0.000001   0.000000  -0.000000  -0.000000   0.000000   0.000000
    22  C   -0.000000  -0.000000  -0.000000  -0.000000  -0.000000   0.000000
    23  H    0.000000  -0.000003   0.000013   0.000000   0.000000  -0.000000
    24  H    0.000000  -0.000006   0.000003   0.000000   0.000000  -0.000001
    25  H   -0.000000   0.000000   0.000000  -0.000000   0.000000   0.000000
    26  H    0.000000  -0.000001  -0.000000   0.000000  -0.000000  -0.000000
    27  H    0.000000  -0.000000   0.000000   0.000000  -0.000000  -0.000000
    28  H   -0.000000   0.000000  -0.000000  -0.000000  -0.000000   0.000000
    29  H    0.000000  -0.000000   0.000000  -0.000000   0.000000  -0.000000
    30  H    0.000000  -0.000000   0.000000   0.000000  -0.000000  -0.000000
    31  H   -0.000000   0.000000   0.000000   0.000000   0.000000  -0.000000
    32  H    0.000000  -0.000000   0.000000   0.000000  -0.000000  -0.000000
    33  H   -0.000000   0.000000  -0.000000  -0.000000   0.000000   0.000000
    34  H   -0.000000   0.000000   0.000000   0.000000   0.000000  -0.000000
    35  C    0.000000  -0.000033  -0.000023  -0.000412   0.000894   0.000003
    36  H    0.000000  -0.000009   0.000004   0.000101  -0.000013  -0.000089
    37  H   -0.000000  -0.000002  -0.000001   0.000003   0.000166   0.000003
    38  H   -0.000000  -0.000009   0.000004   0.000109  -0.000063   0.000031
              13         14         15         16         17         18
     1  C   -0.000014   0.076988  -0.004932  -0.005730  -0.000028   0.000295
     2  C    0.000140  -0.017419  -0.000467   0.000163   0.000112  -0.000138
     3  H   -0.000001  -0.001990   0.000096   0.000013   0.000003  -0.000009
     4  C   -0.000001  -0.010379   0.000015   0.000701   0.000019  -0.000083
     5  H    0.000001   0.000097   0.000021   0.000099  -0.000007   0.000008
     6  H    0.000000   0.002274  -0.000012  -0.000538  -0.000000   0.000090
     7  H    0.000000  -0.001486   0.000005   0.000055   0.000003   0.000000
     8  C   -0.000142  -0.000073   0.000279   0.000010   0.000014   0.000006
     9  O   -0.000574   0.000152   0.000011  -0.000000  -0.000003   0.000001
    10  O   -0.000178   0.000010  -0.000001  -0.000000  -0.000000   0.000000
    11  C    0.000976   0.000009   0.000000   0.000000   0.000000   0.000000
    12  H    0.000202  -0.000012   0.000000   0.000000   0.000000  -0.000000
    13  H    0.001930   0.000006   0.000000  -0.000000  -0.000000   0.000000
    14  B    0.000006   0.026737  -0.008252  -0.009528   0.000731  -0.000500
    15  O    0.000000  -0.008252   0.050394   0.001151   0.000385   0.000053
    16  O   -0.000000  -0.009528   0.001151   0.052590  -0.000046   0.000350
    17  C   -0.000000   0.000731   0.000385  -0.000046  -0.001222  -0.002468
    18  C    0.000000  -0.000500   0.000053   0.000350  -0.002468   0.002555
    19  C   -0.000000   0.000599  -0.000649  -0.000114   0.000802  -0.000906
    20  C   -0.000000  -0.000050  -0.000337  -0.000021  -0.000204   0.000664
    21  C    0.000000   0.000192  -0.000167  -0.000768  -0.000873   0.000645
    22  C   -0.000000   0.000291  -0.000024  -0.000316   0.000591  -0.000337
    23  H    0.000000  -0.000090   0.000094  -0.000019   0.000103   0.000103
    24  H    0.000000   0.000012  -0.000050   0.000002  -0.000032   0.000002
    25  H    0.000000  -0.000148   0.000054   0.000050  -0.000138   0.000263
    26  H   -0.000000  -0.000040   0.000216   0.000019   0.000117  -0.000172
    27  H    0.000000   0.000006   0.000017   0.000001   0.000164  -0.000127
    28  H   -0.000000   0.000007  -0.000025   0.000000   0.000045   0.000010
    29  H    0.000000   0.000018   0.000001  -0.000089  -0.000017  -0.000044
    30  H    0.000000  -0.000035   0.000047   0.000047   0.000239  -0.000089
    31  H    0.000000  -0.000048  -0.000084   0.000001   0.000003   0.000177
    32  H    0.000000   0.000015   0.000000  -0.000023   0.000005   0.000065
    33  H   -0.000000  -0.000142   0.000022   0.000241  -0.000145   0.000036
    34  H    0.000000  -0.000050   0.000002   0.000022  -0.000121   0.000108
    35  C   -0.000049  -0.000000  -0.000000  -0.000000  -0.000000  -0.000000
    36  H    0.000032   0.000000   0.000000  -0.000000  -0.000000   0.000000
    37  H    0.000009   0.000000   0.000000   0.000000   0.000000   0.000000
    38  H   -0.000097  -0.000000  -0.000000   0.000000   0.000000  -0.000000
              19         20         21         22         23         24
     1  C    0.000047   0.000006   0.000041   0.000002   0.000049   0.000001
     2  C    0.000011  -0.000001   0.000003   0.000002  -0.000035  -0.000011
     3  H    0.000001  -0.000001  -0.000000   0.000000  -0.000000  -0.000000
     4  C   -0.000000  -0.000000   0.000003   0.000002  -0.000007  -0.000000
     5  H    0.000000   0.000000   0.000001  -0.000000   0.000002   0.000000
     6  H   -0.000001  -0.000000  -0.000010  -0.000005   0.000002   0.000000
     7  H    0.000000  -0.000000  -0.000001  -0.000000   0.000000   0.000000
     8  C   -0.000000   0.000000   0.000000  -0.000000  -0.000003  -0.000006
     9  O   -0.000002  -0.000000  -0.000000  -0.000000   0.000013   0.000003
    10  O   -0.000000   0.000000  -0.000000  -0.000000   0.000000   0.000000
    11  C   -0.000000  -0.000000   0.000000  -0.000000   0.000000   0.000000
    12  H    0.000000   0.000000   0.000000   0.000000  -0.000000  -0.000001
    13  H   -0.000000  -0.000000   0.000000  -0.000000   0.000000   0.000000
    14  B    0.000599  -0.000050   0.000192   0.000291  -0.000090   0.000012
    15  O   -0.000649  -0.000337  -0.000167  -0.000024   0.000094  -0.000050
    16  O   -0.000114  -0.000021  -0.000768  -0.000316  -0.000019   0.000002
    17  C    0.000802  -0.000204  -0.000873   0.000591   0.000103  -0.000032
    18  C   -0.000906   0.000664   0.000645  -0.000337   0.000103   0.000002
    19  C    0.002773  -0.000379  -0.000122   0.000300  -0.000151   0.000128
    20  C   -0.000379   0.001514   0.000358  -0.000066  -0.000003  -0.000006
    21  C   -0.000122   0.000358   0.003162  -0.000290  -0.000002   0.000001
    22  C    0.000300  -0.000066  -0.000290   0.001560  -0.000021  -0.000004
    23  H   -0.000151  -0.000003  -0.000002  -0.000021  -0.000260   0.000035
    24  H    0.000128  -0.000006   0.000001  -0.000004   0.000035  -0.000082
    25  H   -0.000520   0.000074   0.000039  -0.000255   0.000111  -0.000050
    26  H    0.000056  -0.000360  -0.000119   0.000017  -0.000001   0.000001
    27  H    0.000127  -0.000289  -0.000109   0.000040  -0.000000   0.000007
    28  H   -0.000032   0.000031   0.000004  -0.000001   0.000001  -0.000011
    29  H    0.000000   0.000001   0.000185  -0.000002   0.000000  -0.000000
    30  H    0.000034  -0.000265  -0.000521   0.000009   0.000001  -0.000000
    31  H   -0.000006   0.000030  -0.000005  -0.000013  -0.000000   0.000000
    32  H    0.000003  -0.000002  -0.000035   0.000009   0.000001  -0.000000
    33  H   -0.000112   0.000021   0.000071  -0.000265  -0.000011   0.000000
    34  H   -0.000102   0.000041   0.000126  -0.000276   0.000006   0.000002
    35  C   -0.000000   0.000000  -0.000000   0.000000  -0.000000  -0.000000
    36  H   -0.000000   0.000000  -0.000000  -0.000000   0.000000   0.000000
    37  H    0.000000  -0.000000   0.000000  -0.000000   0.000000   0.000000
    38  H    0.000000  -0.000000   0.000000   0.000000  -0.000000  -0.000000
              25         26         27         28         29         30
     1  C   -0.000011  -0.000021   0.000000  -0.000001   0.000003  -0.000005
     2  C   -0.000001   0.000005  -0.000000   0.000001  -0.000000  -0.000001
     3  H   -0.000000   0.000003   0.000000  -0.000000   0.000000   0.000000
     4  C   -0.000000   0.000000  -0.000000   0.000000   0.000000  -0.000000
     5  H    0.000000  -0.000000  -0.000000   0.000000   0.000000  -0.000000
     6  H   -0.000000   0.000000   0.000000  -0.000000  -0.000002   0.000001
     7  H   -0.000000   0.000000   0.000000  -0.000000   0.000000   0.000000
     8  C    0.000000  -0.000001  -0.000000   0.000000  -0.000000  -0.000000
     9  O    0.000000  -0.000000   0.000000  -0.000000   0.000000   0.000000
    10  O   -0.000000   0.000000   0.000000  -0.000000  -0.000000   0.000000
    11  C    0.000000  -0.000000  -0.000000  -0.000000   0.000000  -0.000000
    12  H    0.000000  -0.000000  -0.000000   0.000000  -0.000000  -0.000000
    13  H    0.000000  -0.000000   0.000000  -0.000000   0.000000   0.000000
    14  B   -0.000148  -0.000040   0.000006   0.000007   0.000018  -0.000035
    15  O    0.000054   0.000216   0.000017  -0.000025   0.000001   0.000047
    16  O    0.000050   0.000019   0.000001   0.000000  -0.000089   0.000047
    17  C   -0.000138   0.000117   0.000164   0.000045  -0.000017   0.000239
    18  C    0.000263  -0.000172  -0.000127   0.000010  -0.000044  -0.000089
    19  C   -0.000520   0.000056   0.000127  -0.000032   0.000000   0.000034
    20  C    0.000074  -0.000360  -0.000289   0.000031   0.000001  -0.000265
    21  C    0.000039  -0.000119  -0.000109   0.000004   0.000185  -0.000521
    22  C   -0.000255   0.000017   0.000040  -0.000001  -0.000002   0.000009
    23  H    0.000111  -0.000001  -0.000000   0.000001   0.000000   0.000001
    24  H   -0.000050   0.000001   0.000007  -0.000011  -0.000000  -0.000000
    25  H    0.000858  -0.000013  -0.000073   0.000011  -0.000000  -0.000014
    26  H   -0.000013   0.000202   0.000141  -0.000021  -0.000000   0.000138
    27  H   -0.000073   0.000141   0.000020  -0.000012   0.000001   0.000118
    28  H    0.000011  -0.000021  -0.000012  -0.000093  -0.000000  -0.000004
    29  H   -0.000000  -0.000000   0.000001  -0.000000  -0.000064  -0.000081
    30  H   -0.000014   0.000138   0.000118  -0.000004  -0.000081   0.001073
    31  H    0.000001  -0.000023  -0.000006   0.000001   0.000030   0.000033
    32  H   -0.000004   0.000000   0.000002  -0.000000  -0.000012   0.000013
    33  H    0.000148  -0.000003  -0.000012   0.000001   0.000003  -0.000016
    34  H    0.000116  -0.000011  -0.000046   0.000001   0.000009  -0.000049
    35  C   -0.000000   0.000000   0.000000  -0.000000  -0.000000   0.000000
    36  H    0.000000  -0.000000   0.000000  -0.000000   0.000000   0.000000
    37  H    0.000000  -0.000000  -0.000000   0.000000   0.000000  -0.000000
    38  H   -0.000000   0.000000  -0.000000   0.000000  -0.000000  -0.000000
              31         32         33         34         35         36
     1  C    0.000089   0.000001  -0.000034  -0.000000   0.000001   0.000000
     2  C   -0.000011  -0.000000   0.000001  -0.000000   0.000038  -0.000018
     3  H   -0.000001   0.000000  -0.000000  -0.000000   0.000017   0.000004
     4  C   -0.000005  -0.000000   0.000001  -0.000000  -0.000000  -0.000000
     5  H    0.000000  -0.000000   0.000002   0.000000  -0.000000  -0.000000
     6  H    0.000001   0.000000  -0.000004   0.000000   0.000000   0.000000
     7  H   -0.000000   0.000000  -0.000000  -0.000000   0.000000   0.000000
     8  C    0.000000  -0.000000   0.000000   0.000000  -0.000033  -0.000009
     9  O    0.000000   0.000000  -0.000000   0.000000  -0.000023   0.000004
    10  O    0.000000   0.000000  -0.000000   0.000000  -0.000412   0.000101
    11  C    0.000000  -0.000000   0.000000   0.000000   0.000894  -0.000013
    12  H   -0.000000  -0.000000   0.000000  -0.000000   0.000003  -0.000089
    13  H    0.000000   0.000000  -0.000000   0.000000  -0.000049   0.000032
    14  B   -0.000048   0.000015  -0.000142  -0.000050  -0.000000   0.000000
    15  O   -0.000084   0.000000   0.000022   0.000002  -0.000000   0.000000
    16  O    0.000001  -0.000023   0.000241   0.000022  -0.000000  -0.000000
    17  C    0.000003   0.000005  -0.000145  -0.000121  -0.000000  -0.000000
    18  C    0.000177   0.000065   0.000036   0.000108  -0.000000   0.000000
    19  C   -0.000006   0.000003  -0.000112  -0.000102  -0.000000  -0.000000
    20  C    0.000030  -0.000002   0.000021   0.000041   0.000000   0.000000
    21  C   -0.000005  -0.000035   0.000071   0.000126  -0.000000  -0.000000
    22  C   -0.000013   0.000009  -0.000265  -0.000276   0.000000  -0.000000
    23  H   -0.000000   0.000001  -0.000011   0.000006  -0.000000   0.000000
    24  H    0.000000  -0.000000   0.000000   0.000002  -0.000000   0.000000
    25  H    0.000001  -0.000004   0.000148   0.000116  -0.000000   0.000000
    26  H   -0.000023   0.000000  -0.000003  -0.000011   0.000000  -0.000000
    27  H   -0.000006   0.000002  -0.000012  -0.000046   0.000000   0.000000
    28  H    0.000001  -0.000000   0.000001   0.000001  -0.000000  -0.000000
    29  H    0.000030  -0.000012   0.000003   0.000009  -0.000000   0.000000
    30  H    0.000033   0.000013  -0.000016  -0.000049   0.000000   0.000000
    31  H   -0.000302   0.000001   0.000000   0.000003  -0.000000   0.000000
    32  H    0.000001  -0.000105  -0.000030   0.000009   0.000000   0.000000
    33  H    0.000000  -0.000030   0.000284   0.000092  -0.000000  -0.000000
    34  H    0.000003   0.000009   0.000092   0.000238  -0.000000   0.000000
    35  C   -0.000000   0.000000  -0.000000  -0.000000   0.000428  -0.000213
    36  H    0.000000   0.000000  -0.000000   0.000000  -0.000213   0.000515
    37  H    0.000000  -0.000000   0.000000   0.000000  -0.000116   0.000024
    38  H   -0.000000  -0.000000   0.000000  -0.000000  -0.000173  -0.000261
              37         38
     1  C   -0.000000   0.000000
     2  C   -0.000001  -0.000020
     3  H   -0.000001   0.000002
     4  C    0.000000   0.000000
     5  H    0.000000  -0.000000
     6  H   -0.000000  -0.000000
     7  H   -0.000000  -0.000000
     8  C   -0.000002  -0.000009
     9  O   -0.000001   0.000004
    10  O    0.000003   0.000109
    11  C    0.000166  -0.000063
    12  H    0.000003   0.000031
    13  H    0.000009  -0.000097
    14  B    0.000000  -0.000000
    15  O    0.000000  -0.000000
    16  O    0.000000   0.000000
    17  C    0.000000   0.000000
    18  C    0.000000  -0.000000
    19  C    0.000000   0.000000
    20  C   -0.000000  -0.000000
    21  C    0.000000   0.000000
    22  C   -0.000000   0.000000
    23  H    0.000000  -0.000000
    24  H    0.000000  -0.000000
    25  H    0.000000  -0.000000
    26  H   -0.000000   0.000000
    27  H   -0.000000  -0.000000
    28  H    0.000000   0.000000
    29  H    0.000000  -0.000000
    30  H   -0.000000  -0.000000
    31  H    0.000000  -0.000000
    32  H   -0.000000  -0.000000
    33  H    0.000000   0.000000
    34  H    0.000000  -0.000000
    35  C   -0.000116  -0.000173
    36  H    0.000024  -0.000261
    37  H   -0.000138   0.000002
    38  H    0.000002   0.000561
 Mulliken charges and spin densities:
               1          2
     1  C   -0.104134   0.816891
     2  C   -0.037404   0.805213
     3  H    0.032967   0.000297
     4  C    0.014532  -0.025796
     5  H    0.044591   0.044102
     6  H    0.029143   0.005971
     7  H    0.040680   0.038016
     8  C    0.247196  -0.021577
     9  O   -0.303370   0.156567
    10  O   -0.281346   0.038667
    11  C    0.110591  -0.002266
    12  H    0.030267   0.002212
    13  H    0.030016   0.002240
    14  B    0.124952   0.057902
    15  O   -0.227469   0.037861
    16  O   -0.230267   0.038320
    17  C   -0.084849  -0.001968
    18  C   -0.086784   0.000558
    19  C    0.066228   0.001788
    20  C    0.069497   0.000757
    21  C    0.065317   0.001808
    22  C    0.069132   0.000947
    23  H    0.027347  -0.000086
    24  H    0.022783  -0.000058
    25  H    0.025653   0.000497
    26  H    0.022420   0.000127
    27  H    0.031758  -0.000030
    28  H    0.022231  -0.000090
    29  H    0.022663  -0.000062
    30  H    0.026250   0.000672
    31  H    0.026913  -0.000136
    32  H    0.022148  -0.000087
    33  H    0.022838   0.000150
    34  H    0.031992   0.000120
    35  C   -0.023591   0.000360
    36  H    0.033239   0.000078
    37  H    0.032851  -0.000051
    38  H    0.033017   0.000087
 Sum of Mulliken charges =  -0.00000   2.00000
 Mulliken charges and spin densities with hydrogens summed into heavy atoms:
               1          2
     1  C   -0.104134   0.816891
     2  C   -0.004437   0.805510
     4  C    0.128946   0.062293
     8  C    0.247196  -0.021577
     9  O   -0.303370   0.156567
    10  O   -0.281346   0.038667
    11  C    0.170874   0.002185
    14  B    0.124952   0.057902
    15  O   -0.227469   0.037861
    16  O   -0.230267   0.038320
    17  C   -0.084849  -0.001968
    18  C   -0.086784   0.000558
    19  C    0.142011   0.002141
    20  C    0.145906   0.000764
    21  C    0.141143   0.002282
    22  C    0.146111   0.001129
    35  C    0.075516   0.000474
 APT charges:
               1
     1  C   -0.283714
     2  C   -0.030454
     3  H    0.036190
     4  C    0.052242
     5  H   -0.003000
     6  H    0.002284
     7  H   -0.013932
     8  C    1.398223
     9  O   -0.868741
    10  O   -1.132694
    11  C    0.704976
    12  H   -0.068207
    13  H   -0.068929
    14  B    1.411673
    15  O   -1.118043
    16  O   -1.144421
    17  C    0.630581
    18  C    0.636830
    19  C   -0.019277
    20  C    0.011636
    21  C   -0.018061
    22  C    0.008517
    23  H   -0.011047
    24  H   -0.012643
    25  H   -0.009352
    26  H   -0.007122
    27  H   -0.009383
    28  H   -0.016211
    29  H   -0.013874
    30  H   -0.011584
    31  H   -0.011206
    32  H   -0.017017
    33  H   -0.005626
    34  H   -0.010311
    35  C    0.059145
    36  H   -0.015570
    37  H   -0.015994
    38  H   -0.015887
 Sum of APT charges =   0.00000
 APT charges with hydrogens summed into heavy atoms:
               1
     1  C   -0.283714
     2  C    0.005736
     4  C    0.037593
     8  C    1.398223
     9  O   -0.868741
    10  O   -1.132694
    11  C    0.567840
    14  B    1.411673
    15  O   -1.118043
    16  O   -1.144421
    17  C    0.630581
    18  C    0.636830
    19  C   -0.052318
    20  C   -0.021079
    21  C   -0.054724
    22  C   -0.024437
    35  C    0.011694
 Electronic spatial extent (au):  <R**2>=          10062.9071
 Charge=             -0.0000 electrons
 Dipole moment (field-independent basis, Debye):
    X=             -1.1862    Y=             -0.9014    Z=             -1.7713  Tot=              2.3145
 Quadrupole moment (field-independent basis, Debye-Ang):
   XX=            -79.2306   YY=            -95.9010   ZZ=           -106.5655
   XY=              7.6520   XZ=              3.3609   YZ=             -5.6978
 Traceless Quadrupole moment (field-independent basis, Debye-Ang):
   XX=             14.6684   YY=             -2.0019   ZZ=            -12.6664
   XY=              7.6520   XZ=              3.3609   YZ=             -5.6978
 Octapole moment (field-independent basis, Debye-Ang**2):
  XXX=            655.3140  YYY=           -358.5979  ZZZ=            -80.2624  XYY=            297.1399
  XXY=           -156.8694  XXZ=            -26.3809  XZZ=            285.0584  YZZ=           -156.0629
  YYZ=            -53.1884  XYZ=              7.6358
 Hexadecapole moment (field-independent basis, Debye-Ang**3):
 XXXX=          -6989.8155 YYYY=          -3817.3333 ZZZZ=           -842.3490 XXXY=             74.1333
 XXXZ=            282.4202 YYYX=            146.1613 YYYZ=             60.8693 ZZZX=            316.9519
 ZZZY=            184.1208 XXYY=          -2084.9305 XXZZ=          -1506.5951 YYZZ=           -916.1817
 XXYZ=             59.9544 YYXZ=            139.2075 ZZXY=             27.7943
 N-N= 1.259610182284D+03 E-N=-4.375906767980D+03  KE= 7.903436566533D+02
  Exact polarizability: 204.614  16.635 211.229  -3.650 -11.727 179.470
 Approx polarizability: 212.039   7.906 214.446  -9.035  -6.571 206.186
                          Isotropic Fermi Contact Couplings
        Atom                 a.u.       MegaHertz       Gauss      10(-4) cm-1
     1  C(13)              0.07813      43.91391      15.66957      14.64810
     2  C(13)              0.07588      42.65289      15.21961      14.22747
     3  H(1)               0.00367       8.20770       2.92871       2.73779
     4  C(13)              0.01651       9.28098       3.31169       3.09580
     5  H(1)               0.02007      44.84816      16.00294      14.95974
     6  H(1)               0.00155       3.45885       1.23420       1.15375
     7  H(1)               0.01663      37.16785      13.26241      12.39786
     8  C(13)              0.00923       5.18744       1.85101       1.73034
     9  O(17)              0.03299      -9.99933      -3.56801      -3.33542
    10  O(17)              0.00663      -2.00867      -0.71674      -0.67002
    11  C(13)             -0.00131      -0.73865      -0.26357      -0.24639
    12  H(1)               0.00151       3.37460       1.20414       1.12565
    13  H(1)               0.00151       3.38155       1.20662       1.12796
    14  B(11)              0.01489      10.67995       3.81087       3.56245
    15  O(17)              0.00747      -2.26455      -0.80805      -0.75537
    16  O(17)              0.01610      -4.87924      -1.74103      -1.62754
    17  C(13)             -0.00156      -0.87735      -0.31306      -0.29265
    18  C(13)              0.00005       0.02981       0.01064       0.00994
    19  C(13)              0.00110       0.61830       0.22063       0.20624
    20  C(13)              0.00073       0.40828       0.14568       0.13619
    21  C(13)              0.00113       0.63596       0.22693       0.21213
    22  C(13)              0.00089       0.49966       0.17829       0.16667
    23  H(1)              -0.00003      -0.06390      -0.02280      -0.02131
    24  H(1)               0.00001       0.02107       0.00752       0.00703
    25  H(1)               0.00016       0.35492       0.12664       0.11839
    26  H(1)              -0.00002      -0.05494      -0.01960      -0.01833
    27  H(1)              -0.00004      -0.08664      -0.03091      -0.02890
    28  H(1)              -0.00003      -0.05665      -0.02021      -0.01890
    29  H(1)               0.00001       0.02947       0.01052       0.00983
    30  H(1)               0.00023       0.51757       0.18468       0.17264
    31  H(1)              -0.00002      -0.03589      -0.01281      -0.01197
    32  H(1)              -0.00003      -0.06268      -0.02236      -0.02091
    33  H(1)              -0.00001      -0.02851      -0.01017      -0.00951
    34  H(1)               0.00001       0.03150       0.01124       0.01051
    35  C(13)              0.00016       0.09243       0.03298       0.03083
    36  H(1)              -0.00001      -0.01619      -0.00578      -0.00540
    37  H(1)              -0.00003      -0.05834      -0.02082      -0.01946
    38  H(1)              -0.00000      -0.00674      -0.00241      -0.00225
 --------------------------------------------------------
       Center         ----  Spin Dipole Couplings  ----
                      3XX-RR        3YY-RR        3ZZ-RR
 --------------------------------------------------------
     1   Atom       -0.378741      0.239056      0.139686
     2   Atom        0.550104     -0.429836     -0.120268
     3   Atom        0.004558     -0.052875      0.048317
     4   Atom       -0.027784     -0.001515      0.029299
     5   Atom       -0.006616     -0.008915      0.015531
     6   Atom       -0.009415      0.004084      0.005331
     7   Atom        0.007334      0.000798     -0.008132
     8   Atom       -0.042388      0.063436     -0.021048
     9   Atom        0.342294     -0.288141     -0.054154
    10   Atom        0.093043     -0.068231     -0.024812
    11   Atom       -0.001997      0.006260     -0.004263
    12   Atom       -0.003390      0.006739     -0.003349
    13   Atom       -0.002365      0.005136     -0.002771
    14   Atom        0.039461     -0.017142     -0.022319
    15   Atom       -0.068689      0.057741      0.010948
    16   Atom       -0.050880      0.051468     -0.000588
    17   Atom        0.007313     -0.004397     -0.002917
    18   Atom        0.007403     -0.003513     -0.003890
    19   Atom        0.004859     -0.002224     -0.002634
    20   Atom        0.003799     -0.002663     -0.001136
    21   Atom        0.000628      0.001052     -0.001680
    22   Atom        0.003743     -0.001989     -0.001754
    23   Atom        0.005505     -0.002759     -0.002746
    24   Atom        0.004079     -0.001099     -0.002980
    25   Atom        0.003322     -0.001561     -0.001761
    26   Atom        0.002142     -0.001846     -0.000296
    27   Atom        0.002390     -0.001321     -0.001069
    28   Atom        0.002626     -0.001884     -0.000742
    29   Atom        0.000453      0.001931     -0.002384
    30   Atom        0.001654     -0.000246     -0.001407
    31   Atom        0.001120      0.000729     -0.001849
    32   Atom        0.001559     -0.000483     -0.001076
    33   Atom        0.002849     -0.001924     -0.000925
    34   Atom        0.002286     -0.001045     -0.001240
    35   Atom       -0.001533      0.002874     -0.001341
    36   Atom       -0.001749      0.001992     -0.000243
    37   Atom       -0.000983      0.002047     -0.001064
    38   Atom       -0.000142      0.001488     -0.001345
 --------------------------------------------------------
                        XY            XZ            YZ
 --------------------------------------------------------
     1   Atom       -0.233399     -0.215486      0.662150
     2   Atom       -0.162291      0.581791     -0.106267
     3   Atom       -0.016611     -0.032675      0.017503
     4   Atom       -0.027784      0.030216     -0.035160
     5   Atom        0.000804      0.015585     -0.003368
     6   Atom        0.000411      0.000857     -0.016763
     7   Atom       -0.015511      0.007106     -0.010386
     8   Atom        0.003443     -0.014748      0.028475
     9   Atom       -0.103733      0.401940     -0.066430
    10   Atom       -0.022982      0.115715     -0.029668
    11   Atom        0.002523      0.001090     -0.002265
    12   Atom       -0.000471     -0.000633     -0.001800
    13   Atom        0.004088      0.000139      0.001024
    14   Atom        0.014922      0.002983      0.027891
    15   Atom       -0.013109     -0.007835      0.117471
    16   Atom       -0.033338     -0.044839      0.112253
    17   Atom        0.000548      0.001187     -0.000276
    18   Atom        0.005688      0.001166      0.000150
    19   Atom       -0.002843     -0.001902      0.001619
    20   Atom        0.000529      0.003154      0.000057
    21   Atom        0.004148      0.001504      0.002841
    22   Atom        0.002232     -0.002446     -0.000845
    23   Atom       -0.002385     -0.002943      0.000920
    24   Atom       -0.002866      0.000356     -0.000195
    25   Atom       -0.000655     -0.000493      0.000100
    26   Atom        0.001402      0.002901      0.000892
    27   Atom        0.000518      0.001145      0.000106
    28   Atom       -0.000521      0.002458     -0.000389
    29   Atom        0.003246      0.000155      0.000150
    30   Atom        0.002054      0.000845      0.000580
    31   Atom        0.004346      0.002279      0.002429
    32   Atom        0.001998     -0.001467     -0.000948
    33   Atom        0.000791     -0.002448     -0.000273
    34   Atom        0.001030     -0.000555     -0.000194
    35   Atom        0.002253     -0.001140     -0.002200
    36   Atom        0.001173     -0.000785     -0.002609
    37   Atom        0.001154     -0.000363     -0.000957
    38   Atom        0.002543     -0.001197     -0.001529
 --------------------------------------------------------


 ---------------------------------------------------------------------------------
              Anisotropic Spin Dipole Couplings in Principal Axis System
 ---------------------------------------------------------------------------------

       Atom             a.u.   MegaHertz   Gauss  10(-4) cm-1        Axes

              Baa    -0.4747   -63.696   -22.728   -21.247 -0.0388 -0.6864  0.7262
     1 C(13)  Bbb    -0.4558   -61.162   -21.824   -20.402  0.9710  0.1456  0.1895
              Bcc     0.9305   124.859    44.553    41.648 -0.2358  0.7125  0.6609
 
              Baa    -0.4678   -62.779   -22.401   -20.941 -0.2545  0.7197  0.6460
     2 C(13)  Bbb    -0.4464   -59.907   -21.376   -19.983  0.4493  0.6795 -0.5800
              Bcc     0.9143   122.686    43.778    40.924  0.8564 -0.1426  0.4963
 
              Baa    -0.0581   -31.026   -11.071   -10.349  0.2077  0.9734 -0.0963
     3 H(1)   Bbb    -0.0120    -6.417    -2.290    -2.140  0.8549 -0.1328  0.5015
              Bcc     0.0702    37.443    13.361    12.490 -0.4753  0.1865  0.8598
 
              Baa    -0.0465    -6.233    -2.224    -2.079  0.8902  0.4280 -0.1564
     4 C(13)  Bbb    -0.0228    -3.061    -1.092    -1.021 -0.2412  0.7338  0.6350
              Bcc     0.0693     9.294     3.316     3.100  0.3866 -0.5276  0.7565
 
              Baa    -0.0155    -8.250    -2.944    -2.752  0.8270 -0.3341 -0.4522
     5 H(1)   Bbb    -0.0083    -4.442    -1.585    -1.482  0.3330  0.9391 -0.0850
              Bcc     0.0238    12.692     4.529     4.234  0.4530 -0.0803  0.8879
 
              Baa    -0.0123    -6.583    -2.349    -2.196 -0.2917  0.6868  0.6657
     6 H(1)   Bbb    -0.0091    -4.880    -1.741    -1.628  0.9564  0.2173  0.1950
              Bcc     0.0215    11.464     4.091     3.824  0.0107 -0.6936  0.7203
 
              Baa    -0.0156    -8.325    -2.970    -2.777  0.2324  0.6677  0.7072
     7 H(1)   Bbb    -0.0088    -4.712    -1.681    -1.572  0.6701  0.4171 -0.6140
              Bcc     0.0244    13.037     4.652     4.349  0.7050 -0.6166  0.3505
 
              Baa    -0.0525    -7.039    -2.512    -2.348  0.8325 -0.1554  0.5318
     8 C(13)  Bbb    -0.0197    -2.643    -0.943    -0.881 -0.5540 -0.2492  0.7944
              Bcc     0.0721     9.681     3.455     3.229 -0.0091  0.9559  0.2935
 
              Baa    -0.3063    22.161     7.907     7.392 -0.2237  0.7936  0.5658
     9 O(17)  Bbb    -0.3029    21.916     7.820     7.310 -0.4923 -0.5930  0.6371
              Bcc     0.6091   -44.077   -15.728   -14.702  0.8412 -0.1360  0.5234
 
              Baa    -0.1018     7.369     2.629     2.458 -0.4274  0.4162  0.8025
    10 O(17)  Bbb    -0.0673     4.873     1.739     1.625  0.3355  0.8974 -0.2867
              Bcc     0.1692   -12.241    -4.368    -4.083  0.8395 -0.1467  0.5232
 
              Baa    -0.0055    -0.742    -0.265    -0.247 -0.4499  0.2604  0.8543
    11 C(13)  Bbb    -0.0018    -0.236    -0.084    -0.079  0.8601 -0.1314  0.4930
              Bcc     0.0073     0.978     0.349     0.326  0.2406  0.9565 -0.1649
 
              Baa    -0.0042    -2.266    -0.808    -0.756  0.6397  0.1509  0.7537
    12 H(1)   Bbb    -0.0028    -1.503    -0.536    -0.501  0.7679 -0.0819 -0.6354
              Bcc     0.0071     3.768     1.345     1.257 -0.0342  0.9851 -0.1683
 
              Baa    -0.0042    -2.253    -0.804    -0.751  0.8885 -0.4106  0.2051
    13 H(1)   Bbb    -0.0028    -1.501    -0.535    -0.501 -0.2284 -0.0080  0.9735
              Bcc     0.0070     3.753     1.339     1.252  0.3981  0.9118  0.1009
 
              Baa    -0.0485    -8.298    -2.961    -2.768  0.0920 -0.6863  0.7215
    14 B(11)  Bbb     0.0037     0.631     0.225     0.210 -0.3321  0.6620  0.6719
              Bcc     0.0448     7.668     2.736     2.558  0.9387  0.3014  0.1670
 
              Baa    -0.0857     6.205     2.214     2.070 -0.1388 -0.6349  0.7600
    15 O(17)  Bbb    -0.0694     5.021     1.792     1.675  0.9880 -0.0366  0.1498
              Bcc     0.1551   -11.226    -4.006    -3.745 -0.0673  0.7717  0.6324
 
              Baa    -0.0961     6.951     2.480     2.319  0.3987 -0.4965  0.7710
    16 O(17)  Bbb    -0.0588     4.257     1.519     1.420  0.8810  0.4410 -0.1716
              Bcc     0.1549   -11.208    -3.999    -3.739 -0.2548  0.7477  0.6133
 
              Baa    -0.0045    -0.603    -0.215    -0.201 -0.0673  0.9731  0.2204
    17 C(13)  Bbb    -0.0030    -0.399    -0.142    -0.133 -0.0998 -0.2264  0.9689
              Bcc     0.0075     1.003     0.358     0.334  0.9927  0.0432  0.1123
 
              Baa    -0.0060    -0.804    -0.287    -0.268 -0.3976  0.9041  0.1565
    18 C(13)  Bbb    -0.0039    -0.528    -0.188    -0.176 -0.0129 -0.1760  0.9843
              Bcc     0.0099     1.331     0.475     0.444  0.9175  0.3894  0.0816
 
              Baa    -0.0041    -0.550    -0.196    -0.183  0.0820  0.7198 -0.6893
    19 C(13)  Bbb    -0.0024    -0.317    -0.113    -0.106  0.4167  0.6035  0.6798
              Bcc     0.0065     0.867     0.309     0.289  0.9054 -0.3430 -0.2504
 
              Baa    -0.0029    -0.384    -0.137    -0.128 -0.3401  0.7270  0.5965
    20 C(13)  Bbb    -0.0025    -0.336    -0.120    -0.112  0.2798  0.6838 -0.6739
              Bcc     0.0054     0.720     0.257     0.240  0.8978  0.0623  0.4360
 
              Baa    -0.0039    -0.529    -0.189    -0.177 -0.4371  0.6906 -0.5762
    21 C(13)  Bbb    -0.0023    -0.305    -0.109    -0.102 -0.6555  0.1941  0.7298
              Bcc     0.0062     0.834     0.298     0.278  0.6159  0.6967  0.3679
 
              Baa    -0.0028    -0.370    -0.132    -0.123 -0.3032  0.9509  0.0623
    22 C(13)  Bbb    -0.0027    -0.360    -0.129    -0.120  0.3409  0.0472  0.9389
              Bcc     0.0054     0.730     0.260     0.244  0.8899  0.3059 -0.3385
 
              Baa    -0.0038    -2.001    -0.714    -0.668  0.1871 -0.3874  0.9027
    23 H(1)   Bbb    -0.0034    -1.791    -0.639    -0.597  0.3417  0.8872  0.3099
              Bcc     0.0071     3.792     1.353     1.265  0.9210 -0.2505 -0.2984
 
              Baa    -0.0030    -1.601    -0.571    -0.534 -0.0228  0.0676  0.9975
    24 H(1)   Bbb    -0.0024    -1.265    -0.451    -0.422  0.4080  0.9115 -0.0524
              Bcc     0.0054     2.866     1.023     0.956  0.9127 -0.4058  0.0484
 
              Baa    -0.0018    -0.969    -0.346    -0.323  0.0666 -0.2110  0.9752
    25 H(1)   Bbb    -0.0016    -0.875    -0.312    -0.292  0.1477  0.9687  0.1995
              Bcc     0.0035     1.844     0.658     0.615  0.9868 -0.1308 -0.0957
 
              Baa    -0.0023    -1.224    -0.437    -0.408 -0.4182  0.8831  0.2129
    26 H(1)   Bbb    -0.0022    -1.179    -0.421    -0.393 -0.4181 -0.3952  0.8180
              Bcc     0.0045     2.403     0.858     0.802  0.8064  0.2531  0.5344
 
              Baa    -0.0014    -0.773    -0.276    -0.258 -0.3016  0.6032  0.7384
    27 H(1)   Bbb    -0.0014    -0.721    -0.257    -0.241  0.0782  0.7875 -0.6114
              Bcc     0.0028     1.495     0.533     0.499  0.9502  0.1267  0.2847
 
              Baa    -0.0021    -1.123    -0.401    -0.375 -0.3358  0.5522  0.7631
    28 H(1)   Bbb    -0.0019    -1.007    -0.359    -0.336  0.3398  0.8266 -0.4487
              Bcc     0.0040     2.130     0.760     0.710  0.8785 -0.1086  0.4652
 
              Baa    -0.0024    -1.277    -0.456    -0.426 -0.1030  0.0428  0.9938
    29 H(1)   Bbb    -0.0021    -1.139    -0.406    -0.380  0.7750 -0.6228  0.1071
              Bcc     0.0045     2.416     0.862     0.806  0.6235  0.7812  0.0310
 
              Baa    -0.0016    -0.879    -0.314    -0.293  0.0183 -0.4055  0.9139
    30 H(1)   Bbb    -0.0015    -0.826    -0.295    -0.275 -0.5698  0.7469  0.3428
              Bcc     0.0032     1.705     0.608     0.569  0.8216  0.5271  0.2174
 
              Baa    -0.0035    -1.872    -0.668    -0.624 -0.5109  0.7573 -0.4068
    31 H(1)   Bbb    -0.0031    -1.643    -0.586    -0.548 -0.5413  0.0842  0.8366
              Bcc     0.0066     3.514     1.254     1.172  0.6678  0.6476  0.3669
 
              Baa    -0.0018    -0.946    -0.337    -0.315 -0.0084  0.6007  0.7994
    32 H(1)   Bbb    -0.0017    -0.897    -0.320    -0.299 -0.6074  0.6320 -0.4813
              Bcc     0.0035     1.843     0.658     0.615  0.7944  0.4896 -0.3596
 
              Baa    -0.0022    -1.171    -0.418    -0.391  0.4347 -0.5388  0.7216
    33 H(1)   Bbb    -0.0020    -1.051    -0.375    -0.351  0.1371  0.8315  0.5383
              Bcc     0.0042     2.223     0.793     0.741  0.8901  0.1351 -0.4353
 
              Baa    -0.0014    -0.730    -0.260    -0.243 -0.1130  0.7509  0.6506
    34 H(1)   Bbb    -0.0013    -0.693    -0.247    -0.231  0.2882 -0.6019  0.7447
              Bcc     0.0027     1.423     0.508     0.475  0.9509  0.2717 -0.1485
 
              Baa    -0.0026    -0.350    -0.125    -0.117  0.8425 -0.1373  0.5210
    35 C(13)  Bbb    -0.0022    -0.296    -0.106    -0.099 -0.3924  0.5063  0.7679
              Bcc     0.0048     0.646     0.231     0.216  0.3692  0.8513 -0.3727
 
              Baa    -0.0021    -1.117    -0.398    -0.372  0.9691 -0.1566  0.1904
    36 H(1)   Bbb    -0.0020    -1.047    -0.374    -0.349 -0.0705  0.5637  0.8229
              Bcc     0.0041     2.164     0.772     0.722  0.2362  0.8110 -0.5353
 
              Baa    -0.0014    -0.745    -0.266    -0.249  0.8356 -0.1318  0.5333
    37 H(1)   Bbb    -0.0013    -0.703    -0.251    -0.234 -0.4529  0.3842  0.8045
              Bcc     0.0027     1.448     0.517     0.483  0.3110  0.9138 -0.2614
 
              Baa    -0.0021    -1.114    -0.397    -0.372  0.6225 -0.1115  0.7746
    38 H(1)   Bbb    -0.0020    -1.043    -0.372    -0.348 -0.5493  0.6429  0.5339
              Bcc     0.0040     2.157     0.770     0.719  0.5575  0.7578 -0.3390
 

 ---------------------------------------------------------------------------------

 No NMR shielding tensors so no spin-rotation constants.
 Leave Link  601 at Tue Aug 18 17:01:02 2026, MaxMem=  2684354560 cpu:               0.9 elap:               0.9
 (Enter /mnt/data/applications/G16/g16/l701.exe)
 ... and contract with generalized density number  0.
 Compute integral second derivatives.
 R6Disp: Adding Grimme-D3(BJ) dispersion energy 2nd derivatives to the Hessian.
   1 Symmetry operations used in ECPInt.
 ECPInt:  NShTT=   13695 NPrTT=  100063 LenC2=   12378 LenP2D=   51044.
 LDataN:  DoStor=T MaxTD1= 6 Len=  172
 D2PCM: PCM CHGder 2nd derivatives, FixD1E=F FixD2E=F DoIter=F DoCFld=F I1PDM=0
 GePol: Maximum number of non-zero 2nd derivatives   =     221
 Leave Link  701 at Tue Aug 18 17:03:20 2026, MaxMem=  2684354560 cpu:             137.3 elap:             137.5
 (Enter /mnt/data/applications/G16/g16/l702.exe)
 L702 exits ... SP integral derivatives will be done elsewhere.
 Leave Link  702 at Tue Aug 18 17:03:20 2026, MaxMem=  2684354560 cpu:               0.0 elap:               0.0
 (Enter /mnt/data/applications/G16/g16/l703.exe)
 Integral derivatives from FoFJK, PRISM(SPDF).
 Compute integral second derivatives, UseDBF=F ICtDFT=           0.
 Calling FoFJK, ICntrl=    100127 FMM=F ISym2X=0 I1Cent= 0 IOpClX= 1 NMat=1 NMatS=1 NMatT=0.
 FoFJK:  IHMeth= 1 ICntrl=  100127 DoSepK=F KAlg= 0 I1Cent=           0 FoldK=F
 IRaf=         0 NMat=       1 IRICut=       1 DoRegI=T DoRafI=F ISym2E= 0 IDoP0=0 IntGTp=1.
 FoFCou: FMM=F IPFlag=           0 FMFlag=      100000 FMFlg1=         800
         NFxFlg=           0 DoJE=F BraDBF=F KetDBF=F FulRan=T
         wScrn=  0.000000 ICntrl=    100127 IOpCl=  1 I1Cent=           0 NGrid=           0
         NMat0=    1 NMatS0=      1 NMatT0=    0 NMatD0=    1 NMtDS0=    0 NMtDT0=    0
 Symmetry not used in FoFCou.
 Leave Link  703 at Tue Aug 18 18:19:59 2026, MaxMem=  2684354560 cpu:            4592.8 elap:            4599.4
 (Enter /mnt/data/applications/G16/g16/l716.exe)
 Dipole        =-4.66680338D-01-3.54648081D-01-6.96886299D-01
 Polarizability= 2.04613668D+02 1.66351183D+01 2.11229082D+02
                -3.65001255D+00-1.17272379D+01 1.79470055D+02
 Full mass-weighted force constant matrix:
 Low frequencies ---   -5.6126   -1.3000   -0.0011   -0.0006    0.0008    6.6653
 Low frequencies ---   21.7910   24.6080   32.7958
 Diagonal vibrational polarizability:
       80.0325444      81.3687382      60.8766835
 Harmonic frequencies (cm**-1), IR intensities (KM/Mole), Raman scattering
 activities (A**4/AMU), depolarization ratios for plane and unpolarized
 incident light, reduced masses (AMU), force constants (mDyne/A),
 and normal coordinates:
                      1                      2                      3
                      A                      A                      A
 Frequencies --     21.5885                24.4738                32.7901
 Red. masses --      4.1543                 3.5952                 3.4002
 Frc consts  --      0.0011                 0.0013                 0.0022
 IR Inten    --      0.5697                 0.4547                 2.0917
  Atom  AN      X      Y      Z        X      Y      Z        X      Y      Z
     1   6    -0.07   0.09  -0.02     0.01  -0.01  -0.10    -0.02   0.01   0.00
     2   6    -0.07   0.08  -0.04    -0.01   0.02  -0.08    -0.02   0.01  -0.00
     3   1    -0.11   0.06  -0.05    -0.02   0.05  -0.09    -0.10   0.03  -0.05
     4   6    -0.04   0.09  -0.03     0.03  -0.02  -0.12    -0.01  -0.02  -0.03
     5   1    -0.02   0.10  -0.05     0.03  -0.02  -0.11     0.02  -0.04  -0.03
     6   1    -0.03   0.09  -0.02     0.05  -0.04  -0.13    -0.01  -0.02  -0.03
     7   1    -0.05   0.10  -0.05     0.04   0.01  -0.14    -0.03  -0.03  -0.06
     8   6     0.02   0.07  -0.02    -0.02  -0.00  -0.03     0.09  -0.00   0.06
     9   8     0.09   0.09   0.01    -0.03  -0.05  -0.01     0.24  -0.03   0.16
    10   8     0.05   0.04  -0.03    -0.00   0.04   0.02    -0.00   0.01   0.01
    11   6     0.18   0.03   0.00     0.00   0.02   0.10     0.09  -0.01   0.06
    12   1     0.21   0.12  -0.00     0.01   0.04   0.06     0.11  -0.00   0.34
    13   1     0.18  -0.04   0.01    -0.05  -0.04   0.13     0.34  -0.05  -0.06
    14   5    -0.06   0.05   0.00     0.00  -0.01  -0.06    -0.02   0.02   0.01
    15   8    -0.10   0.03   0.02    -0.01  -0.08  -0.09    -0.02   0.00  -0.01
    16   8    -0.01   0.00   0.00     0.01   0.05   0.02    -0.03   0.04   0.02
    17   6    -0.09  -0.06   0.02    -0.01  -0.04  -0.04    -0.02  -0.01  -0.04
    18   6    -0.01  -0.07   0.00    -0.01   0.03   0.07    -0.02   0.01   0.00
    19   6    -0.16  -0.10   0.04     0.02   0.03  -0.13    -0.07  -0.00  -0.09
    20   6    -0.08  -0.09   0.02    -0.03  -0.14  -0.02     0.02  -0.07  -0.06
    21   6     0.06  -0.05  -0.01    -0.06  -0.05   0.17     0.01  -0.02   0.04
    22   6     0.00  -0.14   0.00     0.03   0.14   0.11    -0.03   0.03  -0.01
    23   1    -0.17  -0.09   0.04     0.04   0.11  -0.15    -0.09   0.04  -0.07
    24   1    -0.21  -0.09   0.05     0.01  -0.02  -0.22    -0.07  -0.02  -0.11
    25   1    -0.15  -0.17   0.03     0.02   0.06  -0.10    -0.07  -0.02  -0.11
    26   1    -0.04  -0.05   0.01    -0.05  -0.20   0.03     0.05  -0.08  -0.02
    27   1    -0.06  -0.16   0.02    -0.03  -0.12   0.02     0.02  -0.08  -0.08
    28   1    -0.14  -0.08   0.03    -0.03  -0.18  -0.10     0.02  -0.08  -0.09
    29   1     0.11  -0.04  -0.03    -0.06  -0.00   0.24     0.00   0.00   0.07
    30   1     0.07  -0.10  -0.02    -0.07  -0.07   0.22     0.02  -0.04   0.03
    31   1     0.05  -0.00  -0.01    -0.08  -0.13   0.14     0.02  -0.04   0.05
    32   1     0.06  -0.14  -0.01     0.02   0.18   0.18    -0.03   0.05   0.02
    33   1    -0.04  -0.15   0.01     0.06   0.20   0.04    -0.05   0.05  -0.03
    34   1     0.00  -0.20   0.01     0.01   0.13   0.14    -0.03   0.01  -0.03
    35   6     0.25  -0.02   0.03     0.07   0.07   0.17    -0.19   0.04  -0.11
    36   1     0.25   0.04   0.02     0.13   0.13   0.14    -0.45   0.09   0.01
    37   1     0.35  -0.03   0.05     0.08   0.06   0.23    -0.13   0.03  -0.07
    38   1     0.22  -0.11   0.03     0.07   0.05   0.21    -0.21   0.03  -0.40
                      4                      5                      6
                      A                      A                      A
 Frequencies --     71.4513                80.0479                95.8938
 Red. masses --      3.3643                 3.8353                 3.9021
 Frc consts  --      0.0101                 0.0145                 0.0211
 IR Inten    --      2.9405                 2.8922                 0.5328
  Atom  AN      X      Y      Z        X      Y      Z        X      Y      Z
     1   6    -0.01   0.01  -0.03    -0.01   0.01   0.00     0.00  -0.02  -0.04
     2   6     0.04   0.01   0.00    -0.03  -0.00  -0.03    -0.00  -0.08  -0.12
     3   1     0.15  -0.01   0.07    -0.07  -0.00  -0.05    -0.02  -0.11  -0.12
     4   6    -0.08   0.10   0.08    -0.05   0.21   0.16    -0.00   0.10   0.04
     5   1    -0.23   0.16   0.10    -0.29   0.33   0.15    -0.06   0.19  -0.02
     6   1    -0.08   0.08   0.04     0.00   0.15   0.14     0.01   0.13   0.10
     7   1     0.01   0.16   0.20     0.10   0.33   0.33     0.03   0.09   0.12
     8   6     0.01   0.01  -0.01     0.01  -0.01  -0.01    -0.00  -0.09  -0.11
     9   8    -0.13   0.03  -0.09     0.18  -0.05   0.10    -0.01  -0.13  -0.09
    10   8     0.17  -0.01   0.09    -0.15   0.02  -0.10    -0.01  -0.04  -0.07
    11   6     0.16  -0.01   0.09    -0.06   0.00  -0.02     0.02  -0.07   0.07
    12   1     0.16  -0.06   0.31    -0.03   0.08  -0.05     0.03  -0.08   0.19
    13   1     0.36   0.01  -0.00    -0.10  -0.08   0.01     0.09  -0.18   0.06
    14   5    -0.00  -0.03  -0.08     0.01  -0.07  -0.05    -0.01   0.05   0.04
    15   8    -0.02  -0.06  -0.08     0.02  -0.09  -0.08    -0.00  -0.01  -0.01
    16   8     0.02  -0.03  -0.06     0.01  -0.07  -0.05    -0.04   0.15   0.13
    17   6    -0.01  -0.02  -0.00     0.02  -0.02  -0.01    -0.01   0.02   0.02
    18   6    -0.00  -0.02  -0.01    -0.01  -0.02  -0.02     0.01   0.04   0.02
    19   6     0.07  -0.01   0.03     0.13   0.01   0.02     0.02   0.02   0.03
    20   6    -0.10   0.00   0.05    -0.06   0.04   0.03    -0.03   0.01   0.04
    21   6    -0.06  -0.02  -0.01    -0.09  -0.02  -0.03     0.22   0.05   0.00
    22   6     0.05  -0.00   0.04     0.01   0.02   0.00    -0.09  -0.06  -0.09
    23   1     0.13  -0.03  -0.00     0.19  -0.03  -0.01     0.02  -0.01   0.03
    24   1     0.06  -0.01   0.02     0.16   0.00   0.02     0.05   0.03   0.04
    25   1     0.08   0.02   0.10     0.14   0.08   0.08     0.02   0.05   0.02
    26   1    -0.16  -0.01   0.02    -0.14   0.01   0.00    -0.05   0.01   0.03
    27   1    -0.09   0.03   0.12    -0.07   0.10   0.09    -0.03   0.00   0.06
    28   1    -0.11   0.00   0.05    -0.03   0.04   0.03    -0.06   0.01   0.03
    29   1    -0.04  -0.03  -0.02    -0.10  -0.03  -0.05     0.27   0.08   0.02
    30   1    -0.08  -0.01   0.04    -0.11   0.02   0.00     0.28  -0.06  -0.08
    31   1    -0.10  -0.03  -0.04    -0.11  -0.04  -0.06     0.27   0.15   0.06
    32   1     0.05  -0.01   0.03    -0.02   0.00  -0.01    -0.08  -0.05  -0.09
    33   1     0.09  -0.01   0.03     0.07   0.01   0.01    -0.24  -0.06  -0.07
    34   1     0.03   0.01   0.08     0.00   0.07   0.03    -0.05  -0.13  -0.21
    35   6    -0.10   0.04  -0.06     0.05   0.01   0.06    -0.05   0.05   0.10
    36   1    -0.31   0.04   0.04     0.10   0.09   0.02    -0.13   0.18   0.12
    37   1    -0.09   0.03  -0.05     0.12  -0.01   0.12    -0.02   0.02   0.24
    38   1    -0.10   0.07  -0.30     0.03  -0.07   0.10    -0.06   0.04  -0.03
                      7                      8                      9
                      A                      A                      A
 Frequencies --    106.0711               107.0847               136.2982
 Red. masses --      2.8351                 3.2886                 1.1192
 Frc consts  --      0.0188                 0.0222                 0.0123
 IR Inten    --      2.4415                 0.5300                 0.2214
  Atom  AN      X      Y      Z        X      Y      Z        X      Y      Z
     1   6     0.00  -0.00  -0.04     0.03  -0.02  -0.00    -0.01   0.02   0.03
     2   6     0.11  -0.05  -0.01    -0.02  -0.04  -0.07     0.01  -0.01   0.00
     3   1     0.16  -0.08   0.02    -0.04  -0.05  -0.07     0.02  -0.04   0.01
     4   6    -0.11   0.02   0.06     0.06   0.11   0.05    -0.00   0.02   0.03
     5   1    -0.25   0.03   0.11    -0.04   0.18   0.02     0.50   0.08  -0.28
     6   1    -0.16  -0.00  -0.02     0.11   0.08   0.08    -0.16   0.38   0.37
     7   1    -0.03   0.06   0.19     0.12   0.17   0.11    -0.31  -0.46  -0.10
     8   6     0.12  -0.05  -0.00    -0.04  -0.04  -0.08     0.02  -0.00  -0.02
     9   8     0.09  -0.07  -0.01    -0.04  -0.06  -0.07     0.02   0.00  -0.02
    10   8     0.13  -0.03   0.02    -0.05  -0.02  -0.06     0.02  -0.00  -0.02
    11   6    -0.13  -0.00  -0.05     0.06  -0.05   0.06    -0.01  -0.00   0.00
    12   1    -0.19  -0.15  -0.26     0.09   0.00   0.21    -0.01  -0.02  -0.00
    13   1    -0.32   0.13   0.02     0.17  -0.17   0.02    -0.02  -0.01   0.01
    14   5    -0.01   0.06  -0.05     0.02  -0.01   0.04    -0.00  -0.00   0.00
    15   8    -0.05   0.08   0.01     0.01   0.11   0.14     0.00  -0.01  -0.01
    16   8     0.03   0.03  -0.05     0.03  -0.09  -0.05    -0.00  -0.02  -0.01
    17   6    -0.04   0.01   0.00     0.01   0.02   0.02    -0.00  -0.01  -0.00
    18   6     0.01   0.01   0.00    -0.00  -0.00   0.00    -0.01  -0.01  -0.00
    19   6    -0.12  -0.02  -0.00    -0.15  -0.02  -0.02     0.01  -0.01   0.00
    20   6    -0.03  -0.03  -0.00     0.16   0.01  -0.07    -0.01   0.00  -0.00
    21   6    -0.00   0.01   0.01    -0.12   0.00  -0.00    -0.03  -0.01  -0.01
    22   6     0.07  -0.01   0.05     0.06   0.03   0.06    -0.00  -0.00   0.00
    23   1    -0.12   0.03  -0.00    -0.23   0.03   0.02     0.01  -0.01  -0.00
    24   1    -0.18  -0.01  -0.01    -0.18  -0.01  -0.01     0.02  -0.01   0.00
    25   1    -0.11  -0.09  -0.00    -0.15  -0.11  -0.10     0.01   0.00   0.01
    26   1     0.02  -0.00  -0.00     0.27   0.05  -0.04    -0.02  -0.00  -0.00
    27   1    -0.01  -0.09  -0.01     0.15  -0.03  -0.21    -0.01   0.01   0.00
    28   1    -0.08  -0.03  -0.00     0.19   0.03  -0.05     0.00   0.00   0.00
    29   1     0.03   0.01   0.00    -0.19  -0.03  -0.02    -0.03  -0.01  -0.01
    30   1    -0.01  -0.00   0.04    -0.14   0.09   0.01    -0.03   0.00   0.00
    31   1    -0.03   0.01  -0.02    -0.12  -0.06  -0.01    -0.03  -0.02  -0.01
    32   1     0.12   0.00   0.05     0.06   0.03   0.05    -0.01  -0.00  -0.00
    33   1     0.08  -0.00   0.04     0.13   0.03   0.06     0.01  -0.00   0.00
    34   1     0.05  -0.04   0.10     0.03   0.06   0.12    -0.00   0.01   0.01
    35   6    -0.04   0.06   0.05    -0.02   0.02   0.05    -0.01   0.04   0.02
    36   1     0.19  -0.12  -0.04    -0.15   0.19   0.09     0.01   0.05   0.02
    37   1    -0.30   0.08  -0.03     0.10  -0.01   0.18    -0.04   0.04   0.05
    38   1     0.05   0.26   0.29    -0.06  -0.05  -0.12     0.00   0.07   0.03
                     10                     11                     12
                      A                      A                      A
 Frequencies --    153.5733               175.7213               222.1855
 Red. masses --      2.8341                 3.2449                 1.2247
 Frc consts  --      0.0394                 0.0590                 0.0356
 IR Inten    --      2.1177                 4.2407                 0.0059
  Atom  AN      X      Y      Z        X      Y      Z        X      Y      Z
     1   6    -0.02   0.01  -0.00    -0.01   0.01   0.09     0.02  -0.00   0.00
     2   6    -0.09   0.02  -0.07     0.05  -0.02   0.07     0.02  -0.00   0.01
     3   1    -0.15   0.01  -0.09     0.04  -0.11   0.09     0.04  -0.00   0.02
     4   6     0.16   0.12  -0.06    -0.07  -0.16   0.03     0.02   0.00   0.00
     5   1     0.07   0.17  -0.07    -0.21  -0.31   0.25     0.02   0.01  -0.00
     6   1     0.33   0.00  -0.03    -0.08  -0.31  -0.21     0.02   0.01   0.01
     7   1     0.22   0.29  -0.12     0.01   0.01   0.03     0.02   0.00   0.00
     8   6     0.05   0.00  -0.01     0.06   0.03  -0.08     0.00  -0.00   0.00
     9   8     0.04   0.01  -0.01     0.07   0.12  -0.11    -0.00  -0.01   0.00
    10   8     0.16  -0.01   0.06     0.02   0.01  -0.14    -0.01   0.00  -0.00
    11   6    -0.03   0.01  -0.03     0.03  -0.00  -0.03    -0.00   0.00  -0.00
    12   1    -0.09  -0.12  -0.15     0.02  -0.03   0.04     0.00   0.01   0.00
    13   1    -0.14   0.14   0.01     0.03  -0.11  -0.02     0.00   0.00  -0.00
    14   5    -0.02  -0.06   0.07    -0.01  -0.02   0.05     0.01   0.00  -0.00
    15   8     0.01  -0.06   0.04     0.01  -0.04   0.02     0.00   0.02   0.01
    16   8    -0.06  -0.06   0.05    -0.03  -0.04   0.02     0.01  -0.02  -0.01
    17   6    -0.00  -0.02   0.01     0.01  -0.02   0.01     0.01   0.00   0.01
    18   6    -0.06  -0.03   0.00    -0.03  -0.03   0.01     0.01   0.00  -0.01
    19   6     0.02  -0.01   0.01     0.03  -0.02   0.02    -0.01  -0.00   0.01
    20   6     0.03   0.02  -0.01     0.01   0.00   0.00    -0.04  -0.07   0.04
    21   6    -0.07  -0.02   0.00    -0.05  -0.03   0.01     0.00   0.01  -0.01
    22   6    -0.12  -0.00  -0.05    -0.07  -0.00  -0.02    -0.04   0.06  -0.05
    23   1    -0.01  -0.05   0.04     0.03  -0.06   0.03    -0.05  -0.03   0.03
    24   1     0.09  -0.01   0.03     0.08  -0.02   0.04     0.04  -0.00   0.02
    25   1     0.01   0.04  -0.03     0.03   0.02   0.01    -0.02   0.02  -0.05
    26   1     0.02   0.00  -0.00    -0.01  -0.02   0.01     0.16   0.16  -0.07
    27   1     0.01   0.07  -0.05     0.00   0.04  -0.01     0.08  -0.45   0.08
    28   1     0.10   0.03  -0.01     0.06   0.00   0.00    -0.42  -0.02   0.15
    29   1    -0.13  -0.04   0.01    -0.09  -0.04   0.02     0.05   0.02  -0.02
    30   1    -0.06   0.02  -0.03    -0.05  -0.01   0.01    -0.01  -0.02   0.03
    31   1    -0.04  -0.05   0.03    -0.04  -0.06   0.02    -0.04   0.02  -0.04
    32   1    -0.21  -0.02  -0.07    -0.14  -0.02  -0.04    -0.36  -0.09  -0.23
    33   1    -0.13  -0.02  -0.02    -0.05  -0.02  -0.00     0.20  -0.11   0.11
    34   1    -0.10   0.07  -0.12    -0.05   0.06  -0.06    -0.03   0.47  -0.07
    35   6    -0.02   0.05   0.00    -0.01   0.20   0.08     0.00  -0.00  -0.00
    36   1     0.15  -0.17  -0.05    -0.03   0.42   0.06    -0.01   0.02   0.00
    37   1    -0.30   0.09  -0.12    -0.01   0.16   0.32     0.03  -0.01   0.01
    38   1     0.07   0.28   0.19    -0.00   0.23  -0.03    -0.01  -0.03  -0.02
                     13                     14                     15
                      A                      A                      A
 Frequencies --    237.1152               259.0687               262.5347
 Red. masses --      1.2412                 1.4122                 1.9540
 Frc consts  --      0.0411                 0.0558                 0.0793
 IR Inten    --      0.0978                 0.4156                 1.9175
  Atom  AN      X      Y      Z        X      Y      Z        X      Y      Z
     1   6     0.00   0.00  -0.03     0.03  -0.01  -0.00    -0.01   0.01   0.10
     2   6     0.02   0.01  -0.02     0.09  -0.01   0.04    -0.04  -0.02   0.05
     3   1     0.03   0.02  -0.01     0.18  -0.02   0.09    -0.08  -0.05   0.04
     4   6    -0.04  -0.00  -0.01     0.08   0.03  -0.01     0.10   0.01   0.01
     5   1    -0.04   0.00  -0.01     0.07   0.06  -0.04     0.11  -0.01   0.03
     6   1    -0.07   0.03  -0.01     0.13   0.01   0.03     0.20  -0.07   0.02
     7   1    -0.04  -0.03   0.03     0.08   0.06  -0.03     0.11   0.10  -0.09
     8   6     0.00   0.00   0.00     0.05  -0.01   0.02    -0.01  -0.01   0.00
     9   8    -0.01  -0.02   0.01    -0.01  -0.01  -0.00     0.01   0.05  -0.01
    10   8    -0.01   0.02   0.01     0.04   0.01   0.03    -0.00  -0.06  -0.03
    11   6     0.00   0.02   0.00    -0.06   0.02  -0.04    -0.00  -0.07   0.01
    12   1     0.00   0.03  -0.00    -0.09  -0.01  -0.13    -0.00  -0.09   0.04
    13   1     0.00   0.03  -0.00    -0.14   0.09  -0.01     0.00  -0.11   0.01
    14   5     0.00   0.01  -0.01     0.01  -0.00  -0.00    -0.00   0.01   0.03
    15   8    -0.01   0.01  -0.00    -0.01  -0.00   0.00     0.00  -0.00  -0.01
    16   8     0.01   0.01  -0.00    -0.01  -0.00  -0.00     0.00  -0.01  -0.01
    17   6     0.00  -0.01  -0.00    -0.02  -0.00   0.00    -0.01   0.01  -0.01
    18   6     0.01  -0.01  -0.00    -0.02   0.00  -0.00     0.01   0.01  -0.01
    19   6    -0.02  -0.05   0.05    -0.04  -0.00  -0.01    -0.04   0.05  -0.09
    20   6     0.03   0.04  -0.02    -0.05  -0.01   0.02    -0.09  -0.03   0.03
    21   6     0.03  -0.04   0.05    -0.03  -0.00  -0.00     0.03   0.06  -0.08
    22   6    -0.03   0.03  -0.02    -0.04  -0.01  -0.02     0.07  -0.01   0.03
    23   1     0.05  -0.03   0.00    -0.03   0.03  -0.02     0.07   0.25  -0.18
    24   1    -0.13  -0.03   0.05    -0.07  -0.01  -0.03    -0.24  -0.00  -0.23
    25   1     0.01  -0.13   0.13    -0.03  -0.03  -0.00    -0.00  -0.05   0.06
    26   1    -0.17  -0.20   0.10    -0.13  -0.08   0.04    -0.30  -0.22   0.09
    27   1    -0.08   0.41  -0.04    -0.07   0.09   0.06    -0.14   0.20   0.16
    28   1     0.39  -0.02  -0.14     0.02  -0.03  -0.03     0.06  -0.10  -0.10
    29   1     0.12   0.01   0.08    -0.05  -0.01   0.00     0.21   0.06  -0.16
    30   1     0.01  -0.13   0.13    -0.03   0.01  -0.00     0.00  -0.03   0.03
    31   1    -0.03  -0.04  -0.00    -0.03  -0.02  -0.00    -0.08   0.19  -0.16
    32   1    -0.32  -0.12  -0.22    -0.00   0.02   0.02    -0.00  -0.08  -0.09
    33   1     0.22  -0.14   0.14    -0.12   0.03  -0.05     0.25  -0.09   0.11
    34   1    -0.03   0.42  -0.02    -0.02  -0.09  -0.07     0.03   0.17   0.13
    35   6     0.01  -0.01  -0.01     0.00  -0.00  -0.01    -0.03  -0.01   0.04
    36   1    -0.00  -0.01  -0.01    -0.19   0.43   0.02     0.02  -0.04   0.02
    37   1     0.03  -0.01  -0.03     0.46  -0.07   0.25    -0.13  -0.01   0.05
    38   1    -0.00  -0.03  -0.01    -0.16  -0.39  -0.25     0.01   0.09   0.07
                     16                     17                     18
                      A                      A                      A
 Frequencies --    279.1046               298.8270               299.4350
 Red. masses --      1.9538                 1.4041                 2.7219
 Frc consts  --      0.0897                 0.0739                 0.1438
 IR Inten    --      2.6717                 2.3475                 5.3822
  Atom  AN      X      Y      Z        X      Y      Z        X      Y      Z
     1   6     0.06  -0.03  -0.01    -0.02   0.01   0.01     0.02  -0.05  -0.08
     2   6     0.14  -0.01   0.04    -0.07   0.01  -0.03     0.01   0.00  -0.06
     3   1     0.27  -0.02   0.12    -0.16   0.02  -0.08     0.01   0.03  -0.06
     4   6     0.07   0.00   0.01    -0.04  -0.01   0.00    -0.09  -0.03   0.02
     5   1     0.06   0.03  -0.01    -0.04  -0.02   0.02    -0.11  -0.01   0.00
     6   1     0.08   0.01   0.04    -0.07   0.00  -0.02    -0.19   0.04   0.01
     7   1     0.07   0.01   0.02    -0.04  -0.03   0.01    -0.08  -0.12   0.13
     8   6     0.01   0.00  -0.00    -0.01  -0.00  -0.01     0.00   0.01  -0.01
     9   8    -0.02  -0.03  -0.00     0.01   0.01   0.00    -0.01  -0.06   0.01
    10   8    -0.08   0.05  -0.04     0.03  -0.02   0.01     0.01   0.07   0.03
    11   6     0.06   0.03   0.03    -0.02  -0.02  -0.00     0.02   0.10  -0.02
    12   1     0.10   0.12   0.14    -0.03  -0.05  -0.03     0.03   0.12  -0.04
    13   1     0.16  -0.05  -0.00    -0.04   0.01   0.01     0.03   0.13  -0.03
    14   5     0.03  -0.01  -0.01     0.00   0.01   0.00     0.01  -0.08   0.03
    15   8    -0.00   0.03   0.02     0.01   0.06   0.03     0.00  -0.06   0.06
    16   8     0.01  -0.02  -0.02     0.03  -0.04  -0.03     0.00  -0.06   0.07
    17   6    -0.01   0.00   0.01     0.02   0.01   0.01     0.00   0.00   0.06
    18   6    -0.00  -0.00  -0.01     0.03  -0.00  -0.02    -0.01   0.00   0.06
    19   6    -0.05  -0.00  -0.00     0.03   0.00   0.03    -0.01   0.11  -0.09
    20   6    -0.07  -0.03   0.06     0.00  -0.05   0.04     0.04  -0.08   0.05
    21   6    -0.04  -0.02   0.02     0.02  -0.02   0.00    -0.01   0.12  -0.11
    22   6    -0.08   0.02  -0.08    -0.01   0.06  -0.05    -0.02  -0.08   0.04
    23   1    -0.04   0.06  -0.02     0.32   0.22  -0.16    -0.04   0.23  -0.08
    24   1    -0.12  -0.01  -0.04    -0.33  -0.03  -0.12     0.03   0.03  -0.22
    25   1    -0.04  -0.06   0.02     0.12  -0.17   0.38    -0.02   0.15  -0.12
    26   1    -0.21  -0.15   0.09    -0.01  -0.09   0.07    -0.03  -0.20   0.14
    27   1    -0.09   0.11   0.16     0.01  -0.06   0.09    -0.01   0.06   0.05
    28   1     0.00  -0.08  -0.03    -0.03  -0.08  -0.02     0.17  -0.14  -0.07
    29   1    -0.14  -0.03   0.06    -0.29  -0.07   0.09    -0.18  -0.01  -0.21
    30   1    -0.03   0.03  -0.03     0.10   0.14  -0.26     0.04   0.29  -0.29
    31   1     0.01  -0.10   0.05     0.26  -0.15   0.19     0.13   0.19   0.02
    32   1    -0.03   0.09   0.05    -0.02   0.11   0.04    -0.12  -0.17  -0.10
    33   1    -0.28   0.11  -0.16    -0.08   0.13  -0.12     0.07  -0.18   0.15
    34   1    -0.03  -0.16  -0.20     0.01  -0.00  -0.11    -0.02   0.09   0.05
    35   6     0.02   0.01  -0.02    -0.01  -0.01   0.01     0.04   0.06  -0.05
    36   1     0.14  -0.31  -0.03    -0.03   0.05   0.01     0.03   0.05  -0.04
    37   1    -0.28   0.06  -0.23     0.04  -0.02   0.05     0.08   0.06  -0.07
    38   1     0.12   0.26   0.14    -0.03  -0.05  -0.02     0.03   0.02  -0.05
                     19                     20                     21
                      A                      A                      A
 Frequencies --    306.6684               312.6713               336.3063
 Red. masses --      1.7094                 1.1628                 4.6501
 Frc consts  --      0.0947                 0.0670                 0.3099
 IR Inten    --      1.1692                 0.6320                 6.4150
  Atom  AN      X      Y      Z        X      Y      Z        X      Y      Z
     1   6    -0.01   0.01  -0.00     0.00  -0.01  -0.01     0.06  -0.21  -0.24
     2   6    -0.07   0.01  -0.03    -0.01  -0.00  -0.02     0.01   0.03   0.05
     3   1    -0.16   0.03  -0.09    -0.03   0.00  -0.03     0.23   0.23   0.11
     4   6    -0.04  -0.01   0.01    -0.02  -0.01   0.01    -0.02   0.04  -0.02
     5   1    -0.04  -0.02   0.02    -0.02  -0.01   0.01    -0.08   0.26  -0.22
     6   1    -0.08   0.01  -0.01    -0.04   0.00  -0.00    -0.07   0.19   0.15
     7   1    -0.05  -0.04   0.03    -0.02  -0.03   0.03     0.01  -0.09   0.20
     8   6    -0.02   0.00  -0.01     0.00   0.00  -0.01    -0.04   0.04   0.08
     9   8     0.01   0.01   0.00    -0.00  -0.03   0.00     0.04   0.27   0.02
    10   8     0.03  -0.01   0.01     0.00   0.02   0.01    -0.01  -0.09  -0.03
    11   6    -0.01  -0.01  -0.00     0.01   0.03  -0.01    -0.01  -0.12  -0.01
    12   1    -0.02  -0.04  -0.03     0.01   0.03  -0.01    -0.02  -0.14   0.01
    13   1    -0.04   0.01   0.00     0.01   0.04  -0.01    -0.03  -0.14   0.00
    14   5     0.01   0.00   0.00     0.00  -0.01   0.01     0.03  -0.16  -0.13
    15   8     0.00   0.08   0.06     0.01   0.01   0.02    -0.01  -0.04   0.01
    16   8     0.05  -0.08  -0.06    -0.01  -0.01   0.00     0.02  -0.04   0.01
    17   6     0.02   0.02   0.03     0.01   0.01   0.01    -0.01   0.02   0.05
    18   6     0.03  -0.02  -0.02    -0.01   0.01   0.00    -0.01   0.02   0.05
    19   6     0.02   0.07  -0.03     0.03   0.03   0.00    -0.08   0.03   0.01
    20   6    -0.03  -0.04   0.06     0.04  -0.02  -0.00     0.05   0.04   0.01
    21   6     0.04  -0.05   0.02    -0.04  -0.00   0.01     0.08   0.04   0.03
    22   6    -0.01   0.03  -0.06    -0.03  -0.03  -0.02    -0.06   0.02   0.01
    23   1    -0.24  -0.08   0.13     0.25   0.19  -0.14    -0.07   0.14  -0.00
    24   1     0.42   0.05   0.04    -0.23  -0.01  -0.12    -0.19   0.02  -0.05
    25   1    -0.08   0.32  -0.36     0.10  -0.09   0.27    -0.06  -0.07   0.03
    26   1    -0.18  -0.19   0.13     0.12   0.03  -0.00     0.15   0.10   0.01
    27   1    -0.06   0.14   0.16     0.06  -0.12  -0.03     0.06  -0.03  -0.08
    28   1     0.08  -0.10  -0.06    -0.04  -0.02   0.01     0.04   0.06   0.06
    29   1     0.25   0.03   0.05     0.39   0.09  -0.07     0.20   0.08   0.01
    30   1     0.01  -0.22   0.17    -0.15  -0.24   0.38     0.10  -0.07   0.03
    31   1    -0.08  -0.02  -0.08    -0.36   0.13  -0.26     0.05   0.15   0.02
    32   1     0.00   0.09   0.05     0.04   0.00   0.02    -0.07   0.05   0.05
    33   1    -0.11   0.11  -0.13    -0.15   0.00  -0.05    -0.15   0.06  -0.02
    34   1     0.02  -0.06  -0.13    -0.02  -0.16  -0.07    -0.03  -0.03  -0.07
    35   6    -0.01  -0.01   0.01     0.01   0.02  -0.02    -0.04  -0.02   0.06
    36   1    -0.02   0.04   0.01     0.01   0.02  -0.01    -0.01   0.05   0.03
    37   1     0.03  -0.01   0.04     0.02   0.02  -0.02    -0.10  -0.03   0.15
    38   1    -0.02  -0.04  -0.02     0.01   0.00  -0.02    -0.01   0.05   0.04
                     22                     23                     24
                      A                      A                      A
 Frequencies --    348.1693               365.7761               382.6864
 Red. masses --      2.5688                 2.2975                 3.1541
 Frc consts  --      0.1835                 0.1811                 0.2721
 IR Inten    --      6.2073                 0.4170                 1.2475
  Atom  AN      X      Y      Z        X      Y      Z        X      Y      Z
     1   6     0.02  -0.05   0.03    -0.03   0.00   0.00     0.02  -0.12  -0.02
     2   6    -0.06  -0.02  -0.02     0.03  -0.01   0.03    -0.07  -0.02   0.04
     3   1    -0.17  -0.01  -0.09     0.13  -0.04   0.09    -0.14   0.07  -0.02
     4   6     0.01  -0.04   0.06     0.01   0.02  -0.02     0.05  -0.01   0.04
     5   1    -0.00  -0.04   0.05     0.02   0.03  -0.03     0.03   0.09  -0.04
     6   1    -0.01  -0.03   0.06     0.05  -0.00   0.00     0.09   0.02   0.13
     7   1     0.01  -0.07   0.09     0.01   0.05  -0.05     0.07  -0.02   0.08
     8   6    -0.02  -0.01  -0.00     0.01  -0.01   0.01    -0.07  -0.03   0.09
     9   8    -0.02  -0.07   0.02    -0.01  -0.02   0.00    -0.07  -0.05   0.10
    10   8     0.01   0.03   0.03    -0.01   0.00  -0.00    -0.01  -0.08   0.02
    11   6     0.03   0.06  -0.05     0.01   0.01  -0.01     0.09  -0.03  -0.15
    12   1     0.03   0.07  -0.07     0.02   0.02  -0.00     0.09  -0.01  -0.16
    13   1     0.03   0.10  -0.05     0.02   0.00  -0.01     0.08   0.01  -0.15
    14   5     0.02  -0.08   0.02    -0.03  -0.01  -0.00    -0.00   0.02  -0.04
    15   8     0.02  -0.08   0.00    -0.04   0.03   0.04     0.01   0.08  -0.03
    16   8     0.00  -0.06   0.01    -0.01  -0.06  -0.04    -0.03   0.08  -0.03
    17   6     0.01  -0.02  -0.02    -0.04   0.03   0.00    -0.00   0.04  -0.03
    18   6     0.00  -0.02  -0.01    -0.03  -0.04  -0.01    -0.00   0.04  -0.03
    19   6    -0.11  -0.06  -0.03     0.03   0.15  -0.10     0.03  -0.00   0.04
    20   6    -0.07   0.14   0.01    -0.02   0.13  -0.02    -0.00  -0.07  -0.02
    21   6     0.10  -0.01  -0.01     0.07  -0.13   0.10    -0.03  -0.01   0.03
    22   6     0.02   0.15   0.01     0.01  -0.11   0.02     0.03  -0.06  -0.01
    23   1    -0.15   0.05  -0.02     0.13   0.31  -0.17     0.03  -0.13   0.05
    24   1    -0.25  -0.06  -0.05    -0.00   0.04  -0.28     0.09   0.05   0.13
    25   1    -0.10  -0.22  -0.06     0.05   0.22   0.03     0.02   0.03   0.03
    26   1    -0.12   0.27  -0.17     0.08   0.27  -0.12    -0.01  -0.16   0.07
    27   1    -0.05   0.08   0.05     0.01  -0.02  -0.08    -0.00  -0.04   0.03
    28   1    -0.16   0.23   0.19    -0.12   0.20   0.12    -0.00  -0.13  -0.14
    29   1     0.23   0.02  -0.03    -0.03  -0.05   0.27    -0.11   0.02   0.10
    30   1     0.13  -0.13  -0.02     0.14  -0.20  -0.04    -0.03   0.02   0.02
    31   1     0.08   0.11  -0.02     0.21  -0.24   0.21     0.00  -0.11   0.05
    32   1     0.05   0.26   0.20    -0.04  -0.19  -0.11     0.07  -0.11  -0.12
    33   1     0.04   0.29  -0.15     0.12  -0.20   0.12     0.05  -0.13   0.08
    34   1     0.01   0.07   0.04    -0.01   0.03   0.08     0.01  -0.04   0.04
    35   6     0.04   0.09  -0.05     0.01   0.02  -0.01     0.07   0.19  -0.07
    36   1     0.05   0.14  -0.06     0.02   0.02  -0.01     0.13   0.41  -0.12
    37   1     0.03   0.08   0.00    -0.01   0.02   0.00    -0.10   0.15   0.22
    38   1     0.05   0.11  -0.06     0.02   0.04  -0.01     0.14   0.39  -0.12
                     25                     26                     27
                      A                      A                      A
 Frequencies --    384.5914               434.2847               449.3823
 Red. masses --      2.3353                 3.5148                 3.7534
 Frc consts  --      0.2035                 0.3906                 0.4466
 IR Inten    --      5.6291                 5.1602                 6.0821
  Atom  AN      X      Y      Z        X      Y      Z        X      Y      Z
     1   6    -0.08   0.03   0.00    -0.09   0.19   0.03    -0.00  -0.02  -0.14
     2   6     0.06  -0.02   0.06     0.02   0.05   0.03     0.06   0.02  -0.01
     3   1     0.31  -0.09   0.21     0.21  -0.01   0.15     0.25   0.11   0.07
     4   6    -0.00   0.05  -0.06    -0.09   0.08  -0.11    -0.07   0.04  -0.08
     5   1     0.02   0.05  -0.08    -0.01  -0.05  -0.02    -0.12   0.11  -0.12
     6   1     0.09  -0.00  -0.03    -0.07   0.01  -0.20    -0.13   0.10  -0.06
     7   1    -0.01   0.12  -0.16    -0.12   0.13  -0.25    -0.05  -0.00   0.03
     8   6     0.02  -0.02   0.02    -0.02  -0.02   0.06    -0.00   0.00   0.05
     9   8    -0.02  -0.04   0.01    -0.06  -0.08   0.07    -0.02   0.03   0.03
    10   8    -0.03  -0.01  -0.01    -0.02  -0.10  -0.01    -0.02  -0.04  -0.00
    11   6     0.02  -0.00  -0.02     0.03  -0.11  -0.08     0.01  -0.05  -0.03
    12   1     0.03   0.02  -0.01     0.03  -0.10  -0.06     0.02  -0.04  -0.02
    13   1     0.03  -0.02  -0.03     0.03  -0.12  -0.08     0.01  -0.06  -0.03
    14   5    -0.07  -0.02  -0.00     0.01   0.03  -0.02    -0.03   0.08   0.17
    15   8    -0.08   0.01   0.04     0.00  -0.09  -0.07     0.02   0.06   0.15
    16   8    -0.04  -0.07  -0.04     0.14  -0.04   0.02    -0.04   0.06   0.16
    17   6    -0.06  -0.01   0.02     0.05  -0.02   0.07     0.04  -0.09  -0.05
    18   6    -0.06  -0.02  -0.01     0.10  -0.01   0.08     0.04  -0.09  -0.05
    19   6     0.07   0.01   0.07    -0.06   0.01  -0.04     0.09  -0.08  -0.09
    20   6     0.05  -0.08  -0.04     0.07   0.05   0.08    -0.07   0.04  -0.01
    21   6     0.10   0.02  -0.07    -0.03   0.05   0.02    -0.06  -0.10  -0.10
    22   6    -0.01   0.12   0.06    -0.03  -0.01  -0.05     0.08   0.05  -0.03
    23   1     0.17  -0.09   0.03    -0.16   0.17   0.01     0.16  -0.03  -0.14
    24   1     0.16   0.01   0.10    -0.12  -0.03  -0.12     0.14  -0.14  -0.18
    25   1     0.07   0.16   0.17    -0.07  -0.08  -0.13     0.09   0.02  -0.03
    26   1     0.16  -0.12   0.08     0.09   0.13   0.01    -0.24   0.07  -0.17
    27   1     0.03  -0.07  -0.18     0.05   0.06  -0.00    -0.06   0.09   0.14
    28   1     0.14  -0.12  -0.12     0.11   0.11   0.18    -0.11   0.09   0.10
    29   1     0.25   0.04  -0.12    -0.05  -0.02  -0.07    -0.10  -0.18  -0.20
    30   1     0.17  -0.13  -0.15    -0.09   0.17   0.11    -0.14   0.05   0.01
    31   1     0.14   0.22  -0.01    -0.11   0.05  -0.05    -0.17  -0.12  -0.20
    32   1     0.02   0.21   0.21    -0.16  -0.01  -0.02     0.07   0.11   0.08
    33   1     0.07   0.24  -0.08    -0.22   0.00  -0.04     0.23   0.13  -0.13
    34   1    -0.04   0.08   0.14     0.06  -0.02  -0.28     0.04   0.09   0.07
    35   6     0.01   0.03  -0.01     0.01   0.04  -0.00     0.00   0.01   0.00
    36   1     0.03   0.05  -0.02     0.05   0.17  -0.04     0.02   0.06  -0.01
    37   1    -0.03   0.03   0.02    -0.11   0.01   0.18    -0.05   0.00   0.08
    38   1     0.03   0.07  -0.01     0.06   0.17  -0.03     0.02   0.07  -0.01
                     28                     29                     30
                      A                      A                      A
 Frequencies --    509.1773               522.8560               570.0926
 Red. masses --      2.6524                 3.2451                 2.7966
 Frc consts  --      0.4052                 0.5227                 0.5355
 IR Inten    --      3.6359                 1.1452                 5.6925
  Atom  AN      X      Y      Z        X      Y      Z        X      Y      Z
     1   6    -0.10   0.01  -0.01    -0.02   0.05  -0.01     0.13   0.12  -0.04
     2   6    -0.03  -0.02   0.02    -0.00   0.02  -0.01     0.15   0.10  -0.05
     3   1     0.35  -0.14   0.26     0.18  -0.02   0.10    -0.43   0.33  -0.42
     4   6    -0.06   0.04  -0.07    -0.05   0.03  -0.05    -0.00   0.01  -0.01
     5   1    -0.04   0.04  -0.08    -0.03  -0.01  -0.01    -0.02  -0.09   0.10
     6   1    -0.00   0.01  -0.05    -0.07   0.02  -0.08    -0.19   0.07  -0.13
     7   1    -0.07   0.08  -0.14    -0.06   0.02  -0.06    -0.01  -0.10   0.11
     8   6     0.00  -0.00  -0.02    -0.00   0.00  -0.00     0.04   0.03   0.06
     9   8     0.02  -0.01  -0.01    -0.00  -0.01   0.01    -0.05  -0.01   0.03
    10   8     0.00   0.02  -0.00     0.00  -0.01  -0.00    -0.01  -0.04  -0.02
    11   6    -0.00   0.02   0.01     0.00  -0.02  -0.01     0.01  -0.09  -0.04
    12   1    -0.00   0.02   0.01    -0.00  -0.02  -0.01     0.01  -0.08  -0.01
    13   1    -0.00   0.02   0.01    -0.00  -0.02  -0.01     0.01  -0.11  -0.03
    14   5    -0.02  -0.11   0.02     0.02  -0.05   0.03     0.05   0.05   0.09
    15   8     0.12  -0.03  -0.02     0.10   0.09   0.07     0.05  -0.08   0.00
    16   8    -0.12  -0.00   0.04     0.01  -0.11  -0.04    -0.07  -0.03  -0.05
    17   6     0.11   0.11  -0.01     0.08   0.01  -0.13     0.01   0.05  -0.00
    18   6    -0.03   0.06  -0.10    -0.06   0.08   0.06    -0.12   0.01  -0.06
    19   6    -0.06   0.04   0.04     0.07  -0.13  -0.07    -0.03   0.04   0.04
    20   6     0.05  -0.02   0.09    -0.09   0.00  -0.09     0.00  -0.01   0.01
    21   6    -0.00  -0.04   0.01     0.03   0.15   0.11     0.01  -0.05  -0.03
    22   6     0.09  -0.00  -0.05    -0.09  -0.05   0.10    -0.05  -0.00   0.05
    23   1    -0.20   0.05   0.13     0.10  -0.30  -0.07    -0.07   0.03   0.06
    24   1    -0.19   0.12   0.14     0.01  -0.02   0.10    -0.09   0.08   0.09
    25   1    -0.06  -0.19  -0.10     0.09  -0.24  -0.04    -0.03  -0.04   0.01
    26   1    -0.00  -0.12   0.17    -0.30  -0.02  -0.21     0.02  -0.06   0.08
    27   1     0.09  -0.06   0.28    -0.05   0.03   0.16     0.03  -0.05   0.07
    28   1    -0.09  -0.11  -0.07    -0.22   0.01  -0.08    -0.06  -0.06  -0.09
    29   1    -0.01   0.09   0.19     0.09   0.17   0.11     0.07   0.04   0.06
    30   1     0.01  -0.16   0.03     0.10   0.05   0.01     0.08  -0.22  -0.12
    31   1     0.03  -0.20   0.02     0.10   0.26   0.18     0.09  -0.01   0.04
    32   1     0.26  -0.02  -0.13     0.01  -0.12  -0.06     0.05   0.01   0.04
    33   1     0.21  -0.05  -0.01    -0.21  -0.17   0.24     0.06  -0.00   0.04
    34   1     0.01  -0.04   0.15    -0.09  -0.12   0.08    -0.12  -0.02   0.22
    35   6     0.00   0.00  -0.00    -0.00  -0.00   0.00    -0.01  -0.02   0.02
    36   1    -0.00  -0.02   0.00     0.00   0.01  -0.00     0.01   0.04  -0.00
    37   1     0.02   0.01  -0.03    -0.01  -0.01   0.02    -0.08  -0.04   0.11
    38   1    -0.01  -0.02   0.00     0.00   0.01   0.00     0.01   0.04   0.00
                     31                     32                     33
                      A                      A                      A
 Frequencies --    580.9858               611.4685               644.9404
 Red. masses --      3.9907                 2.2661                 5.2647
 Frc consts  --      0.7936                 0.4992                 1.2902
 IR Inten    --      6.5218                 5.7749                28.6707
  Atom  AN      X      Y      Z        X      Y      Z        X      Y      Z
     1   6    -0.02  -0.01   0.02     0.10   0.08   0.02     0.02  -0.12  -0.07
     2   6    -0.02  -0.02   0.02    -0.08   0.10  -0.11    -0.06  -0.07  -0.10
     3   1    -0.01  -0.05   0.03     0.75  -0.01   0.37     0.63  -0.10   0.27
     4   6     0.01   0.00   0.00     0.04  -0.03   0.07     0.03  -0.04   0.02
     5   1     0.02   0.02  -0.02     0.07  -0.21   0.22    -0.07   0.07  -0.04
     6   1     0.05  -0.02   0.03    -0.11  -0.03  -0.11     0.01   0.02   0.08
     7   1     0.01   0.03  -0.03    -0.00  -0.13   0.07     0.07  -0.06   0.14
     8   6    -0.01  -0.00  -0.01    -0.13   0.05  -0.08    -0.08  -0.03  -0.02
     9   8     0.01  -0.00  -0.01     0.04  -0.03   0.05     0.05   0.07   0.01
    10   8     0.00   0.01   0.00     0.05  -0.02   0.01    -0.02  -0.01   0.06
    11   6    -0.00   0.01   0.01     0.00  -0.05  -0.02     0.00   0.03   0.01
    12   1    -0.00   0.01   0.00    -0.01  -0.08  -0.05     0.00   0.04  -0.01
    13   1    -0.00   0.02   0.01    -0.03  -0.01  -0.00    -0.00   0.07   0.00
    14   5    -0.00   0.04  -0.12     0.07  -0.05  -0.05    -0.11   0.38   0.32
    15   8     0.08   0.14  -0.08    -0.00  -0.00   0.04     0.01  -0.11  -0.13
    16   8    -0.09   0.10  -0.09    -0.01   0.05   0.00     0.04  -0.11  -0.13
    17   6     0.11  -0.07   0.06    -0.04  -0.00   0.00     0.03   0.01   0.00
    18   6    -0.08  -0.10   0.05    -0.03  -0.02  -0.01    -0.03   0.02  -0.01
    19   6     0.04  -0.09  -0.09    -0.01   0.02   0.02    -0.00   0.01   0.00
    20   6     0.12   0.03   0.20    -0.02  -0.01  -0.03     0.04   0.00   0.05
    21   6     0.01  -0.09  -0.09    -0.00  -0.04  -0.03     0.00   0.02   0.02
    22   6    -0.15  -0.01   0.16    -0.02   0.00   0.02    -0.03  -0.01   0.02
    23   1    -0.08   0.11  -0.04     0.02   0.01  -0.00    -0.08   0.04   0.05
    24   1     0.01  -0.17  -0.23     0.01   0.02   0.01    -0.06   0.03   0.03
    25   1     0.02  -0.16  -0.23    -0.01   0.07   0.05    -0.01  -0.09  -0.05
    26   1     0.02   0.06   0.10    -0.00  -0.01  -0.01     0.06  -0.00   0.07
    27   1     0.13   0.07   0.28    -0.03  -0.01  -0.05     0.04  -0.01   0.04
    28   1     0.12   0.07   0.28    -0.02  -0.01  -0.04     0.04  -0.01   0.03
    29   1     0.08  -0.16  -0.22     0.00  -0.04  -0.04     0.04   0.07   0.06
    30   1     0.06  -0.13  -0.20     0.00  -0.05  -0.05     0.04  -0.06  -0.02
    31   1     0.05   0.13  -0.03     0.00  -0.02  -0.02     0.05   0.06   0.07
    32   1    -0.18   0.02   0.24    -0.03   0.01   0.05    -0.01  -0.02  -0.01
    33   1    -0.06   0.04   0.09     0.02   0.02  -0.01    -0.06  -0.03   0.05
    34   1    -0.18   0.02   0.22    -0.03   0.02   0.05    -0.03  -0.03   0.02
    35   6     0.00   0.00  -0.00    -0.01  -0.02   0.01     0.01   0.02  -0.02
    36   1    -0.00  -0.01   0.00    -0.01   0.01   0.00     0.01   0.03  -0.02
    37   1     0.01   0.01  -0.02    -0.03  -0.02   0.05     0.01   0.02  -0.01
    38   1    -0.00  -0.01  -0.00    -0.00   0.01  -0.00     0.01   0.03  -0.02
                     34                     35                     36
                      A                      A                      A
 Frequencies --    674.6055               732.5722               744.6894
 Red. masses --      3.4730                 6.4319                 6.5288
 Frc consts  --      0.9312                 2.0337                 2.1332
 IR Inten    --     10.4112                23.9053                34.5497
  Atom  AN      X      Y      Z        X      Y      Z        X      Y      Z
     1   6     0.03   0.02  -0.00    -0.00   0.14   0.08     0.02   0.04   0.02
     2   6     0.02   0.03  -0.02     0.18  -0.27  -0.23    -0.24   0.01  -0.24
     3   1     0.03   0.06  -0.02    -0.03  -0.25  -0.35     0.51  -0.09   0.20
     4   6     0.02  -0.01   0.02    -0.02   0.05  -0.01     0.04  -0.02   0.06
     5   1     0.02  -0.04   0.05     0.12  -0.18   0.15     0.05  -0.16   0.19
     6   1    -0.02  -0.00  -0.01    -0.03  -0.05  -0.16    -0.09  -0.01  -0.07
     7   1     0.01  -0.04   0.04    -0.11   0.08  -0.23    -0.00  -0.11   0.07
     8   6    -0.01   0.02  -0.01    -0.15  -0.17  -0.01     0.46  -0.11   0.30
     9   8    -0.00  -0.01   0.01     0.10   0.21  -0.05    -0.12   0.06  -0.09
    10   8     0.01   0.00  -0.01    -0.15  -0.06   0.28    -0.14   0.01  -0.01
    11   6     0.00  -0.02  -0.01     0.01   0.02   0.01    -0.02  -0.00  -0.02
    12   1    -0.00  -0.02  -0.01     0.05   0.15  -0.06     0.02   0.10   0.17
    13   1    -0.00  -0.02  -0.00     0.02   0.18  -0.02     0.15  -0.07  -0.09
    14   5    -0.00  -0.01  -0.01     0.05  -0.08  -0.07     0.03  -0.03  -0.03
    15   8    -0.11  -0.05   0.09     0.00  -0.00   0.05     0.00   0.00   0.01
    16   8    -0.11   0.02  -0.10    -0.01   0.03   0.00    -0.00   0.03  -0.02
    17   6    -0.03  -0.13   0.08    -0.01  -0.01   0.01    -0.01  -0.01   0.01
    18   6    -0.05   0.11  -0.09    -0.01   0.01  -0.01     0.00  -0.00   0.00
    19   6     0.05  -0.14  -0.09    -0.00  -0.00   0.00    -0.00   0.00   0.00
    20   6     0.07   0.00   0.14    -0.01  -0.00  -0.01    -0.01  -0.00  -0.00
    21   6    -0.01   0.15   0.09    -0.00   0.00  -0.00     0.00  -0.00  -0.00
    22   6     0.09   0.02  -0.12    -0.00   0.00  -0.00    -0.00  -0.00   0.00
    23   1     0.09  -0.01  -0.12     0.02  -0.00  -0.01     0.01   0.01  -0.00
    24   1     0.16  -0.28  -0.28     0.01  -0.02  -0.02     0.01  -0.01  -0.01
    25   1     0.04   0.01  -0.08    -0.00   0.02   0.01    -0.00   0.03   0.01
    26   1     0.09   0.09   0.06    -0.01   0.00  -0.01    -0.00   0.00  -0.01
    27   1     0.03   0.06   0.01    -0.01   0.00  -0.01    -0.01   0.00  -0.02
    28   1     0.20   0.09   0.31    -0.00   0.00   0.00     0.01   0.00   0.00
    29   1     0.02   0.31   0.30     0.00   0.02   0.02    -0.00  -0.01  -0.01
    30   1     0.03  -0.00   0.09     0.00  -0.02  -0.01    -0.00   0.00  -0.00
    31   1     0.05   0.03   0.13     0.00  -0.01   0.00    -0.00   0.00  -0.00
    32   1     0.28  -0.02  -0.26     0.02   0.00  -0.01    -0.02  -0.00   0.01
    33   1     0.13  -0.06  -0.04     0.02  -0.00  -0.00    -0.01   0.00   0.00
    34   1     0.05  -0.05   0.00    -0.01  -0.00   0.02     0.00   0.00  -0.01
    35   6    -0.00  -0.01   0.01     0.05   0.04  -0.06     0.01   0.00  -0.01
    36   1    -0.00  -0.00   0.00     0.07   0.20  -0.10     0.11   0.07  -0.07
    37   1    -0.01  -0.01   0.02    -0.08   0.02   0.13     0.00  -0.01   0.06
    38   1    -0.00  -0.00   0.00     0.11   0.21  -0.11     0.01   0.01   0.08
                     37                     38                     39
                      A                      A                      A
 Frequencies --    809.1784               820.2997               840.5065
 Red. masses --      1.1010                 6.9444                 4.0748
 Frc consts  --      0.4247                 2.7531                 1.6961
 IR Inten    --      0.7916                 6.3050                 4.0414
  Atom  AN      X      Y      Z        X      Y      Z        X      Y      Z
     1   6     0.00  -0.00  -0.00    -0.03   0.04  -0.03     0.00  -0.00   0.00
     2   6     0.01  -0.00   0.01     0.11   0.07  -0.15     0.03   0.02  -0.03
     3   1    -0.02   0.00  -0.01     0.12   0.25  -0.20     0.03   0.05  -0.04
     4   6    -0.00   0.00  -0.00     0.11  -0.07   0.14    -0.01   0.01  -0.02
     5   1    -0.00   0.00  -0.01     0.14  -0.19   0.24    -0.02  -0.01   0.01
     6   1     0.00  -0.00   0.00     0.08  -0.10   0.07    -0.04   0.02  -0.03
     7   1    -0.00   0.00  -0.00     0.06  -0.13   0.11    -0.01  -0.02   0.02
     8   6    -0.02   0.00  -0.01     0.00   0.06   0.01    -0.00   0.02  -0.00
     9   8     0.01  -0.00   0.00    -0.01   0.01   0.02    -0.00  -0.00   0.01
    10   8     0.02  -0.00   0.01    -0.00   0.04   0.02     0.00   0.01   0.00
    11   6    -0.06   0.01  -0.04     0.01  -0.07  -0.04     0.00  -0.02  -0.01
    12   1    -0.05  -0.08   0.50     0.03  -0.03  -0.04     0.01  -0.01  -0.01
    13   1     0.43   0.02  -0.26     0.02  -0.02  -0.05     0.01  -0.00  -0.01
    14   5    -0.00   0.00   0.00    -0.24  -0.05  -0.04    -0.02  -0.02   0.05
    15   8    -0.00  -0.00   0.00    -0.08   0.22  -0.26     0.23   0.07  -0.08
    16   8     0.00  -0.00   0.00    -0.02  -0.24   0.28    -0.23  -0.03  -0.09
    17   6     0.00   0.00  -0.00     0.01   0.05  -0.03    -0.09  -0.12   0.07
    18   6    -0.00   0.00  -0.00    -0.01  -0.03   0.01     0.10  -0.09   0.09
    19   6     0.00  -0.00  -0.00     0.03  -0.05  -0.05    -0.06   0.05   0.09
    20   6     0.00   0.00   0.00     0.03   0.01   0.08    -0.07  -0.05  -0.05
    21   6    -0.00  -0.00  -0.00    -0.00   0.04   0.03     0.02   0.06   0.10
    22   6    -0.00   0.00  -0.00     0.03   0.00  -0.06     0.09  -0.02  -0.04
    23   1     0.00  -0.00  -0.00     0.01  -0.07  -0.03    -0.04   0.24   0.06
    24   1    -0.00   0.00   0.00     0.02  -0.02  -0.01     0.06  -0.11  -0.13
    25   1     0.00  -0.00  -0.00     0.03  -0.10  -0.08    -0.08   0.28   0.10
    26   1     0.00  -0.00   0.00     0.16   0.03   0.15    -0.01   0.07  -0.14
    27   1     0.00  -0.00   0.00     0.02   0.00  -0.04    -0.15   0.04  -0.33
    28   1    -0.00  -0.00  -0.00     0.13   0.01   0.07     0.13   0.05   0.12
    29   1     0.00   0.00   0.00     0.01   0.06   0.05    -0.00  -0.11  -0.13
    30   1     0.00  -0.00  -0.00    -0.01   0.03   0.05    -0.02   0.29   0.11
    31   1     0.00  -0.00   0.00    -0.01   0.02   0.02    -0.04   0.25   0.07
    32   1     0.00   0.00  -0.00     0.18   0.03  -0.07    -0.14   0.01   0.09
    33   1     0.00  -0.00   0.00     0.19   0.00  -0.08     0.04   0.08  -0.15
    34   1    -0.00  -0.00   0.00    -0.04  -0.02   0.12     0.19   0.09  -0.27
    35   6    -0.04   0.01  -0.02    -0.02  -0.04   0.01    -0.00  -0.01   0.00
    36   1     0.39   0.12  -0.24     0.01   0.06  -0.01     0.00   0.02  -0.00
    37   1     0.16  -0.03   0.10    -0.11  -0.07   0.17    -0.03  -0.02   0.04
    38   1    -0.07  -0.17   0.44     0.02   0.06   0.00     0.00   0.01   0.00
                     40                     41                     42
                      A                      A                      A
 Frequencies --    864.4758               886.4149               932.1311
 Red. masses --      2.6063                 2.4201                 1.5800
 Frc consts  --      1.1476                 1.1203                 0.8088
 IR Inten    --     80.2769                 2.8614                 0.1041
  Atom  AN      X      Y      Z        X      Y      Z        X      Y      Z
     1   6     0.03  -0.00   0.01    -0.01  -0.03   0.00    -0.00   0.00  -0.00
     2   6    -0.04  -0.02   0.04    -0.04   0.05   0.07    -0.00   0.00   0.00
     3   1    -0.02  -0.06   0.06    -0.05  -0.10   0.09    -0.00  -0.00   0.00
     4   6    -0.03   0.03  -0.04    -0.01  -0.02  -0.02     0.00  -0.00   0.00
     5   1    -0.04   0.03  -0.04    -0.09   0.13  -0.13     0.00   0.00  -0.00
     6   1    -0.07   0.05  -0.06     0.04   0.02   0.09     0.01  -0.00   0.01
     7   1    -0.02   0.01  -0.01     0.05   0.02   0.07     0.00   0.00  -0.00
     8   6    -0.00  -0.03   0.01     0.05   0.05  -0.07     0.00  -0.00  -0.00
     9   8    -0.00   0.00  -0.00     0.04  -0.04  -0.08     0.00  -0.00  -0.00
    10   8     0.00  -0.04  -0.02    -0.05   0.14   0.12    -0.00  -0.00   0.00
    11   6    -0.01   0.03   0.02     0.03  -0.11  -0.08    -0.00   0.00   0.00
    12   1    -0.02  -0.00   0.03     0.10   0.12  -0.12     0.00   0.00   0.00
    13   1    -0.02  -0.01   0.03     0.09   0.11  -0.13     0.00   0.00   0.00
    14   5     0.06   0.01   0.01     0.02   0.01   0.01    -0.00   0.01  -0.01
    15   8     0.13   0.06  -0.06     0.02  -0.01   0.01    -0.02  -0.00  -0.01
    16   8     0.13  -0.02   0.08     0.03   0.01  -0.00     0.02   0.00  -0.00
    17   6    -0.09  -0.09   0.08    -0.01  -0.02   0.01     0.04  -0.06  -0.05
    18   6    -0.10   0.06  -0.10    -0.01   0.02  -0.02    -0.02  -0.06  -0.05
    19   6    -0.03  -0.03   0.04    -0.01  -0.00   0.01    -0.08   0.06   0.03
    20   6    -0.07  -0.04   0.00    -0.01  -0.01  -0.01     0.09  -0.04  -0.01
    21   6    -0.03   0.02  -0.04    -0.00  -0.00  -0.02     0.04   0.07   0.04
    22   6    -0.07   0.01  -0.01    -0.02   0.01   0.01    -0.06  -0.05  -0.03
    23   1     0.01   0.15  -0.01    -0.00   0.03   0.00     0.10  -0.06  -0.05
    24   1     0.12  -0.20  -0.20     0.02  -0.03  -0.03     0.07   0.08   0.10
    25   1    -0.05   0.22   0.04    -0.01   0.04   0.01    -0.06   0.27   0.23
    26   1     0.11   0.08  -0.00     0.01   0.01  -0.01    -0.29   0.01  -0.32
    27   1    -0.15   0.02  -0.37    -0.03   0.00  -0.05     0.11   0.11   0.36
    28   1     0.20   0.04   0.15     0.02   0.01   0.02    -0.07   0.08   0.22
    29   1     0.01   0.22   0.22    -0.00   0.04   0.04    -0.08   0.04   0.06
    30   1     0.02  -0.22  -0.05     0.00  -0.05  -0.01    -0.05   0.22   0.18
    31   1     0.06  -0.14   0.01     0.01  -0.05  -0.01    -0.05  -0.05  -0.05
    32   1     0.22   0.02  -0.10     0.03  -0.00  -0.02     0.02   0.07   0.17
    33   1     0.13  -0.04   0.03    -0.00  -0.01   0.03     0.28   0.08  -0.20
    34   1    -0.21  -0.07   0.32    -0.04  -0.02   0.05    -0.18   0.04   0.29
    35   6     0.01   0.03  -0.01    -0.03  -0.14   0.01     0.00   0.00  -0.00
    36   1    -0.01  -0.05   0.01     0.04   0.28  -0.08     0.00   0.00  -0.00
    37   1     0.09   0.05  -0.13    -0.39  -0.22   0.58    -0.00  -0.00   0.00
    38   1    -0.02  -0.05   0.00     0.12   0.27  -0.03     0.00   0.00  -0.00
                     43                     44                     45
                      A                      A                      A
 Frequencies --    935.7113               951.8452               961.0016
 Red. masses --      1.4231                 2.0539                 1.7661
 Frc consts  --      0.7341                 1.0964                 0.9610
 IR Inten    --      0.0011                 0.6923                 4.2177
  Atom  AN      X      Y      Z        X      Y      Z        X      Y      Z
     1   6     0.00   0.00   0.00     0.07   0.07   0.01    -0.01  -0.00  -0.01
     2   6    -0.00   0.00   0.01    -0.06   0.04   0.11    -0.00  -0.00  -0.00
     3   1    -0.00  -0.01   0.01    -0.06  -0.08   0.14    -0.00   0.00  -0.00
     4   6     0.00   0.00  -0.01     0.07  -0.00  -0.10    -0.00  -0.00   0.02
     5   1    -0.01   0.00  -0.00    -0.28   0.12  -0.04     0.03  -0.01   0.00
     6   1    -0.02   0.01  -0.01    -0.35   0.29  -0.15     0.04  -0.03   0.02
     7   1     0.01  -0.01   0.02     0.18  -0.26   0.47    -0.01   0.03  -0.04
     8   6     0.00  -0.00  -0.00     0.01  -0.06  -0.04     0.00   0.00   0.00
     9   8     0.00  -0.00  -0.00     0.04  -0.02  -0.07    -0.00  -0.00   0.00
    10   8    -0.00  -0.00   0.00    -0.05  -0.06   0.06     0.00   0.00  -0.00
    11   6    -0.00   0.00   0.00    -0.02   0.01   0.04     0.00   0.00  -0.00
    12   1    -0.00   0.00   0.00    -0.02   0.00   0.04     0.00   0.00  -0.00
    13   1    -0.00   0.00   0.00    -0.03   0.00   0.04     0.00   0.00  -0.00
    14   5     0.00   0.00  -0.00     0.01  -0.00  -0.00    -0.00   0.02  -0.02
    15   8    -0.01  -0.01   0.02    -0.02   0.02  -0.03    -0.04   0.01   0.01
    16   8    -0.01   0.00  -0.02    -0.01  -0.02   0.03     0.04   0.02   0.01
    17   6     0.00   0.05   0.03    -0.03   0.03  -0.02     0.11  -0.04   0.03
    18   6     0.02  -0.05  -0.04    -0.04  -0.05   0.02    -0.09  -0.06   0.00
    19   6     0.07  -0.04  -0.00    -0.01  -0.01  -0.04     0.06   0.02   0.09
    20   6    -0.05   0.05  -0.01     0.02   0.03   0.03    -0.01  -0.01  -0.08
    21   6     0.06   0.07   0.02    -0.03   0.01   0.05    -0.07   0.00   0.07
    22   6    -0.05  -0.07  -0.00     0.04  -0.02  -0.04     0.02  -0.00  -0.07
    23   1    -0.13   0.16   0.09     0.07  -0.15  -0.07    -0.24   0.45   0.22
    24   1    -0.06  -0.09  -0.11     0.01   0.05   0.06    -0.08  -0.12  -0.17
    25   1     0.04  -0.21  -0.22     0.01   0.01   0.05    -0.00  -0.12  -0.24
    26   1     0.17  -0.06   0.25     0.06  -0.03   0.12    -0.13  -0.04  -0.13
    27   1    -0.03  -0.11  -0.16     0.05  -0.03   0.08     0.01  -0.01   0.04
    28   1    -0.05  -0.09  -0.28    -0.04  -0.03  -0.07    -0.10  -0.03  -0.12
    29   1    -0.13   0.07   0.11     0.06  -0.05  -0.08     0.13  -0.07  -0.13
    30   1    -0.08   0.25   0.27     0.03  -0.02  -0.08     0.08  -0.10  -0.21
    31   1    -0.07  -0.22  -0.13     0.02   0.24   0.11     0.05   0.46   0.24
    32   1    -0.13   0.08   0.30    -0.05   0.01   0.05     0.12   0.01  -0.09
    33   1     0.25   0.13  -0.25     0.09   0.05  -0.13     0.16   0.01  -0.10
    34   1    -0.13   0.10   0.20     0.06   0.05  -0.08    -0.02  -0.02   0.05
    35   6     0.00   0.00  -0.00     0.03   0.04  -0.04    -0.00  -0.00   0.00
    36   1     0.00   0.00  -0.00     0.03   0.02  -0.04    -0.00   0.00   0.00
    37   1     0.00   0.00  -0.00     0.06   0.05  -0.09    -0.00  -0.00   0.01
    38   1     0.00   0.00  -0.00     0.02   0.02  -0.04     0.00   0.00   0.00
                     46                     47                     48
                      A                      A                      A
 Frequencies --    972.0448               981.1978              1000.7764
 Red. masses --      1.7028                 1.9583                 1.2895
 Frc consts  --      0.9480                 1.1108                 0.7609
 IR Inten    --     43.1707                 2.9561                 0.0076
  Atom  AN      X      Y      Z        X      Y      Z        X      Y      Z
     1   6    -0.02   0.07   0.04     0.05  -0.05  -0.08    -0.00  -0.00  -0.00
     2   6     0.02   0.01  -0.02    -0.04   0.05   0.11    -0.00   0.00   0.00
     3   1     0.03  -0.03  -0.00    -0.08   0.14   0.07     0.00   0.01   0.00
     4   6     0.04  -0.08  -0.05     0.02   0.12   0.05    -0.00  -0.00   0.00
     5   1    -0.27   0.23  -0.19     0.28  -0.37   0.39     0.01  -0.00   0.00
     6   1    -0.06   0.15   0.16    -0.16  -0.05  -0.40     0.01  -0.01   0.00
     7   1     0.21  -0.10   0.38    -0.22  -0.09  -0.25    -0.00   0.00  -0.01
     8   6    -0.00   0.00  -0.00     0.01  -0.04  -0.03     0.00  -0.00  -0.00
     9   8     0.00   0.00   0.00     0.04  -0.03  -0.07     0.00  -0.00  -0.00
    10   8    -0.01  -0.02   0.01    -0.04  -0.03   0.05    -0.00  -0.00   0.00
    11   6    -0.01  -0.00   0.01    -0.02   0.00   0.03    -0.00  -0.00   0.00
    12   1    -0.01  -0.03   0.02    -0.02   0.01   0.03    -0.00  -0.00   0.00
    13   1    -0.02  -0.03   0.02    -0.02   0.01   0.03    -0.00  -0.00   0.00
    14   5    -0.02  -0.01  -0.01    -0.02   0.01   0.01    -0.00   0.01  -0.01
    15   8    -0.05   0.01   0.00    -0.04   0.01  -0.01    -0.00   0.01   0.01
    16   8    -0.05  -0.02  -0.01    -0.04  -0.03  -0.00     0.00   0.01   0.01
    17   6     0.08  -0.04   0.02     0.05  -0.02   0.00     0.02  -0.01   0.01
    18   6     0.07   0.06  -0.00     0.04   0.03   0.00    -0.02  -0.02   0.01
    19   6     0.04   0.03   0.05     0.03   0.02   0.02     0.04   0.06  -0.03
    20   6    -0.02  -0.06  -0.04    -0.01  -0.04  -0.02    -0.02  -0.07   0.00
    21   6     0.05  -0.02  -0.04     0.04  -0.02  -0.02    -0.05   0.04  -0.04
    22   6    -0.04   0.05   0.03    -0.02   0.03   0.02     0.04  -0.06   0.01
    23   1    -0.15   0.23   0.14    -0.09   0.11   0.08    -0.08  -0.12   0.06
    24   1    -0.08  -0.00  -0.04    -0.06   0.02   0.00    -0.17   0.24   0.22
    25   1     0.01  -0.11  -0.13     0.01  -0.09  -0.08     0.07  -0.27  -0.07
    26   1    -0.11   0.07  -0.24    -0.05   0.05  -0.14    -0.05   0.11  -0.21
    27   1    -0.07   0.08  -0.11    -0.04   0.05  -0.07    -0.10   0.10  -0.17
    28   1     0.09   0.06   0.17     0.07   0.04   0.12     0.18   0.09   0.29
    29   1    -0.08  -0.02   0.02    -0.05  -0.05  -0.02     0.05   0.28   0.25
    30   1    -0.04   0.10   0.12    -0.03   0.10   0.08     0.03  -0.28  -0.07
    31   1    -0.04  -0.25  -0.15    -0.04  -0.13  -0.10     0.10  -0.10   0.08
    32   1     0.14  -0.03  -0.15     0.10  -0.02  -0.11    -0.25   0.02   0.25
    33   1    -0.12  -0.10   0.21    -0.07  -0.07   0.13     0.05   0.13  -0.20
    34   1    -0.06  -0.10   0.09    -0.04  -0.06   0.05     0.11   0.13  -0.16
    35   6     0.01   0.02  -0.01     0.02   0.02  -0.03     0.00   0.00  -0.00
    36   1     0.01  -0.02  -0.00     0.03   0.04  -0.04     0.00   0.00  -0.00
    37   1     0.04   0.03  -0.06     0.02   0.02  -0.02     0.00   0.00  -0.00
    38   1    -0.00  -0.02  -0.01     0.03   0.04  -0.04     0.00   0.00  -0.00
                     49                     50                     51
                      A                      A                      A
 Frequencies --   1011.0212              1016.4810              1062.9602
 Red. masses --      1.4812                 1.9066                 2.7704
 Frc consts  --      0.8920                 1.1607                 1.8443
 IR Inten    --      3.0681                 5.4584               150.4727
  Atom  AN      X      Y      Z        X      Y      Z        X      Y      Z
     1   6    -0.02   0.01  -0.02    -0.03   0.01  -0.01     0.01   0.04  -0.01
     2   6     0.01   0.05   0.01     0.01   0.11  -0.01    -0.00   0.09   0.02
     3   1     0.03   0.16  -0.01     0.09   0.35  -0.03     0.11   0.47  -0.02
     4   6     0.00  -0.02   0.03    -0.06  -0.07   0.05    -0.03  -0.05   0.03
     5   1     0.02   0.02  -0.02     0.05   0.14  -0.20     0.02   0.09  -0.13
     6   1     0.08  -0.05   0.08     0.34  -0.19   0.34     0.19  -0.10   0.21
     7   1     0.01   0.03  -0.01     0.00   0.22  -0.15     0.02   0.13  -0.06
     8   6     0.01  -0.01  -0.02     0.02  -0.00  -0.03    -0.00  -0.06  -0.01
     9   8     0.02  -0.01  -0.03     0.03  -0.02  -0.06     0.03  -0.02  -0.05
    10   8    -0.02  -0.02   0.03    -0.05  -0.02   0.07    -0.02  -0.19  -0.02
    11   6    -0.02  -0.03   0.03    -0.05  -0.08   0.06     0.05   0.26  -0.01
    12   1    -0.03  -0.06   0.05    -0.07  -0.16   0.11     0.09   0.34  -0.14
    13   1    -0.04  -0.06   0.04    -0.10  -0.16   0.09     0.16   0.33  -0.09
    14   5    -0.02  -0.00  -0.00     0.01   0.01  -0.00     0.01   0.01  -0.01
    15   8     0.00  -0.00  -0.02     0.03  -0.01   0.02     0.00   0.00  -0.00
    16   8    -0.01  -0.00   0.02     0.02   0.01  -0.01    -0.02  -0.01   0.01
    17   6     0.02  -0.01   0.01    -0.02   0.01  -0.00    -0.00  -0.00   0.00
    18   6     0.02   0.02  -0.01    -0.01  -0.01   0.00     0.01  -0.00   0.01
    19   6    -0.03  -0.05   0.06     0.01   0.02  -0.03    -0.00  -0.00  -0.00
    20   6     0.04   0.04  -0.05    -0.02  -0.01   0.03    -0.00   0.00  -0.00
    21   6    -0.03   0.04  -0.06     0.01  -0.02   0.03    -0.00   0.00  -0.00
    22   6     0.04  -0.02   0.06    -0.02   0.01  -0.03    -0.00   0.00  -0.00
    23   1     0.03   0.22  -0.00     0.01  -0.14  -0.02     0.00  -0.01  -0.00
    24   1     0.15  -0.26  -0.25    -0.06   0.12   0.12     0.00   0.00   0.00
    25   1    -0.06   0.24   0.02     0.03  -0.09   0.02    -0.00   0.01   0.01
    26   1    -0.13  -0.10  -0.02     0.08   0.04   0.05     0.00  -0.00   0.01
    27   1     0.11  -0.04   0.25    -0.05   0.00  -0.13     0.00  -0.00  -0.00
    28   1    -0.21  -0.04  -0.19     0.09   0.01   0.06    -0.00  -0.00  -0.01
    29   1     0.01   0.28   0.25     0.00  -0.13  -0.12     0.00   0.01   0.01
    30   1     0.01  -0.24  -0.02    -0.00   0.10  -0.01     0.00  -0.01  -0.00
    31   1     0.08  -0.21   0.01    -0.04   0.12   0.01     0.00  -0.01   0.00
    32   1    -0.24  -0.03   0.12     0.11   0.02  -0.05     0.01   0.00  -0.00
    33   1    -0.17   0.05   0.01     0.10  -0.02  -0.02     0.00  -0.00   0.00
    34   1     0.14   0.07  -0.22    -0.08  -0.03   0.12    -0.00  -0.00   0.01
    35   6     0.02   0.03  -0.03     0.05   0.08  -0.06    -0.05  -0.10   0.06
    36   1     0.03  -0.00  -0.03     0.07  -0.01  -0.07    -0.09   0.09   0.06
    37   1     0.07   0.04  -0.10     0.15   0.10  -0.22    -0.21  -0.13   0.31
    38   1     0.01   0.00  -0.04     0.02  -0.00  -0.09     0.01   0.08   0.12
                     52                     53                     54
                      A                      A                      A
 Frequencies --   1099.4706              1120.8961              1129.6690
 Red. masses --      4.0751                 2.3878                 2.2342
 Frc consts  --      2.9024                 1.7676                 1.6799
 IR Inten    --    419.6906                15.5701                 6.4144
  Atom  AN      X      Y      Z        X      Y      Z        X      Y      Z
     1   6     0.29  -0.05   0.12    -0.01   0.01  -0.02    -0.00   0.00   0.00
     2   6    -0.05  -0.01  -0.01    -0.00  -0.00   0.00     0.01  -0.02  -0.02
     3   1    -0.03  -0.37   0.10    -0.02  -0.07   0.01     0.00  -0.03  -0.02
     4   6    -0.19   0.02  -0.07     0.02  -0.00   0.01     0.00   0.00  -0.00
     5   1     0.06   0.22  -0.37     0.00  -0.01   0.03    -0.01  -0.00   0.00
     6   1     0.16  -0.10   0.10    -0.01   0.00  -0.01    -0.01   0.01  -0.00
     7   1    -0.10   0.41  -0.37     0.01  -0.03   0.02     0.00  -0.00   0.01
     8   6     0.02   0.04   0.00     0.00   0.00   0.00    -0.00   0.01   0.01
     9   8    -0.01   0.00   0.01    -0.00   0.00   0.00    -0.03   0.01   0.05
    10   8    -0.01  -0.00   0.01    -0.00   0.00   0.00     0.05  -0.01  -0.09
    11   6    -0.00  -0.01   0.00     0.00  -0.00  -0.00    -0.11   0.04   0.20
    12   1    -0.01  -0.05   0.01     0.00  -0.00  -0.00    -0.13  -0.01   0.20
    13   1    -0.01  -0.05   0.01     0.00  -0.00  -0.00    -0.13  -0.01   0.22
    14   5     0.20   0.04   0.02    -0.01   0.09  -0.10     0.00  -0.00  -0.00
    15   8    -0.14   0.05  -0.09     0.06  -0.02   0.03     0.00  -0.00   0.00
    16   8    -0.13  -0.10   0.06    -0.04  -0.03   0.01     0.00   0.00  -0.00
    17   6     0.06   0.01  -0.01    -0.13  -0.07   0.11     0.00  -0.00   0.00
    18   6     0.07  -0.00   0.04     0.12  -0.03   0.13     0.00  -0.00   0.00
    19   6    -0.01  -0.01   0.00     0.05   0.03  -0.05    -0.00   0.00  -0.00
    20   6     0.00   0.01  -0.01     0.06   0.06  -0.07    -0.00   0.00  -0.00
    21   6    -0.02   0.01  -0.01    -0.04   0.02  -0.06    -0.00   0.00  -0.00
    22   6    -0.01  -0.00  -0.00    -0.06   0.04  -0.08    -0.00   0.00  -0.00
    23   1     0.02   0.02  -0.01    -0.08  -0.16   0.05     0.00  -0.00  -0.00
    24   1     0.04  -0.02  -0.02    -0.13   0.16   0.12     0.00   0.00   0.00
    25   1    -0.01   0.04   0.01     0.07  -0.23  -0.03     0.00  -0.00   0.00
    26   1     0.00   0.00  -0.01    -0.19  -0.16   0.00    -0.00  -0.00   0.00
    27   1     0.01  -0.00   0.01     0.14  -0.05   0.28     0.00  -0.00   0.00
    28   1    -0.01  -0.01  -0.04    -0.29  -0.02  -0.19    -0.00  -0.00  -0.00
    29   1     0.04   0.06   0.04     0.06   0.19   0.14     0.00   0.00   0.00
    30   1     0.01  -0.08  -0.03     0.01  -0.25  -0.05     0.00  -0.00  -0.00
    31   1     0.04  -0.03   0.03     0.11  -0.12   0.07     0.00   0.00   0.00
    32   1     0.03   0.01   0.02     0.31   0.07  -0.12     0.00   0.00  -0.00
    33   1     0.04  -0.01   0.01     0.23  -0.09   0.04     0.00  -0.00  -0.00
    34   1    -0.02  -0.01   0.04    -0.18  -0.09   0.25    -0.00  -0.00   0.00
    35   6     0.00   0.01  -0.00    -0.00   0.00   0.00     0.08  -0.09  -0.16
    36   1     0.00  -0.01  -0.00    -0.00  -0.01   0.00     0.15   0.46  -0.27
    37   1     0.01   0.01  -0.02     0.00   0.00  -0.00    -0.21  -0.15   0.31
    38   1    -0.00  -0.00  -0.01    -0.00  -0.01   0.00     0.27   0.44  -0.19
                     55                     56                     57
                      A                      A                      A
 Frequencies --   1149.2562              1158.4546              1161.8813
 Red. masses --      2.0299                 2.0535                 1.5553
 Frc consts  --      1.5797                 1.6237                 1.2370
 IR Inten    --    382.2143               111.5356                 6.1981
  Atom  AN      X      Y      Z        X      Y      Z        X      Y      Z
     1   6     0.05  -0.05   0.13    -0.04  -0.02   0.05     0.00   0.00  -0.00
     2   6    -0.02  -0.03   0.00    -0.00  -0.02   0.01     0.00   0.00   0.00
     3   1     0.21   0.77  -0.09     0.13   0.53  -0.07    -0.01  -0.03   0.00
     4   6    -0.03   0.03  -0.06     0.02   0.02  -0.02     0.00  -0.00   0.00
     5   1    -0.06   0.05  -0.06    -0.06  -0.01   0.05     0.00  -0.00   0.00
     6   1    -0.10   0.08  -0.06    -0.10   0.07  -0.08     0.01  -0.00   0.00
     7   1    -0.01   0.05  -0.03     0.00  -0.06   0.04     0.00   0.00   0.00
     8   6    -0.04  -0.13   0.04    -0.03  -0.08   0.02     0.01   0.00   0.00
     9   8     0.01   0.00  -0.02     0.01   0.00  -0.01    -0.00   0.00  -0.00
    10   8     0.04   0.09  -0.04     0.02   0.06  -0.02    -0.05   0.00  -0.03
    11   6    -0.00  -0.04  -0.00     0.00  -0.03  -0.00     0.15  -0.02   0.09
    12   1     0.02   0.05  -0.01     0.01   0.02  -0.02    -0.01  -0.38  -0.37
    13   1     0.00   0.08  -0.01    -0.00   0.05  -0.00    -0.24   0.42   0.22
    14   5    -0.00  -0.01  -0.00     0.00  -0.01   0.00    -0.00   0.00  -0.00
    15   8    -0.00   0.02  -0.02    -0.03  -0.02   0.01     0.00   0.00   0.00
    16   8     0.01  -0.01   0.01    -0.02   0.02  -0.02     0.00  -0.00   0.00
    17   6    -0.09  -0.02   0.02     0.14   0.03  -0.03    -0.00  -0.00   0.00
    18   6    -0.07  -0.01  -0.02     0.14   0.01   0.06    -0.00  -0.00  -0.00
    19   6     0.05   0.02  -0.00    -0.07  -0.02  -0.00     0.00   0.00   0.00
    20   6     0.05  -0.00  -0.02    -0.07   0.00   0.02     0.00  -0.00  -0.00
    21   6     0.04  -0.00   0.00    -0.08   0.00  -0.02     0.00  -0.00   0.00
    22   6     0.03   0.02   0.01    -0.06  -0.02  -0.03     0.00   0.00   0.00
    23   1    -0.10   0.01   0.08     0.14  -0.02  -0.12    -0.00   0.00   0.00
    24   1    -0.10   0.03  -0.00     0.16  -0.05   0.01    -0.00   0.00  -0.00
    25   1     0.04  -0.16  -0.11    -0.06   0.23   0.16     0.00  -0.00  -0.00
    26   1    -0.12  -0.05  -0.06     0.15   0.07   0.08    -0.00  -0.00  -0.00
    27   1     0.07   0.02   0.17    -0.10  -0.04  -0.23     0.00   0.00   0.00
    28   1    -0.10   0.02   0.03     0.13  -0.03  -0.06    -0.00   0.00   0.00
    29   1    -0.08  -0.05  -0.01     0.15   0.10   0.03    -0.00  -0.00  -0.00
    30   1    -0.03   0.12   0.09     0.05  -0.25  -0.17    -0.00   0.00   0.00
    31   1    -0.06  -0.05  -0.08     0.11   0.06   0.15    -0.00  -0.00  -0.00
    32   1    -0.04  -0.03  -0.06     0.12   0.07   0.09    -0.00  -0.00  -0.00
    33   1    -0.10   0.01   0.03     0.20  -0.03  -0.05    -0.00   0.00   0.00
    34   1     0.08  -0.01  -0.11    -0.16  -0.00   0.22     0.00   0.00  -0.00
    35   6    -0.00  -0.00  -0.00    -0.00   0.00  -0.00    -0.10   0.02  -0.06
    36   1     0.02  -0.00  -0.01     0.02  -0.00  -0.01     0.29   0.07  -0.25
    37   1     0.00  -0.00   0.01     0.01  -0.00   0.01     0.22  -0.03   0.13
    38   1    -0.00  -0.00  -0.01    -0.01  -0.01   0.00    -0.11  -0.10   0.37
                     58                     59                     60
                      A                      A                      A
 Frequencies --   1179.8946              1231.4808              1234.3623
 Red. masses --      2.7159                 3.2236                 5.1000
 Frc consts  --      2.2276                 2.8803                 4.5783
 IR Inten    --     55.6502                14.5969               295.9183
  Atom  AN      X      Y      Z        X      Y      Z        X      Y      Z
     1   6    -0.00  -0.00   0.00     0.01   0.06  -0.06    -0.06  -0.25   0.26
     2   6     0.00   0.00  -0.00    -0.02  -0.01   0.03     0.08   0.03  -0.12
     3   1    -0.00  -0.01  -0.00    -0.04  -0.07   0.04     0.17   0.29  -0.16
     4   6     0.00   0.00  -0.00     0.00  -0.02   0.03    -0.01   0.10  -0.12
     5   1    -0.00  -0.00   0.00     0.03   0.02  -0.03    -0.13  -0.09   0.13
     6   1    -0.00   0.00  -0.00     0.06  -0.04   0.06    -0.23   0.18  -0.24
     7   1    -0.00  -0.00   0.00     0.01   0.03  -0.01    -0.06  -0.16   0.05
     8   6     0.00   0.01  -0.00    -0.03  -0.07   0.02     0.11   0.29  -0.09
     9   8    -0.00  -0.00   0.00     0.00   0.01  -0.00    -0.01  -0.03   0.00
    10   8    -0.00  -0.00   0.00     0.02   0.04  -0.02    -0.07  -0.14   0.07
    11   6     0.00   0.00   0.00    -0.00  -0.02   0.00     0.02   0.07  -0.00
    12   1    -0.00  -0.00   0.00     0.02   0.06  -0.01    -0.08  -0.24   0.03
    13   1    -0.00  -0.00   0.00     0.01   0.06  -0.01    -0.06  -0.26   0.06
    14   5    -0.00  -0.00   0.01     0.02   0.02  -0.02    -0.06  -0.06   0.05
    15   8     0.01  -0.02  -0.02     0.01  -0.02   0.03    -0.01   0.01  -0.00
    16   8     0.00  -0.02  -0.02    -0.02  -0.03   0.04     0.05   0.04  -0.02
    17   6    -0.05   0.20   0.12    -0.19   0.02  -0.18    -0.10  -0.01  -0.07
    18   6    -0.03   0.20   0.12     0.21   0.08  -0.15     0.09   0.02  -0.04
    19   6     0.01  -0.10  -0.00     0.07   0.00   0.07     0.04   0.01   0.02
    20   6     0.04  -0.08  -0.06     0.05  -0.03   0.05     0.03  -0.00   0.01
    21   6     0.02  -0.10  -0.00    -0.08  -0.02   0.06    -0.04  -0.00   0.01
    22   6    -0.00  -0.09  -0.06    -0.05  -0.05   0.04    -0.03  -0.01   0.00
    23   1     0.10   0.00  -0.07    -0.14   0.23   0.15    -0.09   0.08   0.08
    24   1     0.14  -0.24  -0.19    -0.17  -0.11  -0.17    -0.10  -0.01  -0.05
    25   1    -0.00  -0.01  -0.09    -0.00  -0.05  -0.25     0.01  -0.05  -0.11
    26   1    -0.22   0.04  -0.36     0.08   0.02   0.04     0.01  -0.02   0.03
    27   1    -0.03   0.20   0.07     0.05   0.09   0.20     0.04   0.03   0.12
    28   1    -0.08   0.08   0.23     0.11   0.08   0.27     0.00   0.03   0.09
    29   1    -0.02  -0.26  -0.21     0.23  -0.05  -0.13     0.10   0.02  -0.03
    30   1     0.03  -0.01  -0.09     0.07  -0.03  -0.25     0.02  -0.06  -0.10
    31   1    -0.08  -0.03  -0.09     0.03   0.26   0.17     0.04   0.09   0.09
    32   1     0.01   0.09   0.24    -0.18   0.04   0.25    -0.02   0.03   0.08
    33   1     0.27   0.12  -0.30    -0.09  -0.01   0.02    -0.00  -0.02   0.02
    34   1    -0.05   0.20   0.07    -0.11   0.07   0.18    -0.08   0.01   0.12
    35   6    -0.00  -0.00  -0.00    -0.00   0.00   0.00     0.00  -0.01  -0.01
    36   1    -0.00   0.00   0.00     0.01  -0.01  -0.00    -0.03   0.03   0.01
    37   1     0.00  -0.00   0.00     0.00   0.00  -0.00    -0.01  -0.01   0.01
    38   1     0.00   0.00   0.00    -0.00  -0.00  -0.01     0.01   0.02   0.05
                     61                     62                     63
                      A                      A                      A
 Frequencies --   1267.1638              1277.9960              1288.0428
 Red. masses --      3.1816                 1.1034                 3.0950
 Frc consts  --      3.0100                 1.0618                 3.0253
 IR Inten    --      0.8053                 1.4206                42.3784
  Atom  AN      X      Y      Z        X      Y      Z        X      Y      Z
     1   6    -0.01  -0.00   0.00     0.00  -0.00   0.00    -0.05  -0.00  -0.01
     2   6     0.00   0.00  -0.00     0.00   0.00   0.00     0.00  -0.01   0.00
     3   1     0.00   0.00  -0.00    -0.00  -0.00  -0.00     0.01   0.07  -0.02
     4   6     0.00  -0.00   0.00    -0.00   0.00  -0.00     0.02  -0.00   0.01
     5   1    -0.00   0.00   0.00     0.00  -0.00   0.00    -0.05  -0.00   0.04
     6   1    -0.00   0.00  -0.00     0.00   0.00   0.00    -0.02   0.01  -0.02
     7   1     0.00  -0.00   0.00     0.00  -0.00   0.00    -0.02  -0.05  -0.01
     8   6     0.00   0.00  -0.00     0.00   0.00   0.00     0.00   0.01  -0.00
     9   8    -0.00  -0.00   0.00    -0.00   0.00  -0.00     0.00  -0.00  -0.00
    10   8    -0.00  -0.00   0.00    -0.03   0.00  -0.02    -0.00   0.00   0.00
    11   6     0.00   0.00  -0.00    -0.01   0.00  -0.01     0.00   0.00  -0.00
    12   1    -0.00  -0.00   0.00    -0.21  -0.60   0.17    -0.01  -0.03   0.01
    13   1    -0.00  -0.00   0.00     0.19   0.61  -0.18    -0.00  -0.01   0.00
    14   5     0.00  -0.00   0.00    -0.00  -0.00  -0.00     0.05   0.01   0.01
    15   8    -0.00  -0.02  -0.01     0.00  -0.00   0.00    -0.03   0.03  -0.04
    16   8    -0.01   0.02   0.01     0.00   0.00  -0.00    -0.02  -0.03   0.03
    17   6    -0.01   0.22   0.20    -0.00   0.00  -0.00     0.08  -0.17   0.20
    18   6     0.09  -0.21  -0.19    -0.00  -0.00   0.00     0.06   0.19  -0.18
    19   6    -0.01  -0.04  -0.05     0.00  -0.00   0.00    -0.02   0.06  -0.07
    20   6     0.02  -0.07  -0.04    -0.00  -0.00   0.00    -0.01   0.07  -0.05
    21   6    -0.03   0.03   0.04    -0.00   0.00  -0.00    -0.02  -0.07   0.06
    22   6    -0.01   0.08   0.04    -0.00   0.00  -0.00     0.00  -0.07   0.05
    23   1     0.17  -0.21  -0.14     0.00   0.00  -0.00    -0.03  -0.27  -0.02
    24   1     0.17  -0.11  -0.10    -0.00  -0.00  -0.00     0.06   0.16   0.15
    25   1     0.02  -0.13  -0.02    -0.00   0.00  -0.00     0.06  -0.17   0.23
    26   1    -0.18   0.08  -0.33     0.00   0.00  -0.00    -0.15  -0.14   0.07
    27   1    -0.09   0.22  -0.11    -0.00   0.00   0.00     0.06  -0.20  -0.07
    28   1    -0.14  -0.00   0.07     0.00   0.00   0.00    -0.16  -0.06  -0.27
    29   1     0.10   0.15   0.14    -0.00   0.00   0.00     0.13  -0.13  -0.12
    30   1    -0.03   0.13   0.02    -0.00  -0.00   0.00     0.05   0.18  -0.21
    31   1     0.07   0.25   0.16     0.00  -0.00   0.00    -0.11   0.25   0.01
    32   1    -0.12  -0.04  -0.10     0.00   0.00  -0.00    -0.21   0.01   0.23
    33   1    -0.21  -0.13   0.29     0.00  -0.00   0.00    -0.17   0.09  -0.10
    34   1    -0.05  -0.24   0.10    -0.00  -0.00  -0.00    -0.02   0.20   0.07
    35   6    -0.00  -0.00  -0.00     0.07  -0.01   0.04     0.00  -0.00  -0.00
    36   1    -0.00   0.00  -0.00    -0.17  -0.04   0.16    -0.01  -0.00   0.00
    37   1     0.00  -0.00   0.00    -0.10   0.02  -0.06    -0.00  -0.00   0.00
    38   1    -0.00   0.00   0.00     0.08   0.06  -0.21     0.00   0.00   0.00
                     64                     65                     66
                      A                      A                      A
 Frequencies --   1325.4988              1348.8955              1363.4048
 Red. masses --      5.6169                 1.4811                 1.3976
 Frc consts  --      5.8144                 1.5878                 1.5307
 IR Inten    --    405.9013                42.9779                54.4534
  Atom  AN      X      Y      Z        X      Y      Z        X      Y      Z
     1   6     0.01   0.04  -0.06     0.05  -0.03   0.03     0.01  -0.05   0.05
     2   6     0.02   0.07   0.00     0.01   0.04  -0.01     0.03   0.08  -0.03
     3   1    -0.08  -0.22   0.04    -0.02  -0.11   0.02    -0.04  -0.21   0.01
     4   6    -0.05   0.00  -0.02    -0.09   0.05  -0.10     0.02  -0.00   0.02
     5   1     0.17  -0.15   0.04     0.43  -0.42   0.15    -0.17   0.17  -0.07
     6   1     0.20  -0.08   0.16     0.29  -0.03   0.24    -0.12   0.01  -0.13
     7   1     0.07   0.02   0.21     0.25   0.07   0.55    -0.11  -0.04  -0.21
     8   6    -0.03  -0.07   0.03    -0.01  -0.02   0.01    -0.01  -0.01   0.01
     9   8     0.00   0.01  -0.01     0.00   0.00  -0.00     0.00   0.00  -0.00
    10   8     0.01   0.01  -0.02     0.00  -0.00  -0.01     0.01  -0.03  -0.02
    11   6    -0.01  -0.03   0.02    -0.01  -0.02   0.01    -0.05  -0.08   0.05
    12   1     0.05   0.18  -0.05     0.03   0.12  -0.04     0.12   0.45  -0.20
    13   1     0.06   0.17  -0.04     0.05   0.11  -0.03     0.22   0.42  -0.14
    14   5     0.01  -0.35   0.39    -0.10   0.03  -0.06    -0.05   0.01  -0.02
    15   8    -0.09   0.11  -0.15     0.02  -0.02   0.03     0.01  -0.01   0.01
    16   8     0.08   0.13  -0.12     0.01  -0.00   0.01     0.01   0.00   0.00
    17   6    -0.08  -0.05   0.04     0.03  -0.00   0.01     0.01  -0.00   0.00
    18   6     0.09  -0.02   0.06     0.00   0.02  -0.02     0.00   0.01  -0.01
    19   6     0.04   0.01  -0.03    -0.01   0.00  -0.00    -0.00   0.00  -0.00
    20   6     0.05   0.03  -0.02    -0.01   0.00   0.00    -0.00   0.00   0.00
    21   6    -0.04  -0.00  -0.04    -0.00  -0.00   0.01    -0.00  -0.00   0.00
    22   6    -0.06   0.01  -0.03     0.00  -0.01   0.00     0.00  -0.00   0.00
    23   1    -0.15  -0.02   0.09     0.02  -0.01  -0.02     0.01  -0.01  -0.01
    24   1    -0.09   0.07   0.04     0.04  -0.00   0.00     0.01  -0.00  -0.00
    25   1     0.06  -0.09   0.04    -0.00  -0.01   0.02    -0.00  -0.00   0.01
    26   1    -0.13  -0.12   0.02     0.00   0.01  -0.00    -0.00   0.00  -0.00
    27   1     0.07  -0.01   0.08    -0.01  -0.02  -0.03    -0.00  -0.01  -0.01
    28   1    -0.18   0.02  -0.03     0.02  -0.01  -0.02     0.01  -0.00  -0.01
    29   1     0.06   0.09   0.06     0.02  -0.01  -0.01     0.01  -0.00  -0.01
    30   1    -0.04  -0.10   0.02     0.01   0.02  -0.03     0.01   0.00  -0.01
    31   1     0.13   0.02   0.12    -0.02   0.00  -0.01    -0.01   0.00  -0.00
    32   1     0.17   0.07   0.01    -0.03  -0.00   0.02    -0.01   0.00   0.01
    33   1     0.15  -0.08   0.05    -0.03   0.01  -0.01    -0.02   0.00  -0.00
    34   1    -0.08  -0.03   0.07    -0.00   0.02   0.02    -0.00   0.01   0.01
    35   6    -0.00   0.01   0.01    -0.01   0.00   0.01    -0.03   0.00   0.06
    36   1     0.04  -0.00  -0.02     0.04   0.01  -0.02     0.23   0.09  -0.10
    37   1     0.03   0.02  -0.04     0.03   0.01  -0.05     0.18   0.06  -0.28
    38   1    -0.00   0.01  -0.05    -0.00   0.02  -0.04     0.01   0.13  -0.24
                     67                     68                     69
                      A                      A                      A
 Frequencies --   1384.0665              1384.3477              1387.8645
 Red. masses --      1.4209                 1.2916                 2.0882
 Frc consts  --      1.6037                 1.4584                 2.3698
 IR Inten    --     23.5107                27.2119               295.1916
  Atom  AN      X      Y      Z        X      Y      Z        X      Y      Z
     1   6     0.02  -0.00   0.01    -0.00  -0.00   0.00    -0.11   0.02  -0.05
     2   6     0.00   0.01  -0.00    -0.00  -0.00   0.00    -0.02  -0.10   0.02
     3   1    -0.01  -0.04   0.01     0.00   0.01  -0.00     0.06   0.27  -0.04
     4   6    -0.00  -0.00   0.01    -0.00   0.00  -0.00     0.01   0.01  -0.03
     5   1    -0.01   0.04  -0.04     0.00  -0.01   0.00     0.03  -0.24   0.21
     6   1    -0.03  -0.00  -0.03     0.00   0.00   0.00     0.17   0.03   0.20
     7   1    -0.01   0.02  -0.04     0.00   0.00   0.01     0.05  -0.10   0.20
     8   6    -0.00  -0.01   0.00     0.00   0.00  -0.00     0.02   0.08  -0.01
     9   8    -0.00   0.00   0.00    -0.00  -0.00  -0.00     0.00  -0.01  -0.00
    10   8     0.00   0.00  -0.00    -0.00  -0.00   0.00    -0.00  -0.01   0.01
    11   6     0.00   0.00  -0.00    -0.00  -0.00   0.00    -0.00  -0.01   0.00
    12   1    -0.01  -0.02   0.02     0.00   0.00  -0.00     0.02   0.05  -0.10
    13   1    -0.02  -0.02   0.01     0.00   0.00  -0.00     0.09   0.04  -0.06
    14   5    -0.04  -0.01  -0.00     0.00   0.01  -0.01     0.21   0.04   0.02
    15   8     0.01  -0.00   0.01     0.00  -0.00   0.00    -0.03   0.01  -0.02
    16   8     0.01   0.00  -0.01    -0.00  -0.00   0.00    -0.03  -0.03   0.02
    17   6     0.00  -0.02  -0.05     0.01   0.02   0.03    -0.02   0.01  -0.03
    18   6    -0.02   0.03   0.05    -0.01   0.01   0.01    -0.03  -0.01   0.03
    19   6    -0.02   0.06   0.05     0.03  -0.08  -0.06     0.00   0.02   0.02
    20   6     0.02   0.01   0.06    -0.03  -0.01  -0.06     0.01  -0.00   0.01
    21   6     0.01  -0.09  -0.07     0.00  -0.07  -0.04     0.01  -0.02  -0.02
    22   6     0.05  -0.00  -0.06     0.03   0.00  -0.03     0.01   0.01  -0.01
    23   1     0.14  -0.19  -0.03    -0.22   0.28   0.06     0.06  -0.07  -0.01
    24   1     0.09  -0.14  -0.22    -0.17   0.18   0.29    -0.01  -0.06  -0.10
    25   1    -0.03  -0.22  -0.14     0.03   0.38   0.19    -0.02  -0.06  -0.10
    26   1    -0.14   0.05  -0.10     0.20  -0.02   0.11     0.00   0.02  -0.02
    27   1    -0.01  -0.04  -0.21     0.02   0.02   0.27    -0.00   0.03  -0.01
    28   1    -0.06  -0.10  -0.16     0.12   0.09   0.14    -0.01  -0.01  -0.00
    29   1     0.02   0.21   0.33     0.05   0.15   0.23    -0.05   0.05   0.10
    30   1    -0.17   0.30   0.17    -0.13   0.27   0.12    -0.06   0.06   0.10
    31   1     0.11   0.32   0.08     0.08   0.25   0.07     0.03   0.09   0.02
    32   1    -0.16   0.08   0.16    -0.13   0.02   0.06    -0.02   0.00  -0.00
    33   1    -0.19  -0.11   0.09    -0.16  -0.05   0.05     0.00  -0.02   0.01
    34   1    -0.09   0.03   0.27    -0.06  -0.00   0.20     0.01  -0.03   0.01
    35   6     0.01   0.01  -0.01    -0.00  -0.00   0.00    -0.05  -0.05   0.08
    36   1    -0.04  -0.03   0.02     0.01   0.01  -0.00     0.25   0.24  -0.13
    37   1    -0.04  -0.01   0.06     0.01   0.00  -0.01     0.24   0.04  -0.39
    38   1    -0.01  -0.04   0.04     0.00   0.01  -0.01     0.06   0.27  -0.25
                     70                     71                     72
                      A                      A                      A
 Frequencies --   1393.1952              1400.8638              1402.4718
 Red. masses --      1.2796                 1.6557                 1.2991
 Frc consts  --      1.4634                 1.9144                 1.5055
 IR Inten    --     24.1120                72.5304                 0.4283
  Atom  AN      X      Y      Z        X      Y      Z        X      Y      Z
     1   6    -0.01  -0.00  -0.00    -0.09  -0.04   0.01     0.03   0.01  -0.00
     2   6     0.00   0.00  -0.00     0.03   0.05  -0.02    -0.01  -0.01   0.00
     3   1    -0.00  -0.01   0.00    -0.02  -0.07  -0.01     0.00   0.00   0.00
     4   6     0.00   0.00   0.00     0.01   0.03  -0.02    -0.00  -0.01   0.01
     5   1    -0.01  -0.00   0.01    -0.13  -0.11   0.17     0.04   0.05  -0.07
     6   1     0.01  -0.00   0.01     0.15   0.00   0.12    -0.06  -0.00  -0.05
     7   1    -0.01  -0.01   0.00    -0.07  -0.19   0.05     0.02   0.06  -0.02
     8   6    -0.00  -0.00   0.00    -0.01  -0.01   0.01     0.00  -0.00  -0.00
     9   8     0.00   0.00  -0.00     0.00   0.00  -0.00    -0.00   0.00   0.00
    10   8     0.00   0.00  -0.00     0.01  -0.01  -0.01    -0.00   0.00   0.00
    11   6    -0.00  -0.00   0.00    -0.04  -0.06   0.05     0.01   0.02  -0.02
    12   1     0.00   0.00   0.00     0.06   0.26  -0.09    -0.02  -0.08   0.03
    13   1    -0.00   0.01   0.00     0.11   0.24  -0.06    -0.04  -0.08   0.02
    14   5     0.01  -0.01   0.01     0.13   0.04  -0.00    -0.05  -0.01  -0.00
    15   8    -0.00   0.01  -0.01    -0.02   0.00  -0.01     0.01  -0.00   0.00
    16   8    -0.00   0.00  -0.01    -0.02  -0.02   0.01     0.01   0.01  -0.00
    17   6     0.01  -0.01   0.02    -0.01   0.01  -0.01     0.01  -0.01   0.01
    18   6    -0.02  -0.01   0.02    -0.01  -0.01   0.00     0.01   0.01  -0.01
    19   6    -0.02   0.05   0.02    -0.00   0.01   0.01    -0.03   0.04   0.02
    20   6    -0.05  -0.00  -0.08    -0.01  -0.01  -0.02    -0.05  -0.01  -0.07
    21   6     0.01   0.05   0.02     0.01  -0.02  -0.02    -0.01  -0.05  -0.03
    22   6     0.06   0.02  -0.06    -0.02   0.00   0.03    -0.06  -0.01   0.06
    23   1     0.09  -0.16  -0.03     0.06  -0.05  -0.02     0.11  -0.13  -0.04
    24   1     0.16  -0.10  -0.16     0.02  -0.04  -0.07     0.18  -0.09  -0.13
    25   1     0.00  -0.24  -0.02    -0.01  -0.07  -0.07    -0.01  -0.26  -0.05
    26   1     0.24  -0.05   0.17     0.10   0.00   0.05     0.25  -0.03   0.16
    27   1     0.06  -0.07   0.38     0.01   0.03   0.13     0.04  -0.02   0.35
    28   1     0.24   0.14   0.19     0.05   0.04   0.06     0.19   0.11   0.17
    29   1    -0.09  -0.12  -0.17     0.00   0.06   0.10     0.11   0.14   0.17
    30   1     0.07  -0.21  -0.01    -0.05   0.10   0.06    -0.09   0.25   0.05
    31   1    -0.03  -0.16  -0.04     0.03   0.10   0.02     0.06   0.16   0.06
    32   1    -0.30   0.05   0.13     0.10  -0.03  -0.08     0.25  -0.05  -0.12
    33   1    -0.23  -0.12   0.12     0.12   0.05  -0.05     0.25   0.10  -0.11
    34   1    -0.11  -0.10   0.35     0.06  -0.00  -0.16     0.10   0.05  -0.33
    35   6     0.00   0.00  -0.00     0.06   0.08  -0.07    -0.02  -0.02   0.02
    36   1    -0.01  -0.01   0.01    -0.17  -0.32   0.10     0.04   0.09  -0.03
    37   1    -0.01  -0.00   0.02    -0.23  -0.01   0.38     0.06   0.00  -0.10
    38   1    -0.00  -0.02   0.01    -0.09  -0.33   0.15     0.02   0.09  -0.04
                     73                     74                     75
                      A                      A                      A
 Frequencies --   1422.4596              1432.1719              1439.2009
 Red. masses --      1.9269                 1.0584                 1.0534
 Frc consts  --      2.2972                 1.2790                 1.2855
 IR Inten    --     28.3847                14.9088                 0.0369
  Atom  AN      X      Y      Z        X      Y      Z        X      Y      Z
     1   6    -0.04  -0.07   0.04     0.02  -0.01  -0.01    -0.00  -0.00   0.00
     2   6     0.05   0.16  -0.04     0.00   0.02   0.00     0.00   0.00  -0.00
     3   1    -0.08  -0.30   0.03    -0.02  -0.06   0.01    -0.00  -0.00   0.00
     4   6     0.01   0.05  -0.03     0.02  -0.04  -0.03     0.00  -0.00   0.00
     5   1    -0.30   0.00   0.15    -0.24  -0.28   0.35     0.01  -0.00  -0.00
     6   1     0.32  -0.14   0.08    -0.19   0.48   0.49    -0.01   0.01  -0.00
     7   1    -0.23  -0.42  -0.01     0.05   0.33  -0.34     0.01   0.01  -0.00
     8   6    -0.04  -0.14   0.03    -0.00  -0.01   0.00    -0.00  -0.00   0.00
     9   8     0.01   0.02  -0.01     0.00   0.00  -0.00     0.00   0.00   0.00
    10   8     0.01   0.03  -0.00     0.00   0.00  -0.00     0.00   0.00  -0.00
    11   6     0.05   0.06  -0.06     0.00   0.01  -0.01     0.00   0.00  -0.00
    12   1    -0.04  -0.25   0.24    -0.00  -0.02   0.03    -0.00  -0.00   0.00
    13   1    -0.24  -0.21   0.12    -0.03  -0.02   0.01    -0.00  -0.00   0.00
    14   5     0.05   0.02  -0.01    -0.02  -0.00  -0.00     0.00   0.00  -0.00
    15   8    -0.01  -0.00  -0.00     0.00  -0.00   0.00    -0.00  -0.00  -0.00
    16   8    -0.01  -0.01   0.01     0.00   0.00  -0.00    -0.00   0.00   0.00
    17   6    -0.00   0.00  -0.00     0.00  -0.00   0.00     0.00   0.02   0.02
    18   6    -0.01  -0.00   0.00     0.00   0.00  -0.00     0.01  -0.02  -0.02
    19   6     0.00  -0.00   0.00    -0.00   0.00  -0.00    -0.00  -0.01   0.02
    20   6     0.00  -0.00   0.00    -0.00   0.00  -0.00    -0.00   0.02  -0.01
    21   6     0.00  -0.00  -0.00    -0.00  -0.00   0.00    -0.00   0.01  -0.02
    22   6     0.00   0.00   0.00    -0.00  -0.00   0.00     0.00  -0.03   0.01
    23   1     0.01  -0.00  -0.00    -0.00   0.00   0.00     0.24   0.01  -0.13
    24   1    -0.03   0.00  -0.00     0.01   0.00   0.00    -0.15   0.06   0.09
    25   1    -0.01   0.02  -0.02     0.00  -0.01   0.01    -0.08   0.11  -0.30
    26   1     0.01   0.01  -0.01     0.00  -0.00   0.00    -0.24  -0.18   0.04
    27   1    -0.00   0.01  -0.00    -0.00  -0.00  -0.00     0.09  -0.33  -0.07
    28   1    -0.00  -0.01  -0.01    -0.00   0.00   0.00     0.18   0.10   0.15
    29   1    -0.02  -0.00   0.01     0.01   0.00  -0.00    -0.11  -0.10  -0.11
    30   1    -0.00  -0.00   0.01     0.00   0.01  -0.01    -0.10  -0.14   0.27
    31   1    -0.01   0.01  -0.01     0.00  -0.01   0.00     0.19   0.06   0.17
    32   1    -0.01  -0.01  -0.02     0.00   0.00   0.00     0.24  -0.03  -0.10
    33   1     0.00   0.01  -0.01     0.00   0.00  -0.00    -0.28   0.10  -0.09
    34   1     0.00  -0.01  -0.00    -0.00   0.00   0.00    -0.03   0.36   0.08
    35   6    -0.03  -0.05   0.03    -0.00  -0.00   0.00    -0.00  -0.00   0.00
    36   1    -0.01   0.20  -0.01    -0.00   0.02   0.00    -0.00   0.00   0.00
    37   1     0.09  -0.02  -0.16     0.01  -0.00  -0.01     0.00  -0.00  -0.00
    38   1     0.06   0.18   0.03     0.01   0.01   0.01     0.00   0.00   0.00
                     76                     77                     78
                      A                      A                      A
 Frequencies --   1444.8661              1445.8522              1445.9784
 Red. masses --      1.0499                 1.0658                 1.0368
 Frc consts  --      1.2913                 1.3128                 1.2773
 IR Inten    --      2.9665                 2.5363                 8.5091
  Atom  AN      X      Y      Z        X      Y      Z        X      Y      Z
     1   6    -0.00  -0.00   0.00    -0.02  -0.01   0.00    -0.00  -0.00   0.00
     2   6     0.00   0.00  -0.00     0.01   0.02  -0.01     0.00   0.00  -0.00
     3   1    -0.00  -0.00   0.00    -0.01  -0.03  -0.00    -0.00  -0.00   0.00
     4   6     0.00  -0.00   0.00     0.00  -0.01   0.01     0.00  -0.00   0.00
     5   1     0.01  -0.00  -0.00     0.10  -0.01  -0.04     0.00  -0.00  -0.00
     6   1    -0.01   0.00  -0.01    -0.11   0.04  -0.06    -0.00   0.00  -0.00
     7   1     0.01   0.01   0.00     0.07   0.11   0.03     0.00   0.00   0.00
     8   6    -0.00  -0.00   0.00    -0.00  -0.01   0.00     0.00  -0.00   0.00
     9   8     0.00   0.00  -0.00     0.00   0.00  -0.00     0.00   0.00   0.00
    10   8     0.00   0.00  -0.00     0.00   0.00  -0.00     0.00  -0.00   0.00
    11   6     0.00   0.00  -0.00     0.00   0.00  -0.00    -0.02   0.00  -0.01
    12   1     0.00  -0.00   0.00     0.00  -0.01   0.02    -0.02   0.00   0.04
    13   1    -0.00  -0.00   0.00    -0.02  -0.00   0.01     0.03  -0.00  -0.04
    14   5     0.00   0.00  -0.00     0.02   0.00   0.00     0.00  -0.00   0.00
    15   8    -0.00   0.00   0.00    -0.00  -0.00  -0.00    -0.00  -0.00  -0.00
    16   8    -0.00   0.00   0.00    -0.00  -0.00   0.00    -0.00   0.00   0.00
    17   6     0.01  -0.01   0.00    -0.00   0.02   0.01    -0.00   0.00   0.00
    18   6    -0.01  -0.02  -0.00     0.01  -0.01  -0.01     0.00  -0.00  -0.00
    19   6     0.01   0.02  -0.01     0.03   0.00  -0.00     0.00   0.00  -0.00
    20   6    -0.00  -0.03  -0.00    -0.02   0.01   0.01    -0.00   0.00   0.00
    21   6    -0.00   0.02  -0.00     0.03  -0.00   0.01     0.00  -0.00   0.00
    22   6     0.00  -0.03  -0.01    -0.02   0.00  -0.01    -0.00  -0.00  -0.00
    23   1    -0.16  -0.23   0.12    -0.11  -0.22   0.09    -0.00  -0.01   0.00
    24   1    -0.12  -0.09  -0.20    -0.24  -0.06  -0.17    -0.01  -0.00  -0.01
    25   1     0.03   0.07   0.15     0.01   0.18   0.04     0.00   0.01   0.00
    26   1     0.29   0.16  -0.01    -0.08   0.13  -0.17    -0.00   0.01  -0.01
    27   1    -0.10   0.38   0.09     0.08  -0.25   0.13     0.00  -0.01   0.01
    28   1    -0.21  -0.07  -0.10     0.33  -0.06  -0.14     0.01  -0.00  -0.01
    29   1     0.03  -0.04  -0.08    -0.32   0.01   0.18    -0.01   0.00   0.01
    30   1    -0.03  -0.03   0.09     0.10  -0.17  -0.10     0.00  -0.01  -0.00
    31   1     0.09  -0.07   0.07    -0.23   0.24  -0.18    -0.01   0.01  -0.01
    32   1     0.34   0.07   0.06     0.11   0.13   0.19     0.00   0.01   0.01
    33   1    -0.31  -0.02   0.03     0.09  -0.16   0.16     0.00  -0.01   0.01
    34   1    -0.01   0.47   0.03     0.04   0.04  -0.15     0.00   0.00  -0.01
    35   6    -0.00  -0.00   0.00     0.00  -0.00   0.00    -0.04   0.01  -0.02
    36   1    -0.00   0.00   0.00    -0.00   0.03  -0.00    -0.08  -0.49   0.09
    37   1     0.00  -0.00  -0.00    -0.02   0.00  -0.02     0.59  -0.09   0.36
    38   1     0.00   0.00   0.00    -0.00  -0.01   0.01     0.15   0.48  -0.04
                     79                     80                     81
                      A                      A                      A
 Frequencies --   1448.0375              1452.8489              1458.2438
 Red. masses --      1.4343                 1.0578                 1.0567
 Frc consts  --      1.7720                 1.3155                 1.3239
 IR Inten    --     65.1985                 5.1836                 1.1869
  Atom  AN      X      Y      Z        X      Y      Z        X      Y      Z
     1   6     0.10   0.06  -0.01    -0.01  -0.01   0.00    -0.00  -0.00   0.00
     2   6    -0.04  -0.08   0.03     0.00   0.01  -0.00     0.00   0.01  -0.00
     3   1     0.04   0.13   0.00    -0.00  -0.01  -0.00    -0.00  -0.01   0.00
     4   6    -0.00   0.04  -0.03     0.00  -0.00   0.00     0.00  -0.00   0.00
     5   1    -0.44   0.02   0.18     0.02  -0.00  -0.01     0.01  -0.00  -0.00
     6   1     0.45  -0.14   0.26    -0.02   0.01  -0.01    -0.01   0.00  -0.00
     7   1    -0.30  -0.42  -0.13     0.01   0.02   0.01     0.01   0.01   0.00
     8   6     0.02   0.05  -0.01    -0.00  -0.00   0.00    -0.00  -0.01   0.00
     9   8    -0.00  -0.01   0.00     0.00   0.00  -0.00     0.00   0.00  -0.00
    10   8    -0.00  -0.01   0.00     0.00   0.00  -0.00     0.00   0.01   0.00
    11   6    -0.01  -0.01   0.02     0.00   0.00  -0.00    -0.02  -0.02   0.03
    12   1    -0.00   0.02  -0.10     0.00  -0.00   0.01    -0.05  -0.05  -0.35
    13   1     0.10   0.01  -0.04    -0.01   0.00   0.00     0.31  -0.11  -0.13
    14   5    -0.09  -0.02  -0.01     0.01   0.01  -0.01     0.00   0.00  -0.00
    15   8     0.01  -0.00   0.01     0.00  -0.00   0.01    -0.00   0.00  -0.00
    16   8     0.01   0.01  -0.01    -0.00  -0.00   0.01    -0.00  -0.00   0.00
    17   6     0.00   0.01   0.01    -0.01   0.01  -0.02    -0.00  -0.00  -0.00
    18   6     0.01  -0.00  -0.01     0.01   0.01  -0.02    -0.00   0.00  -0.00
    19   6     0.00   0.00  -0.01    -0.02   0.00  -0.03    -0.00   0.00   0.00
    20   6    -0.01   0.01   0.00     0.02  -0.00  -0.00     0.00  -0.00  -0.00
    21   6     0.00  -0.00   0.00     0.02   0.01  -0.02     0.00   0.00  -0.00
    22   6    -0.01  -0.01  -0.01    -0.01  -0.00  -0.00     0.00   0.00   0.00
    23   1    -0.07  -0.03   0.04    -0.19   0.22   0.06     0.00   0.00  -0.00
    24   1     0.01  -0.02  -0.04     0.37  -0.01   0.06    -0.00   0.00   0.00
    25   1     0.02   0.01   0.08     0.08  -0.25   0.31    -0.00   0.00  -0.00
    26   1    -0.05   0.03  -0.06    -0.05  -0.14   0.11     0.00  -0.00   0.00
    27   1     0.04  -0.13   0.03    -0.02   0.04  -0.13    -0.00   0.00  -0.00
    28   1     0.14  -0.01  -0.04    -0.13   0.07   0.14    -0.00   0.00   0.00
    29   1    -0.06   0.01   0.04    -0.37  -0.12  -0.01    -0.00  -0.00   0.00
    30   1     0.03  -0.04  -0.04    -0.07  -0.28   0.30    -0.00  -0.00   0.00
    31   1    -0.06   0.05  -0.04     0.10   0.27   0.09    -0.00   0.00  -0.00
    32   1     0.09   0.06   0.09     0.07   0.10   0.16    -0.00  -0.00  -0.00
    33   1    -0.01  -0.07   0.07     0.07  -0.12   0.12     0.00   0.00  -0.00
    34   1     0.01   0.09  -0.05     0.04   0.03  -0.12     0.00  -0.00  -0.00
    35   6     0.00   0.01  -0.00    -0.00  -0.00   0.00     0.02  -0.02  -0.04
    36   1     0.02  -0.03  -0.00     0.00   0.00  -0.00    -0.47   0.28   0.17
    37   1    -0.02   0.01   0.02     0.00  -0.00  -0.00     0.14   0.02  -0.23
    38   1    -0.01  -0.03  -0.02     0.00   0.00  -0.00     0.12   0.19   0.53
                     82                     83                     84
                      A                      A                      A
 Frequencies --   1462.2759              1468.9624              1469.6725
 Red. masses --      1.0493                 1.0601                 1.1031
 Frc consts  --      1.3219                 1.3478                 1.4038
 IR Inten    --      5.3504                 4.1554                20.1751
  Atom  AN      X      Y      Z        X      Y      Z        X      Y      Z
     1   6    -0.00  -0.00   0.00    -0.00   0.00  -0.00    -0.02  -0.01   0.00
     2   6     0.00   0.00  -0.00     0.00   0.00   0.00     0.01   0.01  -0.00
     3   1    -0.00  -0.00  -0.00    -0.00   0.00  -0.00    -0.00  -0.01  -0.00
     4   6     0.00   0.00  -0.00     0.00  -0.00   0.00     0.00  -0.00   0.00
     5   1     0.00   0.00  -0.00     0.01   0.00  -0.00     0.04  -0.01  -0.01
     6   1     0.00  -0.00  -0.00    -0.01   0.00  -0.01    -0.03   0.01  -0.02
     7   1     0.00  -0.00   0.00     0.01   0.01   0.00     0.02   0.02   0.02
     8   6    -0.00  -0.00   0.00    -0.00  -0.00   0.00    -0.00  -0.00   0.00
     9   8     0.00  -0.00  -0.00     0.00  -0.00  -0.00     0.00   0.00  -0.00
    10   8     0.00  -0.00  -0.00     0.00   0.00  -0.00     0.00   0.00  -0.00
    11   6     0.00  -0.00  -0.00     0.00  -0.00  -0.00     0.00  -0.00  -0.00
    12   1     0.00   0.00   0.00     0.00  -0.00   0.00     0.00   0.00   0.01
    13   1    -0.00   0.00   0.00    -0.00   0.00   0.00    -0.01   0.01   0.00
    14   5    -0.00   0.01  -0.01     0.01  -0.01   0.01     0.04   0.01   0.00
    15   8     0.00  -0.00   0.00    -0.00   0.00  -0.00    -0.00  -0.00  -0.00
    16   8    -0.00  -0.00   0.00     0.00   0.00  -0.00    -0.00  -0.00   0.00
    17   6     0.00   0.02  -0.00    -0.04   0.00  -0.00    -0.02   0.03  -0.02
    18   6    -0.01   0.02  -0.00     0.02  -0.01   0.01    -0.03  -0.04   0.01
    19   6     0.02   0.01  -0.02    -0.01  -0.01  -0.01    -0.01  -0.01  -0.02
    20   6    -0.01   0.01   0.01    -0.01  -0.01   0.03     0.00   0.01   0.01
    21   6    -0.02   0.00  -0.02     0.01   0.00  -0.00    -0.02   0.00   0.02
    22   6     0.00   0.01   0.02     0.01  -0.01   0.02     0.00  -0.01  -0.02
    23   1    -0.30  -0.23   0.20    -0.02   0.23  -0.02    -0.15   0.18   0.05
    24   1    -0.09  -0.13  -0.25     0.28   0.04   0.13     0.28  -0.02   0.03
    25   1     0.07   0.07   0.29     0.04  -0.21   0.10     0.06  -0.18   0.22
    26   1    -0.12   0.05  -0.12     0.07   0.32  -0.28    -0.21  -0.06  -0.06
    27   1     0.05  -0.20   0.00     0.03  -0.02   0.20     0.08  -0.28  -0.04
    28   1     0.20  -0.03  -0.07     0.22  -0.17  -0.31     0.21   0.03   0.04
    29   1     0.15  -0.09  -0.22    -0.15  -0.00   0.07     0.37   0.11  -0.02
    30   1    -0.15   0.03   0.29     0.03  -0.11  -0.00     0.03   0.28  -0.21
    31   1     0.32  -0.12   0.26    -0.06   0.11  -0.05    -0.03  -0.29  -0.04
    32   1    -0.17  -0.10  -0.13     0.00  -0.18  -0.30     0.23   0.13   0.15
    33   1     0.13   0.11  -0.11    -0.18   0.25  -0.25    -0.14  -0.14   0.15
    34   1     0.00  -0.21   0.01    -0.06   0.09   0.19     0.02   0.26  -0.05
    35   6     0.00  -0.00  -0.00    -0.00  -0.00   0.00     0.00  -0.00  -0.00
    36   1    -0.00   0.00   0.00    -0.00   0.00   0.00    -0.01   0.01   0.00
    37   1     0.00   0.00  -0.00     0.00  -0.00  -0.00     0.00  -0.00  -0.01
    38   1     0.00   0.00   0.00     0.00   0.00   0.00     0.00   0.00   0.01
                     85                     86                     87
                      A                      A                      A
 Frequencies --   1485.2416              1487.5412              1677.4511
 Red. masses --      1.0635                 1.1186                11.6525
 Frc consts  --      1.3822                 1.4584                19.3184
 IR Inten    --      5.1602                 9.8152               267.5755
  Atom  AN      X      Y      Z        X      Y      Z        X      Y      Z
     1   6    -0.00  -0.00   0.00     0.01   0.01  -0.01     0.00   0.01   0.01
     2   6     0.00   0.00  -0.00    -0.01  -0.03   0.00     0.02  -0.04  -0.05
     3   1    -0.00  -0.00  -0.00     0.01   0.05  -0.01    -0.03  -0.25  -0.00
     4   6     0.00  -0.00   0.00    -0.00   0.00  -0.00     0.00   0.00   0.00
     5   1     0.00   0.00  -0.00    -0.01   0.00   0.00    -0.02   0.05  -0.03
     6   1    -0.00   0.00  -0.00     0.02  -0.01   0.01    -0.02  -0.01  -0.04
     7   1     0.00   0.00  -0.00    -0.01  -0.01  -0.00    -0.01  -0.02  -0.01
     8   6     0.00  -0.00  -0.00     0.01   0.04  -0.00    -0.34   0.30   0.64
     9   8    -0.00   0.00   0.00     0.00  -0.01  -0.00     0.22  -0.18  -0.40
    10   8    -0.00  -0.00   0.00    -0.00  -0.02  -0.00     0.03   0.00  -0.05
    11   6     0.00  -0.00  -0.00     0.02  -0.06  -0.05    -0.01   0.03   0.02
    12   1     0.00   0.00   0.00     0.17   0.30   0.51    -0.08  -0.13  -0.00
    13   1    -0.00   0.00   0.00    -0.45   0.40   0.14     0.01  -0.14   0.05
    14   5     0.00   0.00  -0.00    -0.01  -0.00   0.00    -0.02   0.00  -0.01
    15   8     0.00   0.00  -0.00     0.00   0.00   0.00     0.00  -0.00   0.00
    16   8     0.00  -0.00   0.00     0.00   0.00  -0.00     0.00   0.00  -0.00
    17   6    -0.01  -0.03   0.02     0.00  -0.00   0.00    -0.00   0.00   0.00
    18   6    -0.02   0.03  -0.03     0.00   0.00  -0.00    -0.00   0.00  -0.00
    19   6    -0.01  -0.01   0.01    -0.00   0.00   0.00    -0.00  -0.00   0.00
    20   6    -0.01  -0.01   0.02    -0.00  -0.00  -0.00     0.00  -0.00  -0.00
    21   6    -0.01   0.01  -0.01     0.00  -0.00  -0.00     0.00  -0.00   0.00
    22   6    -0.01   0.00  -0.02    -0.00   0.00   0.00     0.00  -0.00   0.00
    23   1     0.21   0.17  -0.14     0.00  -0.00  -0.00     0.00   0.00  -0.00
    24   1     0.02   0.11   0.21    -0.00   0.00  -0.00     0.00   0.00   0.00
    25   1    -0.05  -0.02  -0.22    -0.00   0.00  -0.00    -0.00  -0.00  -0.00
    26   1     0.12   0.27  -0.20     0.00   0.00   0.00    -0.00   0.00  -0.00
    27   1     0.00   0.06   0.19    -0.00   0.00   0.00     0.00  -0.00   0.00
    28   1     0.11  -0.15  -0.28    -0.00  -0.00  -0.00     0.00   0.00   0.00
    29   1     0.10  -0.10  -0.20    -0.00  -0.00   0.00     0.00  -0.00  -0.00
    30   1    -0.10   0.00   0.22     0.00  -0.00   0.00    -0.00   0.00   0.00
    31   1     0.23  -0.11   0.19    -0.00   0.00  -0.00     0.00   0.00   0.00
    32   1     0.00   0.17   0.29    -0.00  -0.00  -0.00     0.00  -0.00   0.00
    33   1     0.16  -0.24   0.23     0.00   0.00  -0.00     0.00  -0.00   0.00
    34   1     0.06  -0.06  -0.18    -0.00  -0.00   0.00     0.00   0.00  -0.00
    35   6     0.00  -0.00  -0.00     0.01  -0.01  -0.02     0.00  -0.01  -0.01
    36   1    -0.00   0.00   0.00    -0.26   0.14   0.10     0.02   0.01  -0.02
    37   1     0.00   0.00  -0.00     0.09   0.01  -0.14    -0.04  -0.02   0.07
    38   1     0.00   0.00   0.00     0.06   0.09   0.30     0.01   0.01  -0.03
                     88                     89                     90
                      A                      A                      A
 Frequencies --   2991.4938              3039.9061              3040.5318
 Red. masses --      1.0404                 1.0962                 1.0364
 Frc consts  --      5.4854                 5.9685                 5.6451
 IR Inten    --     27.2077                22.1548                30.6858
  Atom  AN      X      Y      Z        X      Y      Z        X      Y      Z
     1   6    -0.00   0.00  -0.00    -0.00   0.00   0.00    -0.00  -0.00   0.00
     2   6     0.00  -0.00  -0.00     0.00  -0.00  -0.00     0.00   0.00  -0.00
     3   1    -0.00   0.00   0.01    -0.00   0.00   0.00    -0.00   0.00   0.00
     4   6    -0.04  -0.00  -0.04    -0.03   0.06   0.05    -0.00   0.00   0.00
     5   1     0.23   0.52   0.51    -0.21  -0.40  -0.40    -0.00  -0.01  -0.01
     6   1    -0.18  -0.22   0.14    -0.05  -0.05   0.05    -0.00  -0.00   0.00
     7   1     0.45  -0.25  -0.22     0.65  -0.33  -0.29     0.01  -0.01  -0.01
     8   6     0.00  -0.00  -0.00    -0.00  -0.00   0.00    -0.00  -0.00   0.00
     9   8    -0.00   0.00   0.00     0.00   0.00  -0.00     0.00  -0.00  -0.00
    10   8     0.00   0.00  -0.00     0.00   0.00  -0.00     0.00   0.00  -0.00
    11   6    -0.00  -0.00   0.00     0.00  -0.00  -0.00    -0.01   0.01   0.01
    12   1     0.00  -0.00  -0.00    -0.00   0.00   0.00     0.17  -0.06  -0.01
    13   1    -0.00  -0.00  -0.00     0.00   0.00   0.00    -0.08  -0.02  -0.16
    14   5     0.00   0.00  -0.00     0.00   0.00   0.00     0.00   0.00   0.00
    15   8    -0.00   0.00  -0.00    -0.00  -0.00  -0.00    -0.00  -0.00  -0.00
    16   8    -0.00  -0.00   0.00    -0.00  -0.00  -0.00    -0.00  -0.00   0.00
    17   6     0.00   0.00  -0.00     0.00  -0.00  -0.00     0.00   0.00   0.00
    18   6     0.00   0.00   0.00     0.00   0.00   0.00     0.00   0.00   0.00
    19   6    -0.00   0.00   0.00     0.00  -0.00  -0.00     0.00  -0.00  -0.00
    20   6    -0.00   0.00  -0.00    -0.00   0.00  -0.00    -0.00   0.00  -0.00
    21   6    -0.00  -0.00  -0.00     0.00  -0.00  -0.00    -0.00  -0.00  -0.00
    22   6    -0.00  -0.00   0.00    -0.00  -0.00   0.00    -0.00  -0.00   0.00
    23   1    -0.00  -0.00  -0.00     0.00   0.00   0.00     0.00   0.00   0.00
    24   1    -0.00  -0.00   0.00     0.00   0.00  -0.00     0.00   0.00  -0.00
    25   1     0.00   0.00  -0.00    -0.00  -0.00   0.00    -0.00  -0.00   0.00
    26   1    -0.00   0.00   0.00    -0.00   0.00   0.00    -0.00   0.00   0.00
    27   1     0.00   0.00  -0.00     0.00   0.00  -0.00     0.00   0.00  -0.00
    28   1    -0.00  -0.00   0.00     0.00  -0.00   0.00     0.00  -0.00   0.00
    29   1    -0.00   0.00  -0.00    -0.00   0.00  -0.00    -0.00   0.00  -0.00
    30   1     0.00   0.00   0.00     0.00   0.00   0.00     0.00   0.00   0.00
    31   1    -0.00  -0.00   0.00    -0.00  -0.00   0.00    -0.00  -0.00   0.00
    32   1    -0.00   0.00  -0.00    -0.00   0.00  -0.00    -0.00   0.00  -0.00
    33   1    -0.00  -0.00  -0.00    -0.00  -0.00  -0.00    -0.00  -0.00  -0.00
    34   1     0.00  -0.00   0.00     0.00  -0.00   0.00     0.00  -0.00   0.00
    35   6     0.00   0.00  -0.00     0.00   0.00  -0.00    -0.02  -0.02   0.04
    36   1     0.00   0.00   0.00     0.01   0.00   0.01    -0.26  -0.08  -0.50
    37   1     0.00  -0.00  -0.00    -0.00  -0.01  -0.00     0.02   0.53   0.11
    38   1    -0.00   0.00   0.00    -0.01   0.01   0.00     0.53  -0.20  -0.02
                     91                     92                     93
                      A                      A                      A
 Frequencies --   3042.1910              3043.6663              3046.0252
 Red. masses --      1.0355                 1.0357                 1.0574
 Frc consts  --      5.6463                 5.6530                 5.7804
 IR Inten    --      2.2231                37.8428                24.0356
  Atom  AN      X      Y      Z        X      Y      Z        X      Y      Z
     1   6    -0.00  -0.00   0.00     0.00   0.00  -0.00     0.00   0.00   0.00
     2   6    -0.00   0.00   0.00     0.00  -0.00  -0.00     0.00   0.00  -0.00
     3   1     0.00  -0.00  -0.00    -0.00   0.00   0.00    -0.00   0.00   0.00
     4   6    -0.00   0.00   0.00    -0.00   0.00   0.00     0.00  -0.00  -0.00
     5   1    -0.00  -0.00  -0.00    -0.00  -0.00  -0.00     0.00  -0.00  -0.00
     6   1    -0.00  -0.00   0.00    -0.00  -0.00   0.00     0.00   0.00  -0.00
     7   1     0.00  -0.00  -0.00     0.00  -0.00  -0.00    -0.00   0.00   0.00
     8   6    -0.00   0.00   0.00    -0.00   0.00   0.00    -0.00  -0.00   0.00
     9   8     0.00  -0.00  -0.00     0.00  -0.00  -0.00     0.00  -0.00  -0.00
    10   8    -0.00  -0.00  -0.00    -0.00  -0.00  -0.00     0.00   0.00  -0.00
    11   6     0.00  -0.00  -0.00     0.00  -0.00  -0.00    -0.03   0.02   0.05
    12   1    -0.00   0.00   0.00    -0.00   0.00   0.00     0.63  -0.22  -0.03
    13   1     0.00   0.00   0.00     0.00   0.00   0.00    -0.31  -0.07  -0.61
    14   5     0.00   0.00  -0.00    -0.00  -0.00   0.00    -0.00  -0.00  -0.00
    15   8    -0.00   0.00   0.00    -0.00  -0.00  -0.00     0.00  -0.00   0.00
    16   8    -0.00  -0.00  -0.00     0.00   0.00  -0.00     0.00   0.00  -0.00
    17   6     0.00  -0.00  -0.00     0.00  -0.00  -0.00    -0.00  -0.00   0.00
    18   6    -0.00   0.00   0.00     0.00  -0.00  -0.00    -0.00  -0.00  -0.00
    19   6    -0.01   0.02   0.02    -0.01   0.03   0.02     0.00  -0.00  -0.00
    20   6     0.01  -0.00   0.01     0.01  -0.00   0.01     0.00  -0.00   0.00
    21   6     0.00  -0.02  -0.02    -0.00   0.03   0.02     0.00   0.00   0.00
    22   6     0.01   0.01  -0.01    -0.01  -0.00   0.01     0.00   0.00  -0.00
    23   1    -0.17  -0.02  -0.29    -0.21  -0.03  -0.35     0.00   0.00   0.00
    24   1    -0.05  -0.27   0.18    -0.06  -0.34   0.22     0.00   0.00  -0.00
    25   1     0.31   0.04  -0.06     0.38   0.04  -0.08    -0.00  -0.00   0.00
    26   1     0.08  -0.13  -0.11     0.04  -0.05  -0.05     0.00  -0.00  -0.00
    27   1    -0.24  -0.07   0.05    -0.12  -0.04   0.02    -0.00  -0.00   0.00
    28   1    -0.00   0.21  -0.11    -0.00   0.12  -0.06    -0.00   0.00  -0.00
    29   1    -0.09   0.27  -0.20     0.10  -0.30   0.22     0.00  -0.00   0.00
    30   1     0.31   0.06   0.13    -0.34  -0.06  -0.14    -0.00  -0.00  -0.00
    31   1    -0.24  -0.04   0.26     0.26   0.04  -0.29     0.00   0.00  -0.00
    32   1     0.04  -0.20   0.11    -0.02   0.10  -0.06     0.00  -0.00   0.00
    33   1     0.02   0.14   0.12    -0.01  -0.05  -0.05     0.00   0.00   0.00
    34   1    -0.23   0.00  -0.10     0.11  -0.00   0.05    -0.00   0.00  -0.00
    35   6    -0.00  -0.00   0.00    -0.00  -0.00   0.00     0.01  -0.00  -0.01
    36   1    -0.00  -0.00  -0.00    -0.00  -0.00  -0.00     0.09   0.02   0.16
    37   1     0.00   0.00   0.00     0.00   0.00   0.00    -0.00  -0.08  -0.01
    38   1     0.00  -0.00  -0.00     0.00  -0.00  -0.00    -0.17   0.06   0.00
                     94                     95                     96
                      A                      A                      A
 Frequencies --   3047.0960              3050.7332              3087.1261
 Red. masses --      1.0373                 1.0375                 1.1074
 Frc consts  --      5.6746                 5.6892                 6.2181
 IR Inten    --     21.7282                22.7487                19.4782
  Atom  AN      X      Y      Z        X      Y      Z        X      Y      Z
     1   6     0.00   0.00  -0.00    -0.00  -0.00   0.00     0.00  -0.00   0.00
     2   6     0.00   0.00  -0.00    -0.00   0.00   0.00    -0.00   0.00  -0.00
     3   1    -0.00   0.00   0.00     0.00  -0.00  -0.00     0.00  -0.00   0.00
     4   6     0.00  -0.00  -0.00     0.00  -0.00  -0.00     0.00   0.00  -0.00
     5   1    -0.00   0.00  -0.00     0.00   0.00  -0.00    -0.00  -0.00  -0.00
     6   1    -0.00  -0.00   0.00     0.00   0.00  -0.00    -0.00  -0.00   0.00
     7   1    -0.00   0.00   0.00    -0.00   0.00   0.00    -0.00   0.00  -0.00
     8   6     0.00   0.00   0.00    -0.00   0.00   0.00     0.00  -0.00   0.00
     9   8     0.00  -0.00   0.00     0.00  -0.00  -0.00     0.00  -0.00   0.00
    10   8     0.00   0.00   0.00    -0.00  -0.00   0.00     0.00  -0.00   0.00
    11   6    -0.00   0.00   0.00    -0.00   0.00   0.00    -0.08   0.01  -0.05
    12   1     0.00  -0.00  -0.00     0.00  -0.00  -0.00     0.63  -0.22  -0.05
    13   1    -0.00  -0.00  -0.00    -0.00  -0.00  -0.00     0.27   0.07   0.59
    14   5     0.00  -0.00   0.00     0.00   0.00   0.00    -0.00   0.00  -0.00
    15   8    -0.00   0.00  -0.00    -0.00  -0.00  -0.00     0.00  -0.00   0.00
    16   8     0.00   0.00  -0.00    -0.00  -0.00  -0.00     0.00  -0.00   0.00
    17   6     0.00  -0.00   0.00     0.00   0.00   0.00     0.00  -0.00   0.00
    18   6    -0.00  -0.00   0.00     0.00  -0.00   0.00    -0.00   0.00  -0.00
    19   6    -0.00   0.01   0.01    -0.01   0.02   0.01    -0.00  -0.00   0.00
    20   6    -0.02   0.00  -0.03    -0.02   0.00  -0.02    -0.00  -0.00   0.00
    21   6    -0.00   0.01   0.01     0.00  -0.02  -0.01     0.00  -0.00   0.00
    22   6     0.03   0.01  -0.02    -0.02  -0.01   0.02     0.00  -0.00   0.00
    23   1    -0.07  -0.01  -0.11    -0.12  -0.02  -0.20    -0.00  -0.00  -0.00
    24   1    -0.02  -0.09   0.06    -0.03  -0.19   0.12     0.00   0.00  -0.00
    25   1     0.12   0.01  -0.02     0.21   0.02  -0.04     0.00   0.00  -0.00
    26   1    -0.14   0.21   0.19    -0.11   0.17   0.15    -0.00   0.00   0.00
    27   1     0.41   0.12  -0.08     0.34   0.10  -0.07     0.00   0.00  -0.00
    28   1     0.00  -0.38   0.19     0.00  -0.32   0.16     0.00   0.00  -0.00
    29   1     0.02  -0.07   0.05    -0.06   0.18  -0.13    -0.00   0.00  -0.00
    30   1    -0.09  -0.02  -0.04     0.20   0.04   0.08    -0.00  -0.00  -0.00
    31   1     0.07   0.01  -0.08    -0.16  -0.03   0.18     0.00   0.00  -0.00
    32   1     0.07  -0.36   0.19    -0.06   0.33  -0.18    -0.00   0.00  -0.00
    33   1     0.03   0.23   0.20    -0.03  -0.20  -0.18     0.00   0.00   0.00
    34   1    -0.39   0.00  -0.16     0.36  -0.00   0.15    -0.00  -0.00  -0.00
    35   6     0.00   0.00  -0.00     0.00   0.00  -0.00     0.03  -0.00   0.02
    36   1     0.00   0.00   0.00     0.00   0.00   0.00    -0.10  -0.04  -0.21
    37   1    -0.00  -0.00  -0.00    -0.00  -0.00  -0.00     0.01   0.00   0.00
    38   1    -0.00   0.00   0.00    -0.00   0.00   0.00    -0.22   0.09   0.01
                     97                     98                     99
                      A                      A                      A
 Frequencies --   3116.0805              3116.9901              3121.9758
 Red. masses --      1.1029                 1.1025                 1.1020
 Frc consts  --      6.3097                 6.3108                 6.3285
 IR Inten    --      3.3968                15.4717                30.9596
  Atom  AN      X      Y      Z        X      Y      Z        X      Y      Z
     1   6     0.00  -0.00   0.00    -0.00  -0.00   0.00    -0.00  -0.00  -0.00
     2   6    -0.00   0.00   0.00    -0.00   0.00   0.00    -0.00  -0.00   0.00
     3   1     0.00  -0.00  -0.00     0.00  -0.00  -0.00     0.00  -0.00  -0.00
     4   6     0.00   0.00  -0.00    -0.00  -0.00   0.00    -0.00  -0.00   0.00
     5   1    -0.00  -0.00  -0.00     0.00   0.00   0.00     0.00   0.00   0.00
     6   1    -0.00  -0.00   0.00     0.00   0.00  -0.00     0.00   0.00  -0.00
     7   1    -0.00   0.00   0.00     0.00  -0.00  -0.00     0.00  -0.00  -0.00
     8   6    -0.00   0.00   0.00    -0.00   0.00   0.00     0.00   0.00  -0.00
     9   8     0.00  -0.00  -0.00     0.00   0.00  -0.00    -0.00   0.00   0.00
    10   8    -0.00  -0.00   0.00     0.00  -0.00  -0.00    -0.00   0.00   0.00
    11   6    -0.00   0.00   0.00     0.00  -0.00   0.00     0.01  -0.00  -0.00
    12   1     0.00  -0.00  -0.00    -0.00   0.00   0.00    -0.08   0.03   0.01
    13   1     0.00  -0.00   0.00    -0.00  -0.00  -0.00     0.01   0.00   0.02
    14   5     0.00  -0.00   0.00    -0.00   0.00  -0.00     0.00   0.00   0.00
    15   8     0.00   0.00  -0.00    -0.00  -0.00   0.00    -0.00  -0.00  -0.00
    16   8     0.00   0.00   0.00     0.00  -0.00   0.00    -0.00  -0.00   0.00
    17   6    -0.00  -0.00   0.00     0.00   0.00  -0.00     0.00   0.00  -0.00
    18   6    -0.00   0.00  -0.00    -0.00   0.00  -0.00     0.00  -0.00   0.00
    19   6     0.01   0.02  -0.02    -0.00  -0.01   0.02    -0.00   0.00  -0.00
    20   6    -0.03  -0.05   0.02     0.03   0.04  -0.02     0.00   0.00  -0.00
    21   6     0.01  -0.01   0.02     0.00  -0.01   0.02    -0.00  -0.00   0.00
    22   6    -0.04   0.04  -0.03    -0.04   0.04  -0.03     0.00  -0.00   0.00
    23   1     0.04   0.01   0.06    -0.07  -0.01  -0.11     0.00   0.00   0.00
    24   1    -0.03  -0.21   0.13     0.02   0.14  -0.09    -0.00  -0.00   0.00
    25   1    -0.16  -0.01   0.03     0.05   0.00  -0.01     0.00   0.00  -0.00
    26   1    -0.03   0.03   0.04     0.01   0.00  -0.01    -0.00   0.00   0.00
    27   1     0.41   0.11  -0.08    -0.42  -0.12   0.08    -0.00  -0.00   0.00
    28   1    -0.01   0.44  -0.22     0.01  -0.41   0.21     0.00  -0.00   0.00
    29   1    -0.06   0.19  -0.14    -0.05   0.14  -0.10    -0.00   0.00  -0.00
    30   1    -0.16  -0.03  -0.07    -0.06  -0.01  -0.02     0.00   0.00   0.00
    31   1     0.04   0.00  -0.04     0.08   0.01  -0.09     0.00   0.00  -0.00
    32   1     0.06  -0.40   0.21     0.07  -0.43   0.23    -0.00   0.00  -0.00
    33   1    -0.01  -0.04  -0.04    -0.01  -0.00  -0.02    -0.00  -0.00  -0.00
    34   1     0.37   0.01   0.15     0.44   0.01   0.18    -0.00  -0.00  -0.00
    35   6     0.00  -0.00  -0.00     0.00   0.00   0.00     0.02  -0.08  -0.03
    36   1     0.00   0.00   0.00    -0.00  -0.00  -0.00     0.14   0.02   0.25
    37   1     0.00   0.00   0.00     0.00  -0.00  -0.00     0.04   0.81   0.15
    38   1    -0.00   0.00   0.00    -0.00   0.00   0.00    -0.44   0.15   0.02
                    100                    101                    102
                      A                      A                      A
 Frequencies --   3122.3263              3122.3770              3123.2826
 Red. masses --      1.1047                 1.1029                 1.1028
 Frc consts  --      6.3454                 6.3350                 6.3380
 IR Inten    --     51.7488                 4.2382                93.3090
  Atom  AN      X      Y      Z        X      Y      Z        X      Y      Z
     1   6     0.00  -0.00   0.00    -0.00  -0.00   0.00     0.00   0.00  -0.00
     2   6    -0.00   0.00  -0.00    -0.00   0.00   0.00     0.00  -0.00  -0.00
     3   1     0.00  -0.00  -0.00     0.00  -0.00  -0.00    -0.00   0.00   0.00
     4   6     0.00   0.00  -0.00     0.00  -0.00   0.00     0.00   0.00  -0.00
     5   1    -0.00  -0.00  -0.00    -0.00   0.00  -0.00    -0.00  -0.00  -0.00
     6   1    -0.00  -0.00   0.00     0.00   0.00  -0.00    -0.00  -0.00   0.00
     7   1    -0.00   0.00   0.00    -0.00   0.00   0.00    -0.00   0.00   0.00
     8   6     0.00   0.00   0.00     0.00   0.00   0.00    -0.00   0.00  -0.00
     9   8     0.00  -0.00   0.00     0.00  -0.00  -0.00    -0.00   0.00   0.00
    10   8     0.00  -0.00   0.00     0.00  -0.00   0.00    -0.00   0.00  -0.00
    11   6    -0.03   0.00  -0.02    -0.00   0.00  -0.00     0.00  -0.00   0.00
    12   1     0.21  -0.07  -0.02     0.02  -0.01  -0.00    -0.00   0.00   0.00
    13   1     0.10   0.02   0.21     0.01   0.00   0.02    -0.00  -0.00  -0.00
    14   5    -0.00  -0.00   0.00     0.00   0.00  -0.00    -0.00  -0.00   0.00
    15   8     0.00   0.00  -0.00    -0.00  -0.00   0.00    -0.00   0.00  -0.00
    16   8     0.00  -0.00   0.00    -0.00   0.00  -0.00     0.00   0.00  -0.00
    17   6     0.00  -0.00   0.00    -0.00   0.00  -0.00     0.00  -0.00   0.00
    18   6    -0.00   0.00  -0.00     0.00  -0.00   0.00    -0.00  -0.00   0.00
    19   6     0.00  -0.00   0.00    -0.02   0.03  -0.06     0.01  -0.03   0.04
    20   6    -0.00  -0.00   0.00     0.02   0.01  -0.01    -0.00  -0.02   0.00
    21   6     0.00   0.00  -0.00    -0.02  -0.03   0.04    -0.01  -0.04   0.06
    22   6    -0.00   0.00  -0.00     0.01  -0.00   0.01     0.01  -0.02   0.01
    23   1    -0.02  -0.00  -0.04     0.27   0.05   0.46    -0.18  -0.03  -0.31
    24   1     0.01   0.04  -0.02    -0.08  -0.44   0.27     0.06   0.36  -0.22
    25   1    -0.00  -0.00   0.00     0.02   0.01  -0.02     0.05   0.00  -0.00
    26   1     0.00  -0.00  -0.00    -0.02   0.04   0.03    -0.04   0.06   0.06
    27   1     0.01   0.00  -0.00    -0.19  -0.05   0.04     0.08   0.02  -0.01
    28   1    -0.00   0.01  -0.01     0.01  -0.15   0.08    -0.00   0.15  -0.08
    29   1     0.01  -0.02   0.01    -0.11   0.29  -0.21    -0.15   0.44  -0.31
    30   1    -0.00  -0.00  -0.00     0.04   0.00   0.03    -0.04  -0.02  -0.01
    31   1    -0.02  -0.00   0.02     0.27   0.04  -0.31     0.34   0.04  -0.37
    32   1     0.00  -0.01   0.00    -0.01   0.10  -0.05    -0.03   0.18  -0.10
    33   1     0.00   0.00   0.00    -0.00  -0.06  -0.05     0.01   0.05   0.05
    34   1     0.01  -0.00   0.00    -0.15  -0.00  -0.06    -0.13  -0.00  -0.05
    35   6    -0.07   0.00  -0.05    -0.01   0.00  -0.00     0.00   0.00   0.00
    36   1     0.31   0.10   0.63     0.02   0.01   0.05    -0.00  -0.00  -0.01
    37   1    -0.01   0.11   0.01    -0.00   0.00   0.00     0.00  -0.00  -0.00
    38   1     0.56  -0.22  -0.04     0.04  -0.02  -0.00    -0.00   0.00   0.00
                    103                    104                    105
                      A                      A                      A
 Frequencies --   3128.0492              3128.5618              3129.4025
 Red. masses --      1.1028                 1.0982                 1.1025
 Frc consts  --      6.3578                 6.3331                 6.3611
 IR Inten    --      4.4967                20.8211                64.3992
  Atom  AN      X      Y      Z        X      Y      Z        X      Y      Z
     1   6    -0.00  -0.00  -0.00    -0.00   0.00  -0.00    -0.00  -0.00  -0.00
     2   6    -0.00   0.00   0.00    -0.00   0.00   0.00    -0.00   0.00   0.00
     3   1     0.00  -0.00  -0.00     0.01  -0.00  -0.01     0.00  -0.00  -0.00
     4   6    -0.00  -0.00   0.00    -0.06  -0.06   0.03    -0.00  -0.00   0.00
     5   1     0.00   0.01   0.01     0.05   0.12   0.14    -0.00   0.00  -0.00
     6   1     0.04   0.05  -0.03     0.52   0.65  -0.44     0.00   0.00  -0.00
     7   1     0.01  -0.01  -0.01     0.19  -0.12  -0.09    -0.00   0.00   0.00
     8   6    -0.00   0.00   0.00     0.00   0.00   0.00     0.00   0.00   0.00
     9   8     0.00  -0.00  -0.00     0.00  -0.00  -0.00    -0.00  -0.00  -0.00
    10   8    -0.00  -0.00   0.00    -0.00  -0.00   0.00    -0.00  -0.00   0.00
    11   6    -0.00   0.00  -0.00    -0.00   0.00   0.00     0.00   0.00   0.00
    12   1     0.00  -0.00  -0.00     0.00  -0.00  -0.00    -0.00   0.00   0.00
    13   1     0.00   0.00   0.00    -0.00  -0.00  -0.00    -0.00  -0.00  -0.00
    14   5     0.00   0.00  -0.00    -0.00  -0.00   0.00     0.00  -0.00   0.00
    15   8    -0.00  -0.00   0.00     0.00   0.00  -0.00     0.00   0.00  -0.00
    16   8     0.00  -0.00   0.00    -0.00   0.00  -0.00     0.00  -0.00   0.00
    17   6     0.00   0.00   0.00    -0.00  -0.00  -0.00    -0.00  -0.00   0.00
    18   6    -0.00   0.00  -0.00     0.00  -0.00   0.00    -0.00   0.00  -0.00
    19   6     0.05   0.02   0.00    -0.00  -0.00  -0.00    -0.07  -0.03  -0.00
    20   6     0.00  -0.00  -0.00    -0.00  -0.00   0.00    -0.01  -0.02   0.01
    21   6    -0.07   0.00  -0.01     0.01  -0.00   0.00    -0.05   0.00  -0.01
    22   6    -0.00   0.01  -0.00     0.00  -0.00   0.00    -0.01   0.01  -0.01
    23   1    -0.14  -0.02  -0.25     0.01   0.00   0.02     0.16   0.02   0.29
    24   1    -0.01  -0.14   0.09     0.00   0.01  -0.01     0.03   0.23  -0.15
    25   1    -0.47  -0.05   0.10     0.03   0.00  -0.01     0.63   0.06  -0.13
    26   1    -0.01   0.01   0.01    -0.00   0.00   0.00    -0.02   0.03   0.03
    27   1    -0.00  -0.00  -0.00     0.00   0.00  -0.00     0.13   0.03  -0.02
    28   1     0.00   0.00  -0.00    -0.00   0.00  -0.00    -0.00   0.15  -0.07
    29   1     0.05  -0.20   0.15    -0.00   0.02  -0.01     0.05  -0.16   0.12
    30   1     0.59   0.12   0.26    -0.04  -0.01  -0.02     0.41   0.08   0.18
    31   1     0.24   0.04  -0.29    -0.02  -0.00   0.02     0.14   0.02  -0.17
    32   1     0.01  -0.06   0.03    -0.00   0.01  -0.00     0.02  -0.14   0.07
    33   1    -0.00  -0.01  -0.01     0.00   0.00   0.00    -0.01  -0.03  -0.03
    34   1     0.05   0.00   0.02    -0.00  -0.00  -0.00     0.12   0.00   0.05
    35   6    -0.00   0.00  -0.00    -0.00   0.00   0.00     0.00   0.00   0.00
    36   1     0.00   0.00   0.00     0.00   0.00   0.00    -0.00  -0.00  -0.00
    37   1    -0.00  -0.00  -0.00    -0.00  -0.00  -0.00    -0.00  -0.00  -0.00
    38   1     0.00  -0.00  -0.00     0.00  -0.00  -0.00    -0.00   0.00   0.00
                    106                    107                    108
                      A                      A                      A
 Frequencies --   3142.4035              3142.9885              3147.0208
 Red. masses --      1.1013                 1.1012                 1.0863
 Frc consts  --      6.4075                 6.4094                 6.3385
 IR Inten    --     28.9462                31.2802                 9.7582
  Atom  AN      X      Y      Z        X      Y      Z        X      Y      Z
     1   6     0.00  -0.00   0.00    -0.00  -0.00  -0.00    -0.00  -0.00   0.00
     2   6     0.00  -0.00  -0.00    -0.00   0.00   0.00     0.04  -0.02  -0.07
     3   1    -0.00   0.00   0.00     0.00  -0.00  -0.01    -0.46   0.23   0.85
     4   6     0.00   0.00  -0.00     0.00   0.00  -0.00    -0.00  -0.00   0.00
     5   1     0.00  -0.00  -0.00    -0.00  -0.00  -0.00    -0.00  -0.00  -0.00
     6   1    -0.00  -0.00   0.00    -0.00  -0.00   0.00     0.01   0.01  -0.01
     7   1     0.00  -0.00   0.00    -0.00   0.00   0.00    -0.00   0.00   0.00
     8   6     0.00  -0.00  -0.00    -0.00  -0.00   0.00     0.00   0.00  -0.00
     9   8    -0.00   0.00   0.00     0.00  -0.00  -0.00    -0.00   0.00   0.00
    10   8     0.00   0.00  -0.00    -0.00  -0.00   0.00    -0.00  -0.00   0.00
    11   6     0.00  -0.00  -0.00    -0.00   0.00   0.00     0.00  -0.00  -0.00
    12   1    -0.00   0.00   0.00     0.00  -0.00  -0.00    -0.00   0.00   0.00
    13   1     0.00   0.00   0.00    -0.00  -0.00  -0.00     0.00   0.00   0.00
    14   5    -0.00   0.00  -0.00     0.00   0.00  -0.00    -0.00  -0.00  -0.00
    15   8    -0.00   0.00   0.00     0.00   0.00   0.00     0.00  -0.00   0.00
    16   8    -0.00  -0.00   0.00     0.00   0.00   0.00     0.00   0.00  -0.00
    17   6     0.00  -0.00  -0.00     0.00  -0.00  -0.00    -0.00  -0.00   0.00
    18   6     0.00   0.00  -0.00    -0.00  -0.00  -0.00    -0.00  -0.00  -0.00
    19   6     0.00   0.00   0.00    -0.00   0.00  -0.01    -0.00   0.00  -0.00
    20   6     0.06  -0.06  -0.04     0.00  -0.00  -0.00    -0.00   0.00   0.00
    21   6     0.01   0.01  -0.01    -0.00   0.00  -0.00    -0.00  -0.00   0.00
    22   6     0.00   0.00   0.00    -0.03  -0.07  -0.05    -0.00  -0.00  -0.00
    23   1    -0.01  -0.00  -0.02     0.05   0.01   0.09     0.00   0.00   0.00
    24   1     0.00  -0.00   0.00    -0.01  -0.06   0.04    -0.00  -0.00   0.00
    25   1    -0.03  -0.00   0.01     0.00   0.00  -0.00     0.00   0.00  -0.00
    26   1    -0.37   0.59   0.54    -0.02   0.03   0.03     0.00  -0.00  -0.00
    27   1    -0.34  -0.11   0.06    -0.01  -0.00   0.00     0.00   0.00  -0.00
    28   1     0.01   0.23  -0.13     0.00   0.02  -0.01    -0.00  -0.00   0.00
    29   1     0.02  -0.06   0.04     0.00  -0.01   0.01    -0.00   0.00  -0.00
    30   1    -0.01  -0.00  -0.01     0.03   0.01   0.01     0.00   0.00   0.00
    31   1    -0.08  -0.01   0.08     0.01   0.00  -0.01     0.00   0.00  -0.00
    32   1     0.00  -0.01   0.00    -0.05   0.22  -0.13    -0.00   0.00  -0.00
    33   1    -0.00  -0.03  -0.03     0.07   0.66   0.58     0.00   0.00   0.00
    34   1    -0.02   0.00  -0.01     0.34  -0.01   0.13     0.00  -0.00   0.00
    35   6     0.00  -0.00  -0.00     0.00   0.00  -0.00     0.00  -0.00  -0.00
    36   1     0.00   0.00   0.00     0.00   0.00   0.00     0.00   0.00   0.00
    37   1     0.00   0.00   0.00    -0.00  -0.00  -0.00     0.00   0.00   0.00
    38   1    -0.00   0.00   0.00    -0.00   0.00   0.00    -0.00   0.00   0.00

 -------------------
 - Thermochemistry -
 -------------------
 Temperature   298.150 Kelvin.  Pressure   1.00000 Atm.
 Atom     1 has atomic number  6 and mass  12.00000
 Atom     2 has atomic number  6 and mass  12.00000
 Atom     3 has atomic number  1 and mass   1.00783
 Atom     4 has atomic number  6 and mass  12.00000
 Atom     5 has atomic number  1 and mass   1.00783
 Atom     6 has atomic number  1 and mass   1.00783
 Atom     7 has atomic number  1 and mass   1.00783
 Atom     8 has atomic number  6 and mass  12.00000
 Atom     9 has atomic number  8 and mass  15.99491
 Atom    10 has atomic number  8 and mass  15.99491
 Atom    11 has atomic number  6 and mass  12.00000
 Atom    12 has atomic number  1 and mass   1.00783
 Atom    13 has atomic number  1 and mass   1.00783
 Atom    14 has atomic number  5 and mass  11.00931
 Atom    15 has atomic number  8 and mass  15.99491
 Atom    16 has atomic number  8 and mass  15.99491
 Atom    17 has atomic number  6 and mass  12.00000
 Atom    18 has atomic number  6 and mass  12.00000
 Atom    19 has atomic number  6 and mass  12.00000
 Atom    20 has atomic number  6 and mass  12.00000
 Atom    21 has atomic number  6 and mass  12.00000
 Atom    22 has atomic number  6 and mass  12.00000
 Atom    23 has atomic number  1 and mass   1.00783
 Atom    24 has atomic number  1 and mass   1.00783
 Atom    25 has atomic number  1 and mass   1.00783
 Atom    26 has atomic number  1 and mass   1.00783
 Atom    27 has atomic number  1 and mass   1.00783
 Atom    28 has atomic number  1 and mass   1.00783
 Atom    29 has atomic number  1 and mass   1.00783
 Atom    30 has atomic number  1 and mass   1.00783
 Atom    31 has atomic number  1 and mass   1.00783
 Atom    32 has atomic number  1 and mass   1.00783
 Atom    33 has atomic number  1 and mass   1.00783
 Atom    34 has atomic number  1 and mass   1.00783
 Atom    35 has atomic number  6 and mass  12.00000
 Atom    36 has atomic number  1 and mass   1.00783
 Atom    37 has atomic number  1 and mass   1.00783
 Atom    38 has atomic number  1 and mass   1.00783
 Molecular mass:   240.15329 amu.
 Principal axes and moments of inertia in atomic units:
                           1         2         3
     Eigenvalues --  2073.614358074.936488987.61950
           X            0.72862   0.63436  -0.25826
           Y            0.67602  -0.60549   0.41996
           Z           -0.11003   0.48058   0.87002
 This molecule is an asymmetric top.
 Rotational symmetry number  1.
 Warning -- assumption of classical behavior for rotation
           may cause significant error
 Rotational temperatures (Kelvin)      0.04177     0.01073     0.00964
 Rotational constants (GHZ):           0.87034     0.22350     0.20080
 Zero-point vibrational energy     834284.3 (Joules/Mol)
                                  199.39873 (Kcal/Mol)
 Warning -- explicit consideration of  32 degrees of freedom as
           vibrations may cause significant error
 Vibrational temperatures:     31.06    35.21    47.18   102.80   115.17
          (Kelvin)            137.97   152.61   154.07   196.10   220.96
                              252.82   319.68   341.16   372.74   377.73
                              401.57   429.95   430.82   441.23   449.86
                              483.87   500.94   526.27   550.60   553.34
                              624.84   646.56   732.59   752.27   820.24
                              835.91   879.77   927.93   970.61  1054.01
                             1071.44  1164.23  1180.23  1209.30  1243.79
                             1275.35  1341.13  1346.28  1369.49  1382.67
                             1398.56  1411.72  1439.89  1454.63  1462.49
                             1529.36  1581.89  1612.72  1625.34  1653.52
                             1666.76  1671.69  1697.61  1771.83  1775.97
                             1823.17  1838.75  1853.21  1907.10  1940.76
                             1961.64  1991.36  1991.77  1996.83  2004.50
                             2015.53  2017.84  2046.60  2060.58  2070.69
                             2078.84  2080.26  2080.44  2083.40  2090.33
                             2098.09  2103.89  2113.51  2114.53  2136.93
                             2140.24  2413.48  4304.09  4373.75  4374.65
                             4377.03  4379.16  4382.55  4384.09  4389.32
                             4441.69  4483.34  4484.65  4491.83  4492.33
                             4492.40  4493.71  4500.57  4501.30  4502.51
                             4521.22  4522.06  4527.86
 
 Zero-point correction=                           0.317762 (Hartree/Particle)
 Thermal correction to Energy=                    0.337754
 Thermal correction to Enthalpy=                  0.338699
 Thermal correction to Gibbs Free Energy=         0.267237
 Sum of electronic and zero-point Energies=           -795.501529
 Sum of electronic and thermal Energies=              -795.481537
 Sum of electronic and thermal Enthalpies=            -795.480593
 Sum of electronic and thermal Free Energies=         -795.552054
 
                     E (Thermal)             CV                S
                      KCal/Mol        Cal/Mol-Kelvin    Cal/Mol-Kelvin
 Total                  211.944             74.028            150.403
 Electronic               0.000              0.000              2.183
 Translational            0.889              2.981             42.330
 Rotational               0.889              2.981             33.375
 Vibrational            210.167             68.066             72.515
 Vibration     1          0.593              1.985              6.482
 Vibration     2          0.593              1.985              6.233
 Vibration     3          0.594              1.983              5.653
 Vibration     4          0.598              1.968              4.113
 Vibration     5          0.600              1.963              3.890
 Vibration     6          0.603              1.952              3.536
 Vibration     7          0.605              1.944              3.340
 Vibration     8          0.606              1.944              3.321
 Vibration     9          0.614              1.917              2.855
 Vibration    10          0.619              1.899              2.627
 Vibration    11          0.628              1.872              2.373
 Vibration    12          0.648              1.807              1.941
 Vibration    13          0.656              1.784              1.824
 Vibration    14          0.668              1.747              1.668
 Vibration    15          0.670              1.741              1.645
 Vibration    16          0.679              1.712              1.539
 Vibration    17          0.692              1.676              1.423
 Vibration    18          0.692              1.675              1.420
 Vibration    19          0.697              1.661              1.380
 Vibration    20          0.701              1.650              1.348
 Vibration    21          0.717              1.603              1.230
 Vibration    22          0.726              1.579              1.174
 Vibration    23          0.739              1.543              1.097
 Vibration    24          0.752              1.507              1.029
 Vibration    25          0.754              1.503              1.021
 Vibration    26          0.795              1.396              0.845
 Vibration    27          0.808              1.362              0.798
 Vibration    28          0.864              1.230              0.636
 Vibration    29          0.878              1.199              0.603
 Vibration    30          0.926              1.096              0.504
 Vibration    31          0.938              1.072              0.484
 Vibration    32          0.971              1.008              0.430
                       Q            Log10(Q)             Ln(Q)
 Total Bot       0.120077-122       -122.920539       -283.035001
 Total V=0       0.173682D+24         23.239755         53.511514
 Vib (Bot)       0.623091-138       -138.205449       -318.229806
 Vib (Bot)    1  0.959449D+01          0.982022          2.261189
 Vib (Bot)    2  0.846228D+01          0.927487          2.135618
 Vib (Bot)    3  0.631315D+01          0.800246          1.842634
 Vib (Bot)    4  0.288591D+01          0.460282          1.059839
 Vib (Bot)    5  0.257273D+01          0.410395          0.944969
 Vib (Bot)    6  0.214182D+01          0.330783          0.761655
 Vib (Bot)    7  0.193247D+01          0.286113          0.658800
 Vib (Bot)    8  0.191378D+01          0.281893          0.649082
 Vib (Bot)    9  0.149331D+01          0.174151          0.400997
 Vib (Bot)   10  0.131896D+01          0.120232          0.276845
 Vib (Bot)   11  0.114468D+01          0.058682          0.135121
 Vib (Bot)   12  0.889444D+00         -0.050881         -0.117159
 Vib (Bot)   13  0.828024D+00         -0.081957         -0.188713
 Vib (Bot)   14  0.750072D+00         -0.124897         -0.287586
 Vib (Bot)   15  0.738906D+00         -0.131411         -0.302585
 Vib (Bot)   16  0.689176D+00         -0.161670         -0.372258
 Vib (Bot)   17  0.636830D+00         -0.195977         -0.451253
 Vib (Bot)   18  0.635320D+00         -0.197008         -0.453627
 Vib (Bot)   19  0.617790D+00         -0.209159         -0.481606
 Vib (Bot)   20  0.603824D+00         -0.219089         -0.504472
 Vib (Bot)   21  0.553414D+00         -0.256950         -0.591649
 Vib (Bot)   22  0.530541D+00         -0.275281         -0.633858
 Vib (Bot)   23  0.499163D+00         -0.301758         -0.694824
 Vib (Bot)   24  0.471574D+00         -0.326450         -0.751679
 Vib (Bot)   25  0.468608D+00         -0.329190         -0.757988
 Vib (Bot)   26  0.399863D+00         -0.398088         -0.916632
 Vib (Bot)   27  0.381797D+00         -0.418167         -0.962865
 Vib (Bot)   28  0.320143D+00         -0.494656         -1.138988
 Vib (Bot)   29  0.307906D+00         -0.511582         -1.177961
 Vib (Bot)   30  0.269940D+00         -0.568732         -1.309554
 Vib (Bot)   31  0.262023D+00         -0.581661         -1.339325
 Vib (Bot)   32  0.241313D+00         -0.617418         -1.421658
 Vib (V=0)       0.901251D+08          7.954846         18.316709
 Vib (V=0)    1  0.101075D+02          1.004644          2.313279
 Vib (V=0)    2  0.897704D+01          0.953133          2.194670
 Vib (V=0)    3  0.683291D+01          0.834606          1.921751
 Vib (V=0)    4  0.342890D+01          0.535155          1.232239
 Vib (V=0)    5  0.312087D+01          0.494276          1.138112
 Vib (V=0)    6  0.269941D+01          0.431268          0.993032
 Vib (V=0)    7  0.249611D+01          0.397264          0.914733
 Vib (V=0)    8  0.247802D+01          0.394105          0.907460
 Vib (V=0)    9  0.207480D+01          0.316975          0.729863
 Vib (V=0)   10  0.191055D+01          0.281159          0.647393
 Vib (V=0)   11  0.174911D+01          0.242818          0.559108
 Vib (V=0)   12  0.152035D+01          0.181943          0.418939
 Vib (V=0)   13  0.146728D+01          0.166512          0.383408
 Vib (V=0)   14  0.140145D+01          0.146577          0.337506
 Vib (V=0)   15  0.139218D+01          0.143695          0.330869
 Vib (V=0)   16  0.135145D+01          0.130799          0.301177
 Vib (V=0)   17  0.130966D+01          0.117159          0.269769
 Vib (V=0)   18  0.130847D+01          0.116765          0.268862
 Vib (V=0)   19  0.129477D+01          0.112194          0.258336
 Vib (V=0)   20  0.128397D+01          0.108554          0.249954
 Vib (V=0)   21  0.124583D+01          0.095460          0.219804
 Vib (V=0)   22  0.122902D+01          0.089560          0.206219
 Vib (V=0)   23  0.120651D+01          0.081533          0.187736
 Vib (V=0)   24  0.118730D+01          0.074561          0.171682
 Vib (V=0)   25  0.118527D+01          0.073817          0.169970
 Vib (V=0)   26  0.114023D+01          0.056991          0.131227
 Vib (V=0)   27  0.112910D+01          0.052733          0.121423
 Vib (V=0)   28  0.109371D+01          0.038902          0.089575
 Vib (V=0)   29  0.108720D+01          0.036310          0.083607
 Vib (V=0)   30  0.106821D+01          0.028659          0.065989
 Vib (V=0)   31  0.106450D+01          0.027144          0.062502
 Vib (V=0)   32  0.105519D+01          0.023329          0.053718
 Electronic      0.300000D+01          0.477121          1.098612
 Translational   0.146281D+09          8.165187         18.801037
 Rotational      0.439138D+07          6.642601         15.295155
 -------------------------------------------------------------------
 Center     Atomic                   Forces (Hartrees/Bohr)
 Number     Number              X              Y              Z
 -------------------------------------------------------------------
      1        6           0.000007248   -0.000000365    0.000002918
      2        6          -0.000003246   -0.000008376    0.000000929
      3        1          -0.000002410    0.000000164   -0.000001179
      4        6          -0.000008212   -0.000003554   -0.000013991
      5        1           0.000002854   -0.000001264    0.000001683
      6        1           0.000003165    0.000001419   -0.000001575
      7        1           0.000001557    0.000002742   -0.000000465
      8        6           0.000008647   -0.000002838   -0.000010728
      9        8          -0.000006838    0.000002788    0.000006497
     10        8          -0.000002868   -0.000006870    0.000001721
     11        6          -0.000004492    0.000005769    0.000001335
     12        1           0.000000153    0.000000369    0.000001515
     13        1           0.000002230   -0.000000532    0.000002456
     14        5           0.000012153    0.000007625    0.000001836
     15        8          -0.000004459    0.000006689   -0.000007986
     16        8          -0.000001429   -0.000005729    0.000006579
     17        6           0.000002159   -0.000004521    0.000001180
     18        6          -0.000006735    0.000000642   -0.000000774
     19        6           0.000005762    0.000002450    0.000006257
     20        6          -0.000002106    0.000004766   -0.000002637
     21        6           0.000000504   -0.000001813    0.000000149
     22        6           0.000004842    0.000004658   -0.000001181
     23        1          -0.000001249   -0.000002092   -0.000001074
     24        1          -0.000000344    0.000000166    0.000001717
     25        1          -0.000001028   -0.000000966    0.000002315
     26        1          -0.000000742    0.000002499    0.000001494
     27        1          -0.000001482    0.000001053    0.000001233
     28        1          -0.000001685   -0.000002739    0.000003365
     29        1           0.000000452   -0.000000540   -0.000001219
     30        1          -0.000001734    0.000000846   -0.000000980
     31        1          -0.000000684    0.000001109   -0.000002091
     32        1           0.000000102   -0.000003281    0.000000799
     33        1           0.000001770   -0.000003145   -0.000000470
     34        1           0.000000258   -0.000001220    0.000000445
     35        6           0.000002173    0.000002960   -0.000000934
     36        1          -0.000001296    0.000001327    0.000000353
     37        1          -0.000000834   -0.000001284    0.000000728
     38        1          -0.000002156    0.000001087   -0.000000221
 -------------------------------------------------------------------
 Cartesian Forces:  Max     0.000013991 RMS     0.000003810
 FormGI is forming the generalized inverse of G from B-inverse, IUseBI=4.
 Leave Link  716 at Tue Aug 18 18:20:00 2026, MaxMem=  2684354560 cpu:               0.1 elap:               0.1
 (Enter /mnt/data/applications/G16/g16/l103.exe)

 GradGradGradGradGradGradGradGradGradGradGradGradGradGradGradGradGradGrad
 Berny optimization.
 Red2BG is reusing G-inverse.
 Internal  Forces:  Max     0.000010816 RMS     0.000002284
 Search for a local minimum.
 Step number   1 out of a maximum of    2
 All quantities printed in internal units (Hartrees-Bohrs-Radians)
 Second derivative matrix not updated -- analytic derivatives used.
 ITU=  0
     Eigenvalues ---    0.00127   0.00229   0.00262   0.00280   0.00282
     Eigenvalues ---    0.00387   0.00431   0.00464   0.00610   0.00634
     Eigenvalues ---    0.00768   0.00822   0.01096   0.01297   0.01773
     Eigenvalues ---    0.02743   0.03304   0.03995   0.04175   0.04194
     Eigenvalues ---    0.04227   0.04267   0.04324   0.04333   0.04368
     Eigenvalues ---    0.04376   0.04441   0.04550   0.04558   0.05251
     Eigenvalues ---    0.05477   0.05975   0.06053   0.06440   0.07026
     Eigenvalues ---    0.07532   0.09099   0.09287   0.09490   0.09510
     Eigenvalues ---    0.09815   0.11557   0.11815   0.11876   0.11900
     Eigenvalues ---    0.11988   0.12130   0.12200   0.12414   0.12709
     Eigenvalues ---    0.12814   0.13164   0.13265   0.13348   0.13987
     Eigenvalues ---    0.14046   0.14497   0.14651   0.14663   0.15051
     Eigenvalues ---    0.15565   0.15756   0.16286   0.18439   0.18776
     Eigenvalues ---    0.19151   0.20767   0.22940   0.23353   0.23661
     Eigenvalues ---    0.25267   0.25574   0.27690   0.28403   0.28635
     Eigenvalues ---    0.29065   0.30063   0.30821   0.31250   0.32215
     Eigenvalues ---    0.32659   0.32760   0.32885   0.33046   0.33444
     Eigenvalues ---    0.33724   0.33773   0.33792   0.33868   0.33958
     Eigenvalues ---    0.33963   0.34023   0.34032   0.34097   0.34229
     Eigenvalues ---    0.34314   0.34421   0.34486   0.34520   0.34759
     Eigenvalues ---    0.34898   0.34956   0.35411   0.35673   0.37837
     Eigenvalues ---    0.38480   0.45440   0.78283
 Angle between quadratic step and forces=  73.12 degrees.
 Linear search not attempted -- first point.
 Iteration  1 RMS(Cart)=  0.00091596 RMS(Int)=  0.00000016
 Iteration  2 RMS(Cart)=  0.00000032 RMS(Int)=  0.00000000
 ITry= 1 IFail=0 DXMaxC= 3.46D-03 DCOld= 1.00D+10 DXMaxT= 3.00D-01 DXLimC= 3.00D+00 Rises=F
 Variable       Old X    -DE/DX   Delta X   Delta X   Delta X     New X
                                 (Linear)    (Quad)   (Total)
    R1        2.75580  -0.00001   0.00000  -0.00002  -0.00002   2.75578
    R2        2.83693  -0.00001   0.00000  -0.00005  -0.00005   2.83689
    R3        2.90531  -0.00001   0.00000  -0.00002  -0.00002   2.90530
    R4        2.07046  -0.00000   0.00000  -0.00000  -0.00000   2.07045
    R5        2.74518  -0.00000   0.00000   0.00000   0.00000   2.74519
    R6        2.09207   0.00000   0.00000   0.00003   0.00003   2.09210
    R7        2.07626  -0.00000   0.00000  -0.00001  -0.00001   2.07625
    R8        2.08912  -0.00000   0.00000  -0.00002  -0.00002   2.08910
    R9        2.32028   0.00001   0.00000   0.00002   0.00002   2.32030
   R10        2.56079  -0.00000   0.00000  -0.00002  -0.00002   2.56077
   R11        2.73140   0.00001   0.00000   0.00003   0.00003   2.73143
   R12        2.08197  -0.00000   0.00000  -0.00001  -0.00001   2.08196
   R13        2.08211   0.00000   0.00000   0.00001   0.00001   2.08212
   R14        2.86004   0.00000   0.00000   0.00001   0.00001   2.86005
   R15        2.60306   0.00001   0.00000   0.00003   0.00003   2.60309
   R16        2.60224   0.00001   0.00000   0.00002   0.00002   2.60226
   R17        2.76371   0.00000   0.00000  -0.00000  -0.00000   2.76371
   R18        2.76552   0.00000   0.00000   0.00003   0.00003   2.76554
   R19        2.97244   0.00000   0.00000  -0.00003  -0.00003   2.97240
   R20        2.89140   0.00000   0.00000   0.00001   0.00001   2.89142
   R21        2.87644   0.00000   0.00000   0.00000   0.00000   2.87644
   R22        2.89084   0.00000   0.00000   0.00000   0.00000   2.89084
   R23        2.87660  -0.00000   0.00000  -0.00002  -0.00002   2.87658
   R24        2.07862  -0.00000   0.00000  -0.00001  -0.00001   2.07861
   R25        2.07856   0.00000   0.00000  -0.00000  -0.00000   2.07856
   R26        2.07824   0.00000   0.00000   0.00001   0.00001   2.07824
   R27        2.07403  -0.00000   0.00000  -0.00000  -0.00000   2.07403
   R28        2.08034   0.00000   0.00000   0.00000   0.00000   2.08034
   R29        2.07924  -0.00000   0.00000  -0.00001  -0.00001   2.07923
   R30        2.07857   0.00000   0.00000   0.00000   0.00000   2.07857
   R31        2.07831   0.00000   0.00000   0.00000   0.00000   2.07832
   R32        2.07861   0.00000   0.00000   0.00000   0.00000   2.07861
   R33        2.07925   0.00000   0.00000   0.00001   0.00001   2.07925
   R34        2.07404  -0.00000   0.00000  -0.00001  -0.00001   2.07404
   R35        2.08031   0.00000   0.00000   0.00000   0.00000   2.08031
   R36        2.08083   0.00000   0.00000   0.00000   0.00000   2.08083
   R37        2.08038  -0.00000   0.00000  -0.00001  -0.00001   2.08037
   R38        2.08086  -0.00000   0.00000  -0.00000  -0.00000   2.08085
    A1        2.06521   0.00001   0.00000   0.00008   0.00008   2.06529
    A2        2.08805  -0.00001   0.00000  -0.00015  -0.00015   2.08790
    A3        2.12621   0.00001   0.00000   0.00005   0.00005   2.12626
    A4        2.12330   0.00000   0.00000   0.00001   0.00001   2.12331
    A5        2.10278  -0.00000   0.00000  -0.00004  -0.00004   2.10274
    A6        2.05687   0.00000   0.00000   0.00002   0.00002   2.05689
    A7        1.92214   0.00000   0.00000  -0.00000  -0.00000   1.92214
    A8        1.94620   0.00000   0.00000   0.00002   0.00002   1.94622
    A9        1.94304   0.00000   0.00000   0.00005   0.00005   1.94309
   A10        1.89577  -0.00000   0.00000  -0.00008  -0.00008   1.89569
   A11        1.85076  -0.00000   0.00000  -0.00005  -0.00005   1.85071
   A12        1.90293   0.00000   0.00000   0.00005   0.00005   1.90298
   A13        2.17433  -0.00000   0.00000  -0.00002  -0.00002   2.17431
   A14        1.95601   0.00000   0.00000   0.00002   0.00002   1.95604
   A15        2.15283  -0.00000   0.00000  -0.00001  -0.00001   2.15283
   A16        2.02295   0.00000   0.00000   0.00000   0.00000   2.02295
   A17        1.89902   0.00000   0.00000   0.00000   0.00000   1.89902
   A18        1.89937  -0.00000   0.00000  -0.00001  -0.00001   1.89935
   A19        1.87452  -0.00000   0.00000  -0.00001  -0.00001   1.87451
   A20        1.87707   0.00000   0.00000   0.00001   0.00001   1.87708
   A21        1.95654   0.00000   0.00000   0.00001   0.00001   1.95655
   A22        1.95617   0.00000   0.00000  -0.00000  -0.00000   1.95617
   A23        2.15264  -0.00000   0.00000  -0.00004  -0.00004   2.15261
   A24        2.15106   0.00000   0.00000   0.00004   0.00004   2.15110
   A25        1.97941  -0.00000   0.00000  -0.00000  -0.00000   1.97941
   A26        1.86626  -0.00000   0.00000  -0.00004  -0.00004   1.86622
   A27        1.86754  -0.00000   0.00000  -0.00002  -0.00002   1.86752
   A28        1.78603   0.00000   0.00000  -0.00000  -0.00000   1.78603
   A29        1.85881  -0.00000   0.00000  -0.00001  -0.00001   1.85880
   A30        1.89635  -0.00000   0.00000   0.00002   0.00002   1.89636
   A31        1.97598  -0.00000   0.00000  -0.00002  -0.00002   1.97596
   A32        2.00532   0.00000   0.00000   0.00001   0.00001   2.00533
   A33        1.92846   0.00000   0.00000   0.00001   0.00001   1.92847
   A34        1.78607   0.00000   0.00000  -0.00002  -0.00002   1.78605
   A35        1.86046   0.00000   0.00000   0.00001   0.00001   1.86047
   A36        1.89435  -0.00000   0.00000  -0.00000  -0.00000   1.89435
   A37        1.97596  -0.00000   0.00000  -0.00000  -0.00000   1.97595
   A38        2.00501  -0.00000   0.00000  -0.00000  -0.00000   2.00501
   A39        1.92909   0.00000   0.00000   0.00001   0.00001   1.92910
   A40        1.94232  -0.00000   0.00000  -0.00001  -0.00001   1.94231
   A41        1.89985   0.00000   0.00000  -0.00000  -0.00000   1.89985
   A42        1.94504  -0.00000   0.00000  -0.00000  -0.00000   1.94504
   A43        1.88675   0.00000   0.00000   0.00001   0.00001   1.88676
   A44        1.89631   0.00000   0.00000  -0.00000  -0.00000   1.89631
   A45        1.89203   0.00000   0.00000   0.00000   0.00000   1.89204
   A46        1.94939  -0.00000   0.00000  -0.00002  -0.00002   1.94937
   A47        1.92800   0.00000   0.00000   0.00000   0.00000   1.92800
   A48        1.91413   0.00000   0.00000   0.00001   0.00001   1.91414
   A49        1.89660   0.00000   0.00000   0.00001   0.00001   1.89661
   A50        1.88886   0.00000   0.00000   0.00000   0.00000   1.88886
   A51        1.88529  -0.00000   0.00000  -0.00000  -0.00000   1.88529
   A52        1.90062   0.00000   0.00000   0.00001   0.00001   1.90062
   A53        1.94440  -0.00000   0.00000  -0.00001  -0.00001   1.94438
   A54        1.94223  -0.00000   0.00000  -0.00000  -0.00000   1.94223
   A55        1.89150   0.00000   0.00000   0.00001   0.00001   1.89151
   A56        1.88850   0.00000   0.00000   0.00001   0.00001   1.88851
   A57        1.89513  -0.00000   0.00000  -0.00001  -0.00001   1.89513
   A58        1.91456   0.00000   0.00000   0.00002   0.00002   1.91457
   A59        1.94880  -0.00000   0.00000  -0.00000  -0.00000   1.94879
   A60        1.92797  -0.00000   0.00000  -0.00000  -0.00000   1.92797
   A61        1.88893  -0.00000   0.00000   0.00000   0.00000   1.88893
   A62        1.88554  -0.00000   0.00000  -0.00002  -0.00002   1.88552
   A63        1.89651   0.00000   0.00000   0.00001   0.00001   1.89652
   A64        1.93513   0.00000   0.00000  -0.00000  -0.00000   1.93513
   A65        1.91591  -0.00000   0.00000  -0.00000  -0.00000   1.91591
   A66        1.93531  -0.00000   0.00000  -0.00000  -0.00000   1.93531
   A67        1.89143  -0.00000   0.00000   0.00000   0.00000   1.89143
   A68        1.89364  -0.00000   0.00000   0.00000   0.00000   1.89364
   A69        1.89128   0.00000   0.00000   0.00000   0.00000   1.89128
    D1        1.58849  -0.00000   0.00000  -0.00011  -0.00011   1.58837
    D2       -1.57685  -0.00000   0.00000  -0.00049  -0.00049  -1.57734
    D3       -1.64386  -0.00000   0.00000  -0.00044  -0.00044  -1.64430
    D4        1.47400  -0.00000   0.00000  -0.00082  -0.00082   1.47317
    D5        1.06860   0.00000   0.00000   0.00063   0.00063   1.06923
    D6       -3.10864  -0.00000   0.00000   0.00054   0.00054  -3.10810
    D7       -0.97912   0.00000   0.00000   0.00066   0.00066  -0.97846
    D8       -1.98015   0.00000   0.00000   0.00098   0.00098  -1.97917
    D9        0.12579   0.00000   0.00000   0.00089   0.00089   0.12668
   D10        2.25531   0.00000   0.00000   0.00101   0.00101   2.25631
   D11        0.06339  -0.00000   0.00000  -0.00017  -0.00017   0.06322
   D12       -3.06466  -0.00000   0.00000  -0.00008  -0.00008  -3.06474
   D13        3.11095  -0.00000   0.00000  -0.00050  -0.00050   3.11045
   D14       -0.01709  -0.00000   0.00000  -0.00042  -0.00042  -0.01751
   D15       -0.00638  -0.00000   0.00000  -0.00001  -0.00001  -0.00639
   D16        3.13945   0.00000   0.00000   0.00009   0.00009   3.13953
   D17        3.11235  -0.00000   0.00000  -0.00037  -0.00037   3.11198
   D18       -0.02500  -0.00000   0.00000  -0.00028  -0.00028  -0.02528
   D19        3.13332  -0.00000   0.00000  -0.00010  -0.00010   3.13322
   D20       -0.00409   0.00000   0.00000  -0.00001  -0.00001  -0.00411
   D21       -1.01054   0.00000   0.00000   0.00029   0.00029  -1.01026
   D22        1.02995   0.00000   0.00000   0.00029   0.00029   1.03024
   D23       -3.13201   0.00000   0.00000   0.00027   0.00027  -3.13174
   D24        1.05263   0.00000   0.00000   0.00002   0.00002   1.05265
   D25       -3.14131   0.00000   0.00000   0.00002   0.00002  -3.14128
   D26       -1.05213   0.00000   0.00000   0.00002   0.00002  -1.05210
   D27       -1.03243  -0.00000   0.00000   0.00002   0.00002  -1.03241
   D28        1.05682  -0.00000   0.00000   0.00002   0.00002   1.05684
   D29       -3.13718   0.00000   0.00000   0.00002   0.00002  -3.13716
   D30        3.13789  -0.00000   0.00000   0.00000   0.00000   3.13789
   D31       -1.05604  -0.00000   0.00000  -0.00000  -0.00000  -1.05605
   D32        1.03313  -0.00000   0.00000   0.00000   0.00000   1.03314
   D33       -2.95083   0.00000   0.00000   0.00023   0.00023  -2.95060
   D34        0.17842   0.00000   0.00000   0.00015   0.00015   0.17856
   D35       -2.99595  -0.00000   0.00000  -0.00013  -0.00013  -2.99608
   D36        0.15798  -0.00000   0.00000  -0.00005  -0.00005   0.15792
   D37       -0.40686  -0.00000   0.00000  -0.00018  -0.00018  -0.40703
   D38        1.67099  -0.00000   0.00000  -0.00021  -0.00021   1.67078
   D39       -2.53461  -0.00000   0.00000  -0.00020  -0.00020  -2.53481
   D40       -0.39522  -0.00000   0.00000  -0.00006  -0.00006  -0.39528
   D41        1.68330   0.00000   0.00000  -0.00007  -0.00007   1.68323
   D42       -2.52171   0.00000   0.00000  -0.00005  -0.00005  -2.52176
   D43        0.48456   0.00000   0.00000   0.00015   0.00015   0.48471
   D44       -1.51080  -0.00000   0.00000   0.00015   0.00015  -1.51065
   D45        2.53350  -0.00000   0.00000   0.00013   0.00013   2.53364
   D46       -1.50886   0.00000   0.00000   0.00018   0.00018  -1.50868
   D47        2.77898   0.00000   0.00000   0.00018   0.00018   2.77915
   D48        0.54009   0.00000   0.00000   0.00016   0.00016   0.54025
   D49        2.53604   0.00000   0.00000   0.00017   0.00017   2.53621
   D50        0.54069   0.00000   0.00000   0.00017   0.00017   0.54086
   D51       -1.69820  -0.00000   0.00000   0.00016   0.00016  -1.69804
   D52       -1.08990  -0.00000   0.00000  -0.00005  -0.00005  -1.08996
   D53        0.98774  -0.00000   0.00000  -0.00005  -0.00005   0.98769
   D54        3.07357  -0.00000   0.00000  -0.00004  -0.00004   3.07353
   D55        0.85931   0.00000   0.00000  -0.00007  -0.00007   0.85923
   D56        2.93695   0.00000   0.00000  -0.00007  -0.00007   2.93688
   D57       -1.26040   0.00000   0.00000  -0.00007  -0.00007  -1.26047
   D58        3.13679  -0.00000   0.00000  -0.00007  -0.00007   3.13672
   D59       -1.06876   0.00000   0.00000  -0.00006  -0.00006  -1.06882
   D60        1.01708   0.00000   0.00000  -0.00006  -0.00006   1.01701
   D61        0.94686   0.00000   0.00000  -0.00007  -0.00007   0.94679
   D62        3.05999   0.00000   0.00000  -0.00007  -0.00007   3.05991
   D63       -1.14711   0.00000   0.00000  -0.00007  -0.00007  -1.14718
   D64       -1.04111  -0.00000   0.00000  -0.00009  -0.00009  -1.04120
   D65        1.07202  -0.00000   0.00000  -0.00009  -0.00009   1.07193
   D66       -3.13508  -0.00000   0.00000  -0.00008  -0.00008  -3.13516
   D67        2.98018  -0.00000   0.00000  -0.00007  -0.00007   2.98011
   D68       -1.18988   0.00000   0.00000  -0.00007  -0.00007  -1.18995
   D69        0.88621   0.00000   0.00000  -0.00007  -0.00007   0.88614
   D70        0.98412  -0.00000   0.00000  -0.00006  -0.00006   0.98406
   D71        3.06938  -0.00000   0.00000  -0.00006  -0.00006   3.06933
   D72       -1.09611  -0.00000   0.00000  -0.00007  -0.00007  -1.09619
   D73        2.93431   0.00000   0.00000  -0.00008  -0.00008   2.93424
   D74       -1.26361   0.00000   0.00000  -0.00007  -0.00007  -1.26368
   D75        0.85408   0.00000   0.00000  -0.00009  -0.00009   0.85399
   D76       -1.07128   0.00000   0.00000  -0.00007  -0.00007  -1.07135
   D77        1.01398   0.00000   0.00000  -0.00007  -0.00007   1.01392
   D78        3.13167  -0.00000   0.00000  -0.00009  -0.00009   3.13158
   D79       -1.15109  -0.00000   0.00000  -0.00012  -0.00012  -1.15122
   D80        0.94286  -0.00000   0.00000  -0.00012  -0.00012   0.94274
   D81        3.05545  -0.00000   0.00000  -0.00011  -0.00011   3.05534
   D82       -3.13762  -0.00000   0.00000  -0.00010  -0.00010  -3.13771
   D83       -1.04366  -0.00000   0.00000  -0.00009  -0.00009  -1.04375
   D84        1.06893   0.00000   0.00000  -0.00009  -0.00009   1.06884
   D85        0.88340  -0.00000   0.00000  -0.00010  -0.00010   0.88330
   D86        2.97735   0.00000   0.00000  -0.00009  -0.00009   2.97726
   D87       -1.19324   0.00000   0.00000  -0.00009  -0.00009  -1.19333
         Item               Value     Threshold  Converged?
 Maximum Force            0.000011     0.000450     YES
 RMS     Force            0.000002     0.000300     YES
 Maximum Displacement     0.003459     0.001800     NO 
 RMS     Displacement     0.000916     0.001200     YES
 Predicted change in Energy=-1.196247D-08
                           ----------------------------
                           ! Non-Optimized Parameters !
                           ! (Angstroms and Degrees)  !
 --------------------------                            --------------------------
 ! Name  Definition              Value          Derivative Info.                !
 --------------------------------------------------------------------------------
 ! R1    R(1,2)                  1.4583         -DE/DX =    0.0                 !
 ! R2    R(1,4)                  1.5012         -DE/DX =    0.0                 !
 ! R3    R(1,14)                 1.5374         -DE/DX =    0.0                 !
 ! R4    R(2,3)                  1.0956         -DE/DX =    0.0                 !
 ! R5    R(2,8)                  1.4527         -DE/DX =    0.0                 !
 ! R6    R(4,5)                  1.1071         -DE/DX =    0.0                 !
 ! R7    R(4,6)                  1.0987         -DE/DX =    0.0                 !
 ! R8    R(4,7)                  1.1055         -DE/DX =    0.0                 !
 ! R9    R(8,9)                  1.2278         -DE/DX =    0.0                 !
 ! R10   R(8,10)                 1.3551         -DE/DX =    0.0                 !
 ! R11   R(10,11)                1.4454         -DE/DX =    0.0                 !
 ! R12   R(11,12)                1.1017         -DE/DX =    0.0                 !
 ! R13   R(11,13)                1.1018         -DE/DX =    0.0                 !
 ! R14   R(11,35)                1.5135         -DE/DX =    0.0                 !
 ! R15   R(14,15)                1.3775         -DE/DX =    0.0                 !
 ! R16   R(14,16)                1.3771         -DE/DX =    0.0                 !
 ! R17   R(15,17)                1.4625         -DE/DX =    0.0                 !
 ! R18   R(16,18)                1.4635         -DE/DX =    0.0                 !
 ! R19   R(17,18)                1.5729         -DE/DX =    0.0                 !
 ! R20   R(17,19)                1.5301         -DE/DX =    0.0                 !
 ! R21   R(17,20)                1.5221         -DE/DX =    0.0                 !
 ! R22   R(18,21)                1.5298         -DE/DX =    0.0                 !
 ! R23   R(18,22)                1.5222         -DE/DX =    0.0                 !
 ! R24   R(19,23)                1.1            -DE/DX =    0.0                 !
 ! R25   R(19,24)                1.0999         -DE/DX =    0.0                 !
 ! R26   R(19,25)                1.0998         -DE/DX =    0.0                 !
 ! R27   R(20,26)                1.0975         -DE/DX =    0.0                 !
 ! R28   R(20,27)                1.1009         -DE/DX =    0.0                 !
 ! R29   R(20,28)                1.1003         -DE/DX =    0.0                 !
 ! R30   R(21,29)                1.0999         -DE/DX =    0.0                 !
 ! R31   R(21,30)                1.0998         -DE/DX =    0.0                 !
 ! R32   R(21,31)                1.1            -DE/DX =    0.0                 !
 ! R33   R(22,32)                1.1003         -DE/DX =    0.0                 !
 ! R34   R(22,33)                1.0975         -DE/DX =    0.0                 !
 ! R35   R(22,34)                1.1009         -DE/DX =    0.0                 !
 ! R36   R(35,36)                1.1011         -DE/DX =    0.0                 !
 ! R37   R(35,37)                1.1009         -DE/DX =    0.0                 !
 ! R38   R(35,38)                1.1011         -DE/DX =    0.0                 !
 ! A1    A(2,1,4)              118.3325         -DE/DX =    0.0                 !
 ! A2    A(2,1,14)             119.6276         -DE/DX =    0.0                 !
 ! A3    A(4,1,14)             121.8258         -DE/DX =    0.0                 !
 ! A4    A(1,2,3)              121.6568         -DE/DX =    0.0                 !
 ! A5    A(1,2,8)              120.4782         -DE/DX =    0.0                 !
 ! A6    A(3,2,8)              117.8512         -DE/DX =    0.0                 !
 ! A7    A(1,4,5)              110.1305         -DE/DX =    0.0                 !
 ! A8    A(1,4,6)              111.5102         -DE/DX =    0.0                 !
 ! A9    A(1,4,7)              111.3306         -DE/DX =    0.0                 !
 ! A10   A(5,4,6)              108.6149         -DE/DX =    0.0                 !
 ! A11   A(5,4,7)              106.0381         -DE/DX =    0.0                 !
 ! A12   A(6,4,7)              109.0328         -DE/DX =    0.0                 !
 ! A13   A(2,8,9)              124.5788         -DE/DX =    0.0                 !
 ! A14   A(2,8,10)             112.0727         -DE/DX =    0.0                 !
 ! A15   A(9,8,10)             123.3479         -DE/DX =    0.0                 !
 ! A16   A(8,10,11)            115.9065         -DE/DX =    0.0                 !
 ! A17   A(10,11,12)           108.8058         -DE/DX =    0.0                 !
 ! A18   A(10,11,13)           108.8249         -DE/DX =    0.0                 !
 ! A19   A(10,11,35)           107.4014         -DE/DX =    0.0                 !
 ! A20   A(12,11,13)           107.5489         -DE/DX =    0.0                 !
 ! A21   A(12,11,35)           112.1023         -DE/DX =    0.0                 !
 ! A22   A(13,11,35)           112.08           -DE/DX =    0.0                 !
 ! A23   A(1,14,15)            123.3353         -DE/DX =    0.0                 !
 ! A24   A(1,14,16)            123.2488         -DE/DX =    0.0                 !
 ! A25   A(15,14,16)           113.4119         -DE/DX =    0.0                 !
 ! A26   A(14,15,17)           106.9263         -DE/DX =    0.0                 !
 ! A27   A(14,16,18)           107.0008         -DE/DX =    0.0                 !
 ! A28   A(15,17,18)           102.332          -DE/DX =    0.0                 !
 ! A29   A(15,17,19)           106.5013         -DE/DX =    0.0                 !
 ! A30   A(15,17,20)           108.6537         -DE/DX =    0.0                 !
 ! A31   A(18,17,19)           113.2141         -DE/DX =    0.0                 !
 ! A32   A(18,17,20)           114.8968         -DE/DX =    0.0                 !
 ! A33   A(19,17,20)           110.4931         -DE/DX =    0.0                 !
 ! A34   A(16,18,17)           102.333          -DE/DX =    0.0                 !
 ! A35   A(16,18,21)           106.5973         -DE/DX =    0.0                 !
 ! A36   A(16,18,22)           108.538          -DE/DX =    0.0                 !
 ! A37   A(17,18,21)           113.2138         -DE/DX =    0.0                 !
 ! A38   A(17,18,22)           114.8785         -DE/DX =    0.0                 !
 ! A39   A(21,18,22)           110.5294         -DE/DX =    0.0                 !
 ! A40   A(17,19,23)           111.2864         -DE/DX =    0.0                 !
 ! A41   A(17,19,24)           108.8533         -DE/DX =    0.0                 !
 ! A42   A(17,19,25)           111.4425         -DE/DX =    0.0                 !
 ! A43   A(23,19,24)           108.1034         -DE/DX =    0.0                 !
 ! A44   A(23,19,25)           108.6507         -DE/DX =    0.0                 !
 ! A45   A(24,19,25)           108.4058         -DE/DX =    0.0                 !
 ! A46   A(17,20,26)           111.6909         -DE/DX =    0.0                 !
 ! A47   A(17,20,27)           110.4665         -DE/DX =    0.0                 !
 ! A48   A(17,20,28)           109.6723         -DE/DX =    0.0                 !
 ! A49   A(26,20,27)           108.6678         -DE/DX =    0.0                 !
 ! A50   A(26,20,28)           108.2238         -DE/DX =    0.0                 !
 ! A51   A(27,20,28)           108.019          -DE/DX =    0.0                 !
 ! A52   A(18,21,29)           108.8976         -DE/DX =    0.0                 !
 ! A53   A(18,21,30)           111.4049         -DE/DX =    0.0                 !
 ! A54   A(18,21,31)           111.2814         -DE/DX =    0.0                 !
 ! A55   A(29,21,30)           108.3753         -DE/DX =    0.0                 !
 ! A56   A(29,21,31)           108.2036         -DE/DX =    0.0                 !
 ! A57   A(30,21,31)           108.5828         -DE/DX =    0.0                 !
 ! A58   A(18,22,32)           109.697          -DE/DX =    0.0                 !
 ! A59   A(18,22,33)           111.6576         -DE/DX =    0.0                 !
 ! A60   A(18,22,34)           110.4644         -DE/DX =    0.0                 !
 ! A61   A(32,22,33)           108.2277         -DE/DX =    0.0                 !
 ! A62   A(32,22,34)           108.0324         -DE/DX =    0.0                 !
 ! A63   A(33,22,34)           108.6626         -DE/DX =    0.0                 !
 ! A64   A(11,35,36)           110.8746         -DE/DX =    0.0                 !
 ! A65   A(11,35,37)           109.7734         -DE/DX =    0.0                 !
 ! A66   A(11,35,38)           110.8851         -DE/DX =    0.0                 !
 ! A67   A(36,35,37)           108.3708         -DE/DX =    0.0                 !
 ! A68   A(36,35,38)           108.4979         -DE/DX =    0.0                 !
 ! A69   A(37,35,38)           108.3623         -DE/DX =    0.0                 !
 ! D1    D(4,1,2,3)             91.0069         -DE/DX =    0.0                 !
 ! D2    D(4,1,2,8)            -90.3749         -DE/DX =    0.0                 !
 ! D3    D(14,1,2,3)           -94.2114         -DE/DX =    0.0                 !
 ! D4    D(14,1,2,8)            84.4067         -DE/DX =    0.0                 !
 ! D5    D(2,1,4,5)             61.2626         -DE/DX =    0.0                 !
 ! D6    D(2,1,4,6)           -178.081          -DE/DX =    0.0                 !
 ! D7    D(2,1,4,7)            -56.0619         -DE/DX =    0.0                 !
 ! D8    D(14,1,4,5)          -113.3983         -DE/DX =    0.0                 !
 ! D9    D(14,1,4,6)             7.2581         -DE/DX =    0.0                 !
 ! D10   D(14,1,4,7)           129.2773         -DE/DX =    0.0                 !
 ! D11   D(2,1,14,15)            3.6222         -DE/DX =    0.0                 !
 ! D12   D(2,1,14,16)         -175.5966         -DE/DX =    0.0                 !
 ! D13   D(4,1,14,15)          178.2157         -DE/DX =    0.0                 !
 ! D14   D(4,1,14,16)           -1.0032         -DE/DX =    0.0                 !
 ! D15   D(1,2,8,9)             -0.3661         -DE/DX =    0.0                 !
 ! D16   D(1,2,8,10)           179.882          -DE/DX =    0.0                 !
 ! D17   D(3,2,8,9)            178.3036         -DE/DX =    0.0                 !
 ! D18   D(3,2,8,10)            -1.4484         -DE/DX =    0.0                 !
 ! D19   D(2,8,10,11)          179.5202         -DE/DX =    0.0                 !
 ! D20   D(9,8,10,11)           -0.2354         -DE/DX =    0.0                 !
 ! D21   D(8,10,11,12)         -57.8835         -DE/DX =    0.0                 !
 ! D22   D(8,10,11,13)          59.0283         -DE/DX =    0.0                 !
 ! D23   D(8,10,11,35)        -179.4355         -DE/DX =    0.0                 !
 ! D24   D(10,11,35,36)         60.3126         -DE/DX =    0.0                 !
 ! D25   D(10,11,35,37)       -179.9824         -DE/DX =    0.0                 !
 ! D26   D(10,11,35,38)        -60.2812         -DE/DX =    0.0                 !
 ! D27   D(12,11,35,36)        -59.1525         -DE/DX =    0.0                 !
 ! D28   D(12,11,35,37)         60.5525         -DE/DX =    0.0                 !
 ! D29   D(12,11,35,38)       -179.7463         -DE/DX =    0.0                 !
 ! D30   D(13,11,35,36)        179.788          -DE/DX =    0.0                 !
 ! D31   D(13,11,35,37)        -60.5069         -DE/DX =    0.0                 !
 ! D32   D(13,11,35,38)         59.1943         -DE/DX =    0.0                 !
 ! D33   D(1,14,15,17)        -169.0571         -DE/DX =    0.0                 !
 ! D34   D(16,14,15,17)         10.231          -DE/DX =    0.0                 !
 ! D35   D(1,14,16,18)        -171.6628         -DE/DX =    0.0                 !
 ! D36   D(15,14,16,18)          9.0483         -DE/DX =    0.0                 !
 ! D37   D(14,15,17,18)        -23.3214         -DE/DX =    0.0                 !
 ! D38   D(14,15,17,19)         95.7287         -DE/DX =    0.0                 !
 ! D39   D(14,15,17,20)       -145.2338         -DE/DX =    0.0                 !
 ! D40   D(14,16,18,17)        -22.6481         -DE/DX =    0.0                 !
 ! D41   D(14,16,18,21)         96.4419         -DE/DX =    0.0                 !
 ! D42   D(14,16,18,22)       -144.4859         -DE/DX =    0.0                 !
 ! D43   D(15,17,18,16)         27.7716         -DE/DX =    0.0                 !
 ! D44   D(15,17,18,21)        -86.5537         -DE/DX =    0.0                 !
 ! D45   D(15,17,18,22)        145.1667         -DE/DX =    0.0                 !
 ! D46   D(19,17,18,16)        -86.441          -DE/DX =    0.0                 !
 ! D47   D(19,17,18,21)        159.2336         -DE/DX =    0.0                 !
 ! D48   D(19,17,18,22)         30.9541         -DE/DX =    0.0                 !
 ! D49   D(20,17,18,16)        145.3144         -DE/DX =    0.0                 !
 ! D50   D(20,17,18,21)         30.989          -DE/DX =    0.0                 !
 ! D51   D(20,17,18,22)        -97.2906         -DE/DX =    0.0                 !
 ! D52   D(15,17,19,23)        -62.4499         -DE/DX =    0.0                 !
 ! D53   D(15,17,19,24)         56.5907         -DE/DX =    0.0                 !
 ! D54   D(15,17,19,25)        176.1001         -DE/DX =    0.0                 !
 ! D55   D(18,17,19,23)         49.2305         -DE/DX =    0.0                 !
 ! D56   D(18,17,19,24)        168.2711         -DE/DX =    0.0                 !
 ! D57   D(18,17,19,25)        -72.2195         -DE/DX =    0.0                 !
 ! D58   D(20,17,19,23)        179.7206         -DE/DX =    0.0                 !
 ! D59   D(20,17,19,24)        -61.2388         -DE/DX =    0.0                 !
 ! D60   D(20,17,19,25)         58.2706         -DE/DX =    0.0                 !
 ! D61   D(15,17,20,26)         54.2469         -DE/DX =    0.0                 !
 ! D62   D(15,17,20,27)        175.3202         -DE/DX =    0.0                 !
 ! D63   D(15,17,20,28)        -65.7284         -DE/DX =    0.0                 !
 ! D64   D(18,17,20,26)        -59.6561         -DE/DX =    0.0                 !
 ! D65   D(18,17,20,27)         61.4172         -DE/DX =    0.0                 !
 ! D66   D(18,17,20,28)       -179.6314         -DE/DX =    0.0                 !
 ! D67   D(19,17,20,26)        170.7476         -DE/DX =    0.0                 !
 ! D68   D(19,17,20,27)        -68.1791         -DE/DX =    0.0                 !
 ! D69   D(19,17,20,28)         50.7723         -DE/DX =    0.0                 !
 ! D70   D(16,18,21,29)         56.3824         -DE/DX =    0.0                 !
 ! D71   D(16,18,21,30)        175.8595         -DE/DX =    0.0                 !
 ! D72   D(16,18,21,31)        -62.8069         -DE/DX =    0.0                 !
 ! D73   D(17,18,21,29)        168.1194         -DE/DX =    0.0                 !
 ! D74   D(17,18,21,30)        -72.4035         -DE/DX =    0.0                 !
 ! D75   D(17,18,21,31)         48.93           -DE/DX =    0.0                 !
 ! D76   D(22,18,21,29)        -61.3841         -DE/DX =    0.0                 !
 ! D77   D(22,18,21,30)         58.0931         -DE/DX =    0.0                 !
 ! D78   D(22,18,21,31)        179.4266         -DE/DX =    0.0                 !
 ! D79   D(16,18,22,32)        -65.9599         -DE/DX =    0.0                 !
 ! D80   D(16,18,22,33)         54.0152         -DE/DX =    0.0                 !
 ! D81   D(16,18,22,34)        175.058          -DE/DX =    0.0                 !
 ! D82   D(17,18,22,32)       -179.7777         -DE/DX =    0.0                 !
 ! D83   D(17,18,22,33)        -59.8026         -DE/DX =    0.0                 !
 ! D84   D(17,18,22,34)         61.2402         -DE/DX =    0.0                 !
 ! D85   D(21,18,22,32)         50.6092         -DE/DX =    0.0                 !
 ! D86   D(21,18,22,33)        170.5844         -DE/DX =    0.0                 !
 ! D87   D(21,18,22,34)        -68.3728         -DE/DX =    0.0                 !
 --------------------------------------------------------------------------------
 GradGradGradGradGradGradGradGradGradGradGradGradGradGradGradGradGradGrad

 Leave Link  103 at Tue Aug 18 18:20:00 2026, MaxMem=  2684354560 cpu:               0.1 elap:               0.1
 (Enter /mnt/data/applications/G16/g16/l9999.exe)

 ----------------------------------------------------------------------

 Electric dipole moment (input orientation):
 (Debye = 10**-18 statcoulomb cm , SI units = C m)
                  (au)            (Debye)         (10**-30 SI)
   Tot        0.910613D+00      0.231455D+01      0.772050D+01
   x         -0.466680D+00     -0.118618D+01     -0.395668D+01
   y         -0.354648D+00     -0.901425D+00     -0.300683D+01
   z         -0.696886D+00     -0.177131D+01     -0.590845D+01

 Dipole polarizability, Alpha (input orientation).
 (esu units = cm**3 , SI units = C**2 m**2 J**-1)
 Alpha(0;0):
               (au)            (10**-24 esu)      (10**-40 SI)
   iso        0.198438D+03      0.294054D+02      0.327179D+02
   aniso      0.460981D+02      0.683103D+01      0.760055D+01
   xx         0.204614D+03      0.303206D+02      0.337362D+02
   yx         0.166351D+02      0.246507D+01      0.274276D+01
   yy         0.211229D+03      0.313009D+02      0.348270D+02
   zx        -0.365001D+01     -0.540876D+00     -0.601806D+00
   zy        -0.117272D+02     -0.173780D+01     -0.193356D+01
   zz         0.179470D+03      0.265947D+02      0.295906D+02

 ----------------------------------------------------------------------

 Dipole orientation:
     6         -2.84701443         -0.80962964         -0.17619463
     6         -1.20906551         -3.01494585         -0.39556723
     1          0.56486893         -3.16046325          0.66215517
     6         -2.45984068          1.34019601         -1.98631526
     1         -2.77030471          0.69196436         -3.95104772
     1         -3.76031369          2.91018303         -1.59293283
     1         -0.49575670          2.04858879         -1.91571997
     6         -1.92264891         -5.12547188         -1.99947451
     8         -3.88049865         -5.23368150         -3.23995857
     8         -0.17060196         -6.99283140         -1.96871469
     6         -0.73437833         -9.18351496         -3.49959874
     1         -2.55095404         -9.98789021         -2.87700546
     1         -0.96082423         -8.57952197         -5.47927007
     5         -5.04503254         -0.83585419          1.72350802
     8         -5.49430473         -2.80608973          3.36431828
     8         -6.77505810          1.09698703          1.93035054
     6         -7.98285863         -2.36915096          4.48426540
     6         -8.31613626          0.56720963          4.16473982
     6         -9.86813656         -3.90691779          2.92182599
     6         -7.94126426         -3.29386104          7.20769367
     6         -7.16811168          2.08758303          6.33901093
     6        -11.01034287          1.42968843          3.64299350
     1         -9.92483072         -3.25253013          0.94970983
     1         -9.27542430         -5.89918106          2.92445458
     1        -11.78530686         -3.79163294          3.71570668
     1         -6.39251531         -2.43334682          8.28587832
     1         -9.73939043         -2.84882541          8.15453417
     1         -7.68960278         -5.35752738          7.24241458
     1         -7.11124620          4.09444025          5.80072928
     1         -8.30038337          1.90601008          8.07232147
     1         -5.22612880          1.46989192          6.74862932
     1        -11.05712692          3.49856369          3.44093211
     1        -11.75873856          0.59054932          1.90017901
     1        -12.25967403          0.90848493          5.22261730
     6          1.42624083        -11.02985657         -3.17932134
     1          1.62325347        -11.60251631         -1.18856334
     1          1.07119111        -12.73333394         -4.31953057
     1          3.22244775        -10.18540490         -3.80422717

 Electric dipole moment (dipole orientation):
 (Debye = 10**-18 statcoulomb cm , SI units = C m)
                  (au)            (Debye)         (10**-30 SI)
   Tot        0.910613D+00      0.231455D+01      0.772050D+01
   x          0.000000D+00      0.000000D+00      0.000000D+00
   y          0.000000D+00      0.000000D+00      0.000000D+00
   z          0.910613D+00      0.231455D+01      0.772050D+01

 Dipole polarizability, Alpha (dipole orientation).
 (esu units = cm**3 , SI units = C**2 m**2 J**-1)
 Alpha(0;0):
               (au)            (10**-24 esu)      (10**-40 SI)
   iso        0.198438D+03      0.294054D+02      0.327179D+02
   aniso      0.460981D+02      0.683103D+01      0.760055D+01
   xx         0.196718D+03      0.291506D+02      0.324344D+02
   yx        -0.134296D+02     -0.199007D+01     -0.221425D+01
   yy         0.210917D+03      0.312547D+02      0.347755D+02
   zx        -0.160574D+02     -0.237946D+01     -0.264751D+01
   zy         0.115290D+02      0.170841D+01      0.190087D+01
   zz         0.187678D+03      0.278110D+02      0.309439D+02

 ----------------------------------------------------------------------
 1\1\GINC-KIMIK2195\Freq\UB3LYP\Gen\C12H21B1O4(3)\ASOLE\18-Aug-2026\0\\
 #P Geom=AllCheck Guess=TCheck SCRF=Check GenChk UB3LYP/ChkBas Freq\\Ti
 tle Card Required\\0,3\C,-1.28308,0.59828,0.6766\C,-0.61773,1.61222,-0
 .13327\H,-0.11423,1.35848,-1.0727\C,-0.48915,-0.09172,1.74772\H,-0.134
 95,0.64533,2.49399\H,-1.08769,-0.8544,2.26466\H,0.4188,-0.56644,1.3324
 7\C,-0.63046,3.00635,0.27483\O,-1.18242,3.43149,1.28586\O,0.03867,3.79
 844,-0.59763\C,0.06882,5.20733,-0.27625\H,-0.96642,5.57679,-0.20151\H,
 0.53984,5.33672,0.71136\B,-2.78993,0.35096,0.49796\O,-3.55517,0.9927,-
 0.45074\O,-3.50966,-0.52309,1.28172\C,-4.95371,0.69943,-0.13935\C,-4.8
 4149,-0.63512,0.6856\C,-5.4712,1.87807,0.68776\C,-5.72889,0.58295,-1.4
 4413\C,-4.82306,-1.88733,-0.19293\C,-5.86198,-0.78358,1.80531\H,-4.922
 75,1.97137,1.63666\H,-5.32413,2.80574,0.11536\H,-6.54318,1.7734,0.9099
 5\H,-5.27218,-0.14816,-2.12344\H,-6.769,0.28013,-1.24821\H,-5.74842,1.
 55895,-1.95175\H,-4.53139,-2.75053,0.42324\H,-5.81402,-2.08898,-0.6252
 3\H,-4.09635,-1.78916,-1.01278\H,-5.70447,-1.73987,2.32621\H,-5.77665,
 0.02628,2.54113\H,-6.88431,-0.78227,1.397\C,0.84473,5.90514,-1.37243\H
 ,0.35932,5.76007,-2.35009\H,0.8921,6.98536,-1.16546\H,1.87382,5.51799,
 -1.43245\\Version=AM64L-G16RevA.03\HF=-795.8192916\S2=2.0071\S2-1=0.\S
 2A=2.000028\RMSD=4.870e-09\RMSF=3.810e-06\ZeroPoint=0.3177621\Thermal=
 0.3377544\Dipole=-0.4666803,-0.3546481,-0.6968863\DipoleDeriv=-0.52182
 63,-0.236313,0.0792159,-0.1301157,-0.2615846,-0.0864076,0.1346456,-0.0
 434722,-0.0677297,-0.0039365,0.1412074,-0.2041661,0.072815,-0.2201641,
 0.0087127,-0.321595,-0.1732245,0.1327383,0.077872,-0.0275858,0.0943604
 ,-0.0491427,0.0324393,0.0141478,0.116351,-0.0054152,-0.0017412,-0.0325
 76,-0.0438425,-0.0900763,-0.0742636,0.1207754,-0.0298682,-0.0567111,-0
 .0132351,0.0685263,0.0507142,-0.0277967,-0.0583232,-0.0221016,-0.01577
 77,-0.0891939,-0.1157688,-0.045735,-0.0439365,0.044114,-0.0553052,0.04
 89466,-0.0451853,-0.0503946,0.0986157,0.0316645,0.1170148,0.0131313,-0
 .0894826,0.1100524,0.0406244,0.1241244,0.0309826,0.0258634,0.0541684,-
 0.0192442,0.0167027,0.8314631,0.5036649,-0.6064482,0.4877896,2.0734544
 ,-0.1883818,-0.6288329,-0.3417248,1.2897509,-0.639396,-0.0353105,0.314
 5693,0.0039096,-0.9620928,-0.2146518,0.3232457,-0.0966999,-1.0047339,-
 0.6808761,-0.5856645,0.4011336,-0.639769,-1.8886101,0.5004727,0.428467
 1,0.5349874,-0.8285945,0.4634919,0.1239871,-0.0228956,0.2685392,1.2306
 917,-0.1810205,0.015363,0.0127515,0.420744,-0.1598265,0.0705353,0.0256
 472,-0.0419543,-0.0903739,0.0467939,0.017973,-0.0204075,0.0455808,0.00
 79888,-0.0289594,-0.0622226,-0.0414688,-0.0806669,0.0778641,-0.088647,
 -0.0467151,-0.1341088,2.3093999,0.5073442,0.1969546,0.2804801,1.037096
 2,-0.3720234,0.266053,-0.4712204,0.8885214,-1.8124337,0.0531631,-0.273
 3423,0.0548071,-0.7071266,0.1937257,-0.3410799,0.2190433,-0.8345673,-1
 .7430243,-0.6299801,-0.0129441,-0.4120646,-0.9271445,0.1782458,0.02510
 6,0.2431106,-0.7630952,1.0454333,-0.0759391,0.1374042,0.0809297,0.4054
 115,0.0861867,-0.0844262,0.0398421,0.4408996,0.9920346,0.3136756,-0.03
 36713,0.0805492,0.4653395,0.0679285,0.1935521,0.1582828,0.4531172,-0.0
 039646,0.0136731,-0.0394838,0.0505525,-0.0680998,-0.1143816,0.0369594,
 -0.0434414,0.0142341,0.0132119,0.013492,-0.0273741,0.0103144,0.0628458
 ,-0.0174471,-0.0833204,-0.0487265,-0.0411491,-0.0046018,-0.0004609,0.0
 659174,-0.0053019,-0.0710618,-0.1061464,-0.0275759,-0.0569193,0.021480
 8,-0.0055395,-0.0327884,0.0376017,-0.0233043,0.0479461,-0.0127145,0.09
 80269,-0.0404025,-0.0168555,0.0166774,0.0056246,-0.1054902,0.0135865,0
 .0591735,-0.0227859,-0.0813987,-0.0461342,-0.1089911,0.0862262,-0.0319
 939,0.0316131,0.0056278,-0.1200322,0.0719213,0.021199,0.1151525,-0.004
 122,-0.1608106,-0.0053672,0.0475275,-0.0190094,0.0590625,0.0013867,0.0
 543948,-0.0273704,0.0736916,0.0284833,0.0688983,0.052733,0.0502052,-0.
 0146691,-0.1142898,0.018228,-0.1052379,-0.0351803,-0.1345792,-0.056601
 4,0.0074597,-0.0700866,0.0679752,0.0046551,0.0470563,0.0230059,0.03845
 63,0.077016,-0.0114797,-0.0133364,0.0222618,-0.1221847,0.1246086,-0.04
 45596,0.0784576,-0.0034641,0.0770754,0.0672129,-0.0324698,0.0381905,-0
 .1025104,0.0654369,-0.0358336,0.1188167,-0.0161861,-0.1223682,-0.04997
 97,-0.0866533,-0.03717,0.0423007,-0.0210814,-0.0808798,-0.0573692,0.04
 53163,-0.0208378,-0.0145329,0.1246712,-0.0277418,0.0545798,0.0105419,0
 .1071986,-0.0177493,-0.0673597,0.0607837,0.0483602,-0.0084491,0.007605
 2,-0.1178612,0.1239016,0.0328311,0.0999458,0.0060266,0.0556562,-0.0235
 072,-0.0000179,-0.0039566,-0.0347823,-0.126843,0.03088,-0.1121501,-0.0
 377513,-0.1336033,-0.0187432,-0.0438912,0.0026093,0.0839268,0.0048769,
 -0.0889555,0.0119357,0.0187437,0.090912,-0.0364562,0.027559,-0.0498095
 ,0.0100878,0.0458342,0.0218689,0.0318044,0.0764354,0.0091255,-0.033985
 6,-0.0827876,-0.0257187,0.0791893,-0.0419753,-0.0485253,0.0167868,-0.1
 35025,0.0685703,-0.0231536,0.0280692,-0.0354114,-0.1584691,-0.0114006,
 0.0275581,-0.0278002,0.0419165,-0.1365667,0.0448557,0.0420351,0.098678
 8,0.0503281,-0.0011075,0.0253193,0.0394568,0.0385774\Polar=204.6136675
 ,16.6351183,211.2290821,-3.6500126,-11.7272379,179.4700549\Quadrupole=
 10.9055852,-1.488395,-9.4171902,5.6890533,2.4987629,-4.2361918\PG=C01 
 [X(C12H21B1O4)]\NImag=0\\0.47105128,0.07468514,0.31535102,0.04391987,-
 0.17134396,0.31861972,-0.09773681,-0.06513964,0.05727779,0.23864316,-0
 .06587729,-0.15537309,0.07691284,0.06109088,0.52585989,0.05223424,0.07
 217775,-0.11973705,-0.21796953,0.01619075,0.47739892,-0.00082181,0.001
 28669,0.01059498,-0.08538568,0.02905159,0.12401439,0.08436573,-0.01005
 235,0.00605129,0.01504094,0.02277170,-0.06304516,-0.05254365,-0.027483
 98,0.06445903,0.00881478,0.00009884,-0.00583501,0.12232853,-0.06559947
 ,-0.24859406,-0.13427527,0.06347936,0.26056903,-0.10864235,0.02436947,
 -0.04923616,0.00960144,-0.00514866,0.00810400,-0.00099108,-0.00060829,
 0.00062492,0.51449947,0.03676274,-0.08821641,0.05833269,0.00558994,-0.
 01463695,0.01965773,-0.00233555,0.00006042,-0.00142741,0.03884907,0.52
 032268,-0.06374878,0.05235875,-0.12810465,-0.00212496,0.01642629,-0.01
 593030,-0.00127636,0.00048354,-0.00113229,-0.04238570,-0.01060601,0.47
 809888,-0.01035163,-0.00642820,-0.01553035,-0.00032545,-0.00044504,0.0
 0127560,-0.00025002,0.00009687,-0.00028206,-0.06016438,-0.05981286,-0.
 05144073,0.06945331,0.00473941,0.01078522,0.00953868,0.00005618,0.0007
 9298,-0.00037738,0.00035702,-0.00011053,0.00015526,-0.05523314,-0.1581
 0725,-0.11008185,0.05886494,0.16987274,-0.01163915,-0.00912001,-0.0178
 7909,-0.00086044,-0.00014523,0.00210895,-0.00035989,-0.00001726,-0.000
 25561,-0.05152477,-0.11627333,-0.15370418,0.06128804,0.12465783,0.1695
 0252,0.00871067,0.01440117,-0.01042108,-0.00050301,0.00072724,-0.00222
 942,0.00036651,0.00028119,-0.00005078,-0.13031545,-0.10695229,0.072774
 70,-0.00521824,-0.00448766,0.00433514,0.13851868,-0.00659103,-0.009924
 83,0.00577488,0.00143741,0.00030716,0.00228092,-0.00026828,-0.00044655
 ,0.00016077,-0.10341669,-0.17599644,0.08795811,-0.01022459,-0.01283562
 ,0.00980477,0.11275855,0.18815856,0.01115121,0.01584460,-0.01312059,-0
 .00290611,0.00306220,-0.00055247,0.00017704,-0.00004059,-0.00001697,0.
 06958647,0.08639140,-0.10242758,-0.01184817,-0.01401619,0.01062124,-0.
 07372519,-0.09838688,0.11147619,-0.01634821,0.00866838,-0.00147747,0.0
 0009522,-0.00191168,0.00026246,0.00044135,0.00033205,-0.00011894,-0.21
 122479,0.08815707,0.08887978,0.00686802,-0.00426010,-0.00329518,-0.011
 96017,0.00765781,0.00525822,0.23270176,0.01128360,-0.00553552,-0.00289
 598,0.00015615,0.00159688,-0.00018481,-0.00021644,-0.00026098,0.000021
 53,0.09017528,-0.08890856,-0.03956368,0.01701833,-0.00972341,-0.009312
 85,-0.01732478,0.01060218,0.00777647,-0.10046686,0.09374460,-0.0211039
 0,0.01055093,0.00604139,-0.00063611,-0.00105773,0.00114339,0.00043516,
 -0.00013512,0.00016306,0.08360425,-0.03758227,-0.07804800,0.01744369,-
 0.00961819,-0.00865676,0.00926646,-0.00689175,-0.00565578,-0.08820741,
 0.04392645,0.08713702,0.00361079,-0.01483137,-0.00259992,-0.06424595,-
 0.01372668,0.00435586,0.00010916,0.01402524,0.00404414,-0.00213343,0.0
 0180459,0.00228823,0.00086447,-0.00050505,0.00097876,0.00010763,0.0002
 5390,0.00043295,-0.00044000,0.00046062,-0.00050916,0.34531382,-0.00376
 793,-0.02044973,0.00395694,-0.00337600,-0.22053004,-0.04250728,-0.0002
 0243,0.00193356,0.00311197,0.00265072,-0.00045093,-0.00085879,-0.00055
 256,0.00023388,-0.00058527,-0.00060510,0.00132337,-0.00159873,-0.00035
 121,0.00004236,-0.00001957,-0.00563295,0.62442607,0.00158592,0.0143639
 6,0.00956317,0.00796715,-0.01782129,-0.08038300,0.00008180,-0.02408284
 ,-0.00617453,0.00071165,0.00253988,0.00068154,-0.00059222,0.00046486,-
 0.00108837,-0.00015745,0.00017115,-0.00109685,-0.00021276,-0.00030080,
 -0.00027188,-0.26580891,0.12872913,0.65226931,-0.00097444,-0.00097984,
 -0.00033771,0.00793250,0.02042946,0.01984376,0.00268539,0.00046939,0.0
 0083741,0.00072193,-0.00007225,-0.00066894,-0.00023247,0.00004683,-0.0
 0002014,-0.00009774,0.00011692,-0.00028934,0.00006179,-0.00014320,0.00
 016493,-0.17935199,0.07230350,0.19601814,0.18240485,-0.00009499,0.0003
 4720,-0.00182129,0.02248355,-0.02148751,-0.04661254,-0.00093515,-0.008
 15838,-0.00215805,-0.00064806,0.00051090,-0.00024440,-0.00000574,0.000
 03136,-0.00002586,0.00022354,-0.00042123,0.00047410,0.00006262,-0.0002
 0074,0.00000993,0.08374652,-0.17648235,-0.16446929,-0.09100514,0.17974
 371,-0.00044951,0.00155758,-0.00199460,0.02058864,-0.04490244,-0.02732
 214,0.00006253,-0.00357179,0.00096141,-0.00121820,-0.00038494,-0.00043
 655,0.00084608,-0.00060746,0.00095887,0.00020824,-0.00020628,0.0006778
 6,0.00014305,0.00023066,0.00007732,0.19886603,-0.14558726,-0.43336159,
 -0.27091557,0.18848239,0.52152748,0.00118066,-0.00034727,0.00079212,0.
 00440775,-0.01599994,0.00426866,-0.00071650,-0.00029998,-0.00066421,-0
 .00078283,-0.00055743,-0.00000649,-0.00011521,0.00018659,-0.00014006,0
 .00016996,-0.00032864,0.00039066,0.00013868,-0.00006859,-0.00003240,-0
 .10418409,-0.03436909,0.06261774,-0.01068737,-0.01358730,0.05488609,0.
 17055683,-0.00207023,-0.00509734,-0.00379012,-0.02593634,-0.05544509,0
 .02557716,-0.00073966,0.00015958,0.00115149,-0.00158603,-0.00029970,-0
 .00007094,0.00016556,0.00009844,0.00030427,0.00040893,-0.00063369,0.00
 104649,0.00027657,-0.00014934,0.00003908,-0.05160539,-0.15850650,0.056
 51763,-0.00889213,0.02171495,0.01363808,0.07882129,0.44702812,0.001784
 25,-0.00075553,0.00004087,0.00093741,0.00808854,0.00967930,-0.00053308
 ,0.00098085,0.00053946,0.00030827,-0.00028010,0.00007305,0.00007471,-0
 .00014129,0.00008551,-0.00007626,0.00019089,-0.00018410,-0.00007179,0.
 00007610,0.00003108,0.05830562,0.02897589,-0.14615635,0.05615633,0.021
 30201,-0.05996517,-0.13573781,-0.02822071,0.28562295,0.00025823,-0.000
 30854,-0.00031678,0.00148743,-0.00196739,0.00399427,-0.00003301,-0.000
 04141,-0.00017692,0.00015842,-0.00014235,-0.00001964,-0.00001025,-0.00
 000037,-0.00001019,-0.00001985,0.00000256,-0.00000099,0.00001462,-0.00
 000339,0.00003363,-0.00177423,-0.02370797,-0.00296064,-0.00340884,-0.0
 0074881,-0.00385322,-0.07136548,0.01504400,0.01313922,0.59330628,0.000
 96566,0.00094383,-0.00002982,-0.00074738,0.00826016,0.00219385,0.00034
 584,0.00022698,-0.00031247,0.00044499,-0.00001537,0.00007221,0.0000173
 9,-0.00011257,-0.00000246,-0.00010301,0.00023791,-0.00030694,-0.000108
 44,0.00007212,-0.00000741,-0.02412174,-0.05669917,0.02397101,0.0103402
 3,0.00131086,-0.01484420,0.00406018,-0.15246200,-0.02989154,-0.0220717
 2,0.41340317,0.00013389,0.00086501,0.00078858,0.00419707,0.00370676,-0
 .00158215,-0.00009914,0.00021400,0.00014798,0.00015905,-0.00007123,-0.
 00004024,-0.00002855,0.00000994,-0.00005954,-0.00003322,0.00002487,-0.
 00007794,-0.00000056,0.00001754,0.00000442,-0.00283554,0.02356183,0.01
 100462,-0.00099178,0.00321213,-0.00325997,0.01021956,-0.04713808,-0.09
 465615,0.01695661,-0.01419610,0.57467476,0.00002749,0.00000576,0.00009
 027,-0.00041603,0.00073205,-0.00046721,0.00007602,-0.00002255,-0.00001
 362,-0.00000999,0.00000940,-0.00000598,0.00000262,-0.00000963,0.000007
 46,0.00000212,0.00000221,-0.00000241,-0.00000211,-0.00000088,-0.000002
 15,-0.00051388,-0.00246144,0.00213059,0.00047185,-0.00117062,-0.000219
 47,0.00826579,0.00315255,0.00091207,-0.28588088,0.07808232,0.01004228,
 0.30318250,-0.00013670,-0.00013659,-0.00004376,-0.00068668,-0.00074560
 ,-0.00044642,-0.00000180,0.00015303,0.00006001,-0.00013308,0.00001006,
 -0.00000569,0.00001453,0.00000699,0.00001793,0.00002816,-0.00003874,0.
 00006061,0.00001320,-0.00000334,-0.00000424,0.00568197,0.00376801,-0.0
 0678288,-0.00158533,0.00110437,0.00270806,0.02836169,-0.03378393,-0.00
 217133,0.07125142,-0.06854383,-0.00434802,-0.08432863,0.08856328,-0.00
 004917,0.00000641,-0.00004083,0.00002992,-0.00053041,-0.00008794,-0.00
 004311,-0.00002064,-0.00001780,-0.00001462,0.00000296,-0.00000055,-0.0
 0000687,0.00000783,-0.00000303,0.00000463,-0.00000876,0.00000888,0.000
 00349,-0.00000609,0.00000043,0.00020135,0.00218752,0.00064565,-0.00017
 174,-0.00096806,-0.00018697,0.00796782,-0.00791309,-0.00007786,0.00864
 210,-0.00261435,-0.04991842,-0.01583008,0.00696124,0.05045578,-0.00001
 408,-0.00003026,-0.00002161,-0.00014610,0.00000364,0.00007311,-0.00001
 129,0.00006411,0.00002385,-0.00001359,-0.00000322,-0.00000220,0.000004
 62,-0.00000303,0.00000741,0.00000234,-0.00000218,0.00000714,0.00000067
 ,0.00000224,0.00000004,0.00205718,-0.00011474,-0.00255941,-0.00008655,
 0.00165032,0.00095105,0.00196425,-0.00320279,0.00278956,-0.10214887,-0
 .00986812,-0.10461447,-0.01281321,-0.00204582,-0.02564865,0.10239267,-
 0.00017512,-0.00009449,-0.00004813,0.00068676,-0.00098406,0.00035750,-
 0.00002671,0.00014968,0.00004554,-0.00006192,-0.00002480,-0.00002478,0
 .00000168,0.00002394,-0.00000354,0.00001864,-0.00004424,0.00005560,0.0
 0002385,-0.00001109,0.00000791,0.00375057,0.00373956,-0.00697209,-0.00
 139510,0.00071764,0.00242630,-0.01919233,-0.02499226,-0.03189737,-0.00
 537266,-0.04693712,-0.01467245,0.00379120,0.00338601,0.00873369,0.0126
 2960,0.06259577,0.00004641,-0.00002606,-0.00004272,-0.00060007,-0.0008
 1191,-0.00026279,0.00001752,0.00000977,0.00007321,-0.00003735,-0.00001
 140,0.00000912,0.00000026,-0.00000162,0.00000676,0.00000954,-0.0000118
 1,0.00002024,0.00000373,-0.00000479,-0.00000209,0.00246985,0.00338426,
 -0.00184982,0.00000787,0.00051171,0.00109681,-0.00178558,-0.01080565,-
 0.00241650,-0.10382747,-0.02008330,-0.25511295,0.00091997,0.00095475,0
 .00122022,0.11012296,0.02626580,0.27671986,-0.21329197,-0.02629299,-0.
 02872651,-0.01211847,-0.00935966,0.00916786,0.00059542,0.00208225,-0.0
 0252608,-0.00714034,0.00259230,-0.00449063,0.00087787,-0.00045355,0.00
 316333,0.00033488,-0.00136661,0.00150845,0.00121438,-0.00197356,0.0008
 9407,-0.00019394,-0.00949884,-0.00160820,-0.00089915,0.00471264,0.0021
 8649,0.00223110,0.00719935,-0.00198831,0.00007398,-0.00242076,-0.00059
 702,-0.00006212,0.00041079,0.00010890,0.00001772,0.00041778,0.00012246
 ,0.57957563,-0.03101997,-0.05377295,-0.00062665,-0.01667187,-0.0037241
 2,0.00409861,0.00174193,-0.00094617,0.00126412,0.01065799,0.00640012,0
 .00278312,0.00105778,-0.00118453,0.00078465,0.00079648,-0.00081706,0.0
 0034440,0.00216940,-0.00185743,0.00124777,-0.00464005,-0.00069869,0.00
 017709,0.00174834,0.00029466,-0.00014879,0.00072248,0.00070231,-0.0003
 8748,0.00005492,-0.00058686,-0.00002498,0.00000861,0.00004806,0.000014
 19,-0.00000096,0.00007447,0.00005063,0.06821817,0.30867876,-0.01542735
 ,0.00320515,-0.05469780,0.01172885,0.00607782,0.00448095,0.00197258,0.
 00041321,-0.00048982,-0.01832693,-0.00105697,0.00095753,-0.00103424,0.
 00021841,-0.00189099,-0.00012454,-0.00008284,-0.00050130,-0.00045927,0
 .00015248,-0.00185020,-0.00184967,-0.00119990,-0.00315395,0.00014365,0
 .00047396,0.00077867,0.00056643,0.00183182,-0.00045456,0.00017464,-0.0
 0052668,-0.00006389,-0.00003691,0.00006991,0.00002233,0.00000049,0.000
 13214,0.00002305,0.05721081,-0.18011500,0.34423661,-0.02074224,0.01271
 728,-0.02080611,0.00147091,0.00230099,-0.00376282,-0.00013377,-0.00078
 044,0.00068661,-0.00474417,-0.00331201,0.00125291,-0.00118082,0.000636
 65,-0.00167714,0.00024076,0.00020259,-0.00003996,-0.00136101,0.0010774
 7,-0.00128660,0.00056348,0.00528346,0.00089062,0.00016166,-0.00203811,
 -0.00100323,-0.00100616,-0.00314720,0.00087796,-0.00000010,0.00112222,
 0.00025636,0.00001813,-0.00018627,-0.00004492,-0.00000987,-0.00018363,
 -0.00005652,-0.12981830,0.05913510,-0.08783083,0.36885804,0.00227792,0
 .00553249,0.00006894,-0.00015078,-0.00042556,-0.00018312,0.00007455,0.
 00022147,-0.00032889,-0.00094656,0.00080578,0.00070216,0.00022039,-0.0
 0012624,0.00031395,-0.00018521,0.00006440,-0.00013303,-0.00017377,0.00
 008633,-0.00021413,0.00105598,0.00012650,-0.00054003,-0.00072656,0.000
 02058,0.00024047,-0.00004647,0.00010417,0.00011994,0.00004354,0.000049
 26,-0.00001548,-0.00001018,0.00000865,0.00000028,-0.00000089,0.0000025
 3,-0.00000630,0.04589830,-0.10600192,0.08422213,-0.03631670,0.19941260
 ,-0.00946755,0.00252631,0.00240409,0.00092669,0.00043137,-0.00167483,-
 0.00050171,-0.00040049,0.00032441,-0.00032534,0.00010851,0.00112718,-0
 .00007493,0.00008920,-0.00033850,0.00021023,0.00004323,0.00007300,-0.0
 0052790,0.00051181,-0.00044482,0.00026635,0.00118513,0.00048909,-0.000
 06670,-0.00065335,-0.00035317,-0.00036813,-0.00118326,0.00028495,-0.00
 004816,0.00035764,0.00009994,0.00001438,-0.00005914,-0.00002036,0.0000
 0286,-0.00006358,-0.00001856,-0.07326452,0.08468589,-0.16349825,0.0671
 0624,-0.14948735,0.28014839,-0.02245883,-0.02185401,0.01730179,-0.0023
 1426,0.00029223,-0.00438366,-0.00048522,-0.00109003,0.00104191,0.00058
 830,-0.00065046,0.00092042,-0.00041327,0.00007800,-0.00066201,-0.00012
 026,-0.00036997,0.00039691,-0.00061167,0.00025881,-0.00019538,0.000000
 29,0.00572825,0.00184400,0.00051078,-0.00226232,-0.00153988,-0.0011378
 4,-0.00384149,0.00107555,0.00001143,0.00126504,0.00029470,0.00002496,-
 0.00021690,-0.00005119,-0.00001596,-0.00022429,-0.00006255,-0.11922424
 ,-0.07810919,0.06390913,0.01504009,-0.00727890,0.00886759,0.33721682,-
 0.01078221,-0.00156007,0.00627674,-0.00010556,0.00136893,-0.00097888,-
 0.00051129,-0.00055947,0.00035886,0.00002456,-0.00141189,0.00048152,-0
 .00015738,0.00026896,-0.00055463,0.00024373,0.00030974,-0.00026762,-0.
 00026890,0.00043723,-0.00030269,0.00049274,0.00205953,0.00056293,0.000
 02184,-0.00080053,-0.00051309,-0.00046267,-0.00139356,0.00038392,0.000
 00862,0.00049932,0.00010904,0.00000521,-0.00007624,-0.00001935,-0.0000
 0586,-0.00008399,-0.00002844,-0.06571341,-0.14515841,0.09465043,0.0077
 5285,-0.01828862,0.04648817,0.10907368,0.24477150,0.00190040,0.0010641
 0,0.00573591,-0.00147961,0.00005448,0.00114751,-0.00008323,0.00007313,
 -0.00014023,0.00079023,0.00068755,-0.00084680,-0.00000926,-0.00032970,
 0.00057078,0.00000592,-0.00064699,0.00066710,-0.00005153,-0.00045575,0
 .00037988,0.00043560,-0.00045772,0.00000644,-0.00001601,0.00028994,0.0
 0006389,0.00009246,0.00049562,-0.00007416,-0.00002565,-0.00015754,-0.0
 0008760,0.00000009,0.00002543,0.00000593,0.00000454,0.00001692,0.00001
 399,0.05091312,0.08859017,-0.13237900,-0.01274618,0.04210728,-0.029863
 67,-0.00285407,-0.14417614,0.26267760,0.00426499,-0.00056787,0.0010806
 8,-0.00058251,-0.00025226,0.00107984,0.00004085,0.00026777,-0.00023365
 ,0.00079783,0.00056051,-0.00017932,0.00021851,-0.00014908,0.00048714,0
 .00009711,-0.00020473,0.00022645,0.00034596,-0.00040315,0.00029954,-0.
 00049792,-0.00223826,-0.00015736,0.00018671,0.00090513,0.00038451,0.00
 047295,0.00135912,-0.00044978,-0.00001994,-0.00053086,-0.00011208,-0.0
 0000508,0.00008227,0.00001872,0.00000634,0.00008284,0.00002961,-0.0522
 3064,0.02275775,-0.03540140,-0.11989296,-0.01016751,0.01393468,-0.0356
 7724,0.00764235,-0.00838581,0.44338880,-0.00006749,0.00056240,0.002708
 35,-0.00026964,-0.00033665,-0.00008816,0.00001657,0.00003423,-0.000043
 89,0.00047869,0.00014792,-0.00005653,0.00006620,-0.00001724,0.00019506
 ,0.00012952,-0.00001159,0.00010034,0.00003960,-0.00003778,0.00011424,0
 .00004593,0.00003013,0.00010743,0.00006648,0.00006789,-0.00002177,0.00
 004515,0.00007806,-0.00003149,-0.00000507,-0.00002687,-0.00000998,0.00
 000191,0.00000167,0.00000221,0.00000065,0.00000357,0.00000261,0.010324
 31,0.00994103,-0.00878583,-0.01867759,-0.07907428,0.01084203,0.0011990
 4,-0.00340588,0.00852000,-0.03601678,0.47193093,-0.00191668,0.00340445
 ,-0.00125800,0.00032667,0.00020669,-0.00045987,-0.00006282,-0.00003155
 ,0.00004149,-0.00068914,-0.00043390,-0.00017233,-0.00019922,0.00008298
 ,-0.00011444,-0.00000032,-0.00003874,0.00008761,-0.00023886,0.00010830
 ,-0.00009927,0.00009394,0.00042334,0.00007022,0.00000836,-0.00015419,-
 0.00008676,-0.00007559,-0.00024823,0.00007075,-0.00000126,0.00009139,0
 .00002415,0.00000292,-0.00001534,-0.00000237,-0.00000159,-0.00001374,-
 0.00000585,-0.01945039,-0.00353523,0.00639370,0.02680746,0.01198662,-0
 .08068768,-0.01983878,0.01664673,-0.02056896,0.05591984,0.02173226,0.5
 0849758,0.00466004,0.00124046,-0.00182922,0.00000369,-0.00027549,0.001
 18764,0.00023550,0.00029117,-0.00032721,0.00034917,0.00002922,0.000006
 95,0.00020851,0.00000708,0.00029057,-0.00048474,0.00033998,-0.00038502
 ,0.00038129,-0.00007486,0.00008193,-0.00024863,-0.00142708,-0.00038824
 ,-0.00003456,0.00064213,0.00031601,0.00036204,0.00111364,-0.00032737,0
 .00000792,-0.00038445,-0.00008693,-0.00000822,0.00006156,0.00001631,0.
 00000274,0.00006514,0.00002134,-0.04704025,-0.03861974,0.02403099,-0.0
 3394651,-0.02018424,0.00221788,-0.11205331,-0.00297375,-0.02323583,-0.
 05364685,0.01931492,-0.00547286,0.45009531,0.00040584,0.00065169,0.002
 44499,-0.00024496,0.00000518,0.00017193,-0.00014708,0.00004794,-0.0000
 5277,0.00037502,-0.00001111,0.00015805,0.00012442,0.00005303,0.0000168
 2,-0.00037268,0.00017610,-0.00040621,0.00016566,0.00005832,-0.00001346
 ,0.00012068,-0.00029029,0.00013319,0.00002172,0.00013208,0.00000043,0.
 00005964,0.00018954,-0.00008368,-0.00001763,-0.00006193,-0.00002074,0.
 00000126,0.00001080,0.00000316,0.00000080,0.00000837,0.00000428,-0.025
 45308,-0.00494865,-0.00378358,-0.01182422,-0.00968951,0.00893272,0.004
 82394,-0.07430375,0.00748334,-0.00205893,-0.12274366,0.01600355,0.0225
 4018,0.48953363,0.00266373,0.00428799,-0.00159290,0.00056920,0.0000102
 5,0.00067784,-0.00010488,0.00019835,-0.00023894,-0.00039009,0.00028650
 ,-0.00012797,0.00009390,-0.00002415,0.00010761,-0.00009468,-0.00008204
 ,-0.00006653,0.00011980,-0.00007855,0.00002793,0.00008405,-0.00109588,
 -0.00017541,-0.00010345,0.00042382,0.00025193,0.00019569,0.00068435,-0
 .00023530,-0.00000485,-0.00022464,-0.00004656,-0.00000450,0.00004086,0
 .00000994,0.00000158,0.00004073,0.00000946,0.00732259,-0.00639037,0.01
 508621,0.01090887,0.01855333,-0.01633486,-0.03490331,0.00350453,-0.090
 37218,0.00768811,0.02032372,-0.09008464,-0.07060601,0.00934522,0.48142
 184,-0.00001300,-0.00032663,-0.00081266,0.00015166,0.00012901,-0.00018
 655,0.00000699,-0.00006654,0.00005419,-0.00025234,-0.00012913,0.000086
 43,-0.00005185,0.00002681,-0.00011679,0.00001262,0.00001471,-0.0000245
 5,-0.00005685,0.00006233,-0.00008607,0.00003596,0.00040474,0.00005368,
 0.00002648,-0.00015561,-0.00008670,-0.00007602,-0.00024492,0.00006627,
 0.00000636,0.00008954,0.00002180,0.00000156,-0.00001259,-0.00000330,-0
 .00000182,-0.00001398,-0.00000505,-0.00077733,-0.00139003,0.00791452,-
 0.04169677,0.02779282,0.02233403,0.00216026,0.00035341,-0.00097703,-0.
 07555930,0.02262798,0.01155449,0.00018926,0.00249401,-0.00152629,0.571
 41610,0.00009609,-0.00002942,-0.00021225,0.00006485,0.00006636,-0.0000
 9038,-0.00001504,-0.00003724,0.00002423,-0.00011675,-0.00008929,0.0000
 3762,-0.00002577,0.00001899,-0.00006090,-0.00001662,0.00000836,-0.0000
 3063,-0.00003388,0.00003808,-0.00003548,0.00003092,0.00019741,-0.00000
 358,-0.00000575,-0.00009820,-0.00000980,-0.00004776,-0.00014334,0.0000
 5661,-0.00000536,0.00005313,0.00001086,0.00000405,-0.00000972,-0.00000
 413,0.00000222,-0.00000852,-0.00000205,0.00002310,-0.00177086,0.002699
 18,-0.00160420,0.00708555,0.00069894,0.00107509,0.00065828,-0.00060561
 ,0.02946645,-0.14523721,-0.04931403,0.00705691,-0.02631393,-0.01235455
 ,0.03087839,0.50533804,0.00005796,-0.00006719,0.00011519,-0.00004462,-
 0.00002168,0.00000658,0.00000798,-0.00000046,-0.00000147,0.00002390,0.
 00000415,-0.00001545,-0.00000570,-0.00000782,0.00000434,0.00002807,-0.
 00000934,0.00003559,0.00000372,-0.00001583,0.00001067,-0.00003848,0.00
 001228,0.00006640,0.00008421,0.00000771,-0.00006608,0.00001614,0.00003
 220,-0.00004128,0.00000746,-0.00001879,-0.00000105,-0.00000273,0.00000
 322,0.00000157,-0.00000246,0.00000176,0.00000054,-0.00002177,0.0018027
 4,-0.00089389,0.01220954,-0.00677250,-0.00358564,-0.00149954,-0.001314
 53,-0.00060703,0.01474740,-0.04360906,-0.11175390,-0.00373951,0.009773
 38,0.01296287,0.01889109,-0.04526864,0.55386944,-0.00071195,0.00103229
 ,-0.00052781,0.00016698,0.00010900,-0.00024039,-0.00001940,-0.00002986
 ,0.00002372,-0.00029775,-0.00017810,0.00002821,-0.00007052,0.00004461,
 -0.00007604,-0.00000809,0.00001542,-0.00000024,-0.00009937,0.00006264,
 -0.00006897,0.00007169,0.00031763,0.00005500,-0.00000428,-0.00012158,-
 0.00006608,-0.00005941,-0.00018003,0.00005317,0.00000193,0.00006790,0.
 00001489,0.00000115,-0.00001044,-0.00000182,-0.00000111,-0.00001080,-0
 .00000379,-0.00283675,-0.00473626,0.00315605,-0.03905800,-0.00395158,-
 0.03153070,0.00224964,-0.00021277,-0.00027620,-0.09486479,-0.00454715,
 -0.04452618,-0.00023098,0.00497429,-0.00352397,0.00887382,-0.00028669,
 0.00716058,0.54810796,0.00007163,0.00045825,-0.00025412,0.00006549,0.0
 0002121,0.00001973,0.00000183,0.00001439,-0.00001704,-0.00007500,-0.00
 007897,0.00002553,0.00000586,0.00002179,-0.00001343,-0.00004101,0.0000
 4790,-0.00005020,0.00000977,0.00002016,-0.00001762,0.00002605,-0.00002
 465,-0.00003243,-0.00001841,0.00001426,0.00002001,0.00000506,0.0000219
 8,0.00000179,-0.00000220,-0.00000491,-0.00000251,0.00000063,0.00000079
 ,-0.00000094,0.00000131,0.00000100,0.00000066,-0.00179017,-0.00381584,
 0.00317829,-0.01027399,0.00133193,-0.00796580,0.00674359,-0.00267821,0
 .00390414,-0.00109922,-0.07995904,-0.00430538,0.01208740,0.00594084,0.
 01895425,-0.01170094,-0.00515129,-0.02596820,-0.00680656,0.58103851,0.
 00021780,-0.00045244,0.00023586,-0.00007512,-0.00007931,0.00013473,0.0
 0002532,0.00003408,-0.00001938,0.00017533,0.00016373,0.00001771,0.0000
 5418,-0.00003229,0.00006703,0.00000252,-0.00001532,0.00000458,0.000051
 27,-0.00004757,0.00003732,-0.00005618,-0.00024806,-0.00002184,0.000021
 56,0.00010537,0.00003974,0.00005049,0.00015022,-0.00005176,0.00000173,
 -0.00005538,-0.00001129,-0.00000137,0.00000972,0.00000250,0.,0.0000091
 5,0.00000263,0.00107637,0.00220441,-0.00236158,0.00487025,-0.00045477,
 0.00970917,-0.00102620,0.00008257,-0.00027641,-0.05646286,-0.00948301,
 -0.17326389,-0.00838296,0.00253978,-0.01370499,-0.00964813,-0.00748982
 ,-0.02479841,-0.04701426,0.00323104,0.50886737,-0.00044452,0.00013519,
 0.00103640,0.00002587,0.00008278,-0.00029103,-0.00010109,-0.00006976,0
 .00005428,-0.00002242,-0.00003085,0.00004208,-0.00002429,0.00001945,-0
 .00006267,0.00007446,-0.00002652,0.00002931,-0.00005862,0.00005077,-0.
 00003381,0.00008162,0.00040880,0.00014646,0.00000803,-0.00017811,-0.00
 010052,-0.00009549,-0.00028062,0.00007593,-0.00000435,0.00009564,0.000
 01951,0.00000196,-0.00001550,-0.00000393,-0.00000102,-0.00001732,-0.00
 000433,0.00061045,0.00153936,-0.00790809,0.00176289,0.00029975,0.00161
 962,-0.02283883,-0.03552898,-0.02655554,-0.00003940,0.00343636,0.00257
 509,-0.06904885,0.01012230,0.01232401,0.00074213,0.00100147,-0.0009728
 7,0.00019171,0.00085787,-0.00074193,0.58305578,-0.00010419,0.00005941,
 -0.00004336,0.00001865,-0.00002811,0.00005231,0.00001550,0.00002075,-0
 .00001730,0.00003721,0.00001775,0.00000298,0.00000928,-0.00000963,0.00
 001622,-0.00001386,0.00001194,0.00000271,0.00001094,-0.00001445,0.0000
 0968,-0.00000622,-0.00007287,-0.00000491,0.00000336,0.00003957,0.00001
 383,0.00001703,0.00005854,-0.00002000,0.00000117,-0.00002192,-0.000005
 20,-0.00000080,0.00000394,0.00000100,-0.00000015,0.00000339,0.00000136
 ,0.00010191,-0.00138040,0.00029593,-0.00054656,0.00041828,-0.00038873,
 -0.00798611,-0.00361177,-0.00743690,0.00348820,-0.02668456,-0.01221113
 ,0.00454161,-0.15120110,-0.05206407,-0.00082640,-0.00207706,0.00300325
 ,0.00028715,-0.00193793,0.00114184,0.00257896,0.49714586,-0.00017912,-
 0.00007695,0.00034835,-0.00002363,0.00000929,-0.00007371,-0.00001698,-
 0.00001731,0.00002217,0.00002072,-0.00001144,0.00001218,0.00000256,0.0
 0001145,-0.00002302,0.00002358,-0.00000433,-0.00000029,0.00000046,0.00
 000560,-0.00000204,-0.00001002,0.00008225,0.00003279,0.00001482,-0.000
 04046,-0.00002593,-0.00001943,-0.00006499,0.00001538,-0.00000232,0.000
 02327,0.00000603,0.00000126,-0.00000436,-0.00000090,0.00000002,-0.0000
 0383,-0.00000132,-0.00019390,0.00200341,-0.00253018,0.00230811,-0.0007
 4807,0.00004618,-0.01375733,-0.01741079,-0.01149595,-0.00183762,0.0100
 8222,0.01362350,0.00747645,-0.04622360,-0.11258193,0.00073594,0.003439
 06,-0.00277111,0.00030561,0.00174640,-0.00014089,0.00113395,-0.0510385
 5,0.55029182,-0.00060878,-0.00126373,0.00054137,-0.00020689,-0.0000065
 5,-0.00020793,0.00001434,-0.00004907,0.00005486,0.00014628,-0.00001633
 ,0.00005825,-0.00001682,-0.00000619,-0.00001336,0.00004869,0.00000289,
 0.00002877,-0.00002434,0.00001028,-0.00000443,-0.00002817,0.00026782,0
 .00007669,0.00003930,-0.00010022,-0.00007370,-0.00004628,-0.00016865,0
 .00005533,0.00000036,0.00005195,0.00001116,0.00000133,-0.00000983,-0.0
 0000232,-0.00000054,-0.00000989,-0.00000210,-0.00338615,0.00413757,-0.
 00397513,0.00347048,0.00204509,-0.00003313,-0.04346664,-0.00872499,0.0
 2123689,0.00337329,-0.00616789,0.00111345,-0.11768237,-0.00310206,0.05
 519810,0.00039573,0.00018437,-0.00070740,-0.00008945,0.00033829,-0.000
 01415,0.00080709,0.00379680,0.00607766,0.52820201,-0.00024363,0.000080
 63,-0.00010894,0.00005025,0.00000320,-0.00007796,0.00000676,-0.0000145
 9,0.00001182,-0.00005489,-0.00004186,0.00001766,-0.00002262,0.00000919
 ,-0.00002996,0.00001392,0.00000500,-0.00000430,-0.00002592,0.00001770,
 -0.00002029,0.00002725,0.00016444,0.00001292,-0.00000555,-0.00005985,-
 0.00003253,-0.00003131,-0.00008816,0.00002865,0.00000319,0.00003453,0.
 00000714,-0.00000005,-0.00000512,-0.00000083,-0.00000091,-0.00000539,-
 0.00000197,0.00108002,-0.00203847,0.00246965,-0.00548725,-0.00422788,0
 .00265214,-0.00203571,0.00195107,0.00079491,-0.01636959,-0.00000831,0.
 01677162,-0.00721047,-0.08004417,0.00981190,-0.00046859,-0.00220193,0.
 00144615,0.00005825,-0.00139940,-0.00002638,0.01916054,0.00024273,-0.0
 2280647,-0.00821808,0.58099288,-0.00041854,-0.00083186,0.00043802,-0.0
 0012745,0.00005570,-0.00017011,-0.00000174,-0.00006712,0.00006453,0.00
 007131,-0.00005630,0.00000760,-0.00003514,0.00000431,-0.00003412,0.000
 04536,-0.00000313,0.00003274,-0.00003538,0.00002336,-0.00001142,0.0000
 0876,0.00032018,0.00006267,0.00002449,-0.00012998,-0.00008044,-0.00006
 284,-0.00020377,0.00006772,0.00000147,0.00006991,0.00001406,0.00000136
 ,-0.00001250,-0.00000271,-0.00000083,-0.00001242,-0.00000352,-0.001851
 20,0.00267882,-0.00326203,0.00155829,0.00070551,-0.00001234,-0.0154942
 2,-0.00382104,0.01293962,0.01033861,0.00410713,-0.01136399,0.06784269,
 0.00906391,-0.14946473,0.00045574,0.00129516,-0.00009682,0.00003457,0.
 00000264,-0.00010928,0.01716322,-0.00292305,-0.02203761,0.04795636,0.0
 1742780,0.52834319,0.00004548,-0.00001873,0.00002289,0.00000555,-0.000
 00859,0.00000613,0.00000797,0.00000482,-0.00000763,0.00002041,0.000001
 25,-0.00000668,0.00000676,-0.00000080,0.00000895,-0.00000583,0.0000056
 6,0.00000403,0.00000647,-0.00000752,0.00000596,-0.00001343,0.00000980,
 0.00007342,0.00010681,-0.00001418,-0.00007665,0.00002345,0.00004406,-0
 .00004464,-0.00000157,-0.00002401,-0.00000348,0.00000051,0.00000270,0.
 00000079,0.00000038,0.00000258,0.00000216,-0.00033108,0.00037814,-0.00
 004423,0.00206109,-0.00040249,0.00005318,-0.00013221,0.00027270,0.0002
 2066,0.00319956,0.00037055,0.01093649,0.00031868,-0.00017788,-0.000814
 25,-0.11399517,-0.01058601,-0.11770264,-0.00001083,0.00129847,0.001182
 38,-0.00005026,-0.00015626,0.00016193,-0.00009855,0.00005960,-0.000807
 73,0.11931815,-0.00005330,-0.00006852,0.00007927,-0.00000730,0.0000095
 2,-0.00003620,-0.00000553,-0.00001374,0.00001158,-0.00000594,0.0000005
 5,-0.00000458,-0.00000370,0.00000110,-0.00000644,0.00001693,-0.0000100
 9,0.00000805,-0.00000617,0.00000658,-0.00000299,-0.00001322,0.00008602
 ,0.00008908,0.00010200,-0.00006598,-0.00007861,0.00000373,-0.00001623,
 -0.00002630,-0.00000227,0.00000019,0.00000157,0.00000161,-0.00000139,0
 .00000079,-0.00000045,-0.00000074,0.00000072,0.00097956,0.00024720,-0.
 00082160,-0.00100592,0.00083085,0.00216462,-0.00013647,0.00006686,0.00
 070333,-0.01484246,-0.00211802,-0.02261819,-0.00073947,0.00053064,-0.0
 0048436,-0.00770405,-0.04650559,-0.01608097,0.00288323,-0.00380908,-0.
 00225869,-0.00010213,0.00017734,-0.00004435,-0.00026667,-0.00053632,0.
 00007161,0.00930037,0.05013326,-0.00001986,-0.00001425,0.00003828,0.00
 000772,-0.00000143,-0.00001417,-0.00000899,-0.00000366,0.00000684,0.00
 000226,0.00000917,0.00000596,0.00000143,0.00000129,-0.00000099,0.00000
 010,-0.00000359,-0.00001155,-0.00000801,0.00000723,-0.00000426,0.00004
 923,0.00000670,-0.00010295,-0.00012086,0.00000071,0.00005587,-0.000027
 75,-0.00005077,0.00005211,0.00000383,0.00002365,0.00000209,-0.00000136
 ,-0.00000205,-0.00000216,0.00000069,-0.00000284,-0.00000181,0.00064827
 ,-0.00033581,-0.00070426,0.00001923,0.00072454,0.00170020,0.00017293,0
 .00055474,0.00077416,-0.00973073,-0.00010223,-0.01472134,-0.00033861,0
 .00070368,-0.00075289,-0.11616142,-0.01877266,-0.24376709,0.00261874,-
 0.00327283,-0.00129831,0.00006449,-0.00003005,0.00013086,0.00046370,0.
 00050569,-0.00023486,0.12680757,0.02060635,0.26465412,-0.00000997,-0.0
 0004423,0.00005565,-0.00001125,-0.00000352,0.00000515,-0.00000141,0.00
 000065,-0.00000262,0.00002364,0.00001219,-0.00000899,0.00000416,-0.000
 00229,0.00000704,-0.00000444,-0.00000601,-0.00000316,0.00000631,-0.000
 00607,0.00000629,-0.00003910,-0.00000990,0.00007807,0.00010749,-0.0000
 1555,-0.00001269,0.00002239,0.00003199,-0.00002660,-0.00000890,-0.0000
 1497,-0.00000296,0.00000427,0.00000091,0.00000071,0.00000227,0.0000018
 3,0.00000193,0.00011948,0.00051255,-0.00081208,0.00161606,-0.00033161,
 -0.00032324,-0.00003192,-0.00004082,0.00017984,-0.00120204,0.01046524,
 -0.00486672,-0.00055436,0.00124238,0.00172790,-0.04849599,-0.03303480,
 0.01949067,-0.00017439,-0.00052975,-0.00036810,-0.00011726,0.00039227,
 -0.00047443,0.00006901,-0.00022030,0.00030258,0.00172670,0.01380370,-0
 .00767303,0.04901327,0.00006881,0.00003512,-0.00004479,0.00000293,-0.0
 0001208,0.00003142,0.00000492,0.00000898,-0.00000654,0.00000050,0.0000
 0324,-0.00000298,0.00000578,-0.00000009,0.00000494,-0.00001555,0.00000
 802,-0.00001260,0.00000880,-0.00000205,0.00000231,0.00000095,-0.000060
 36,-0.00001967,-0.00001141,0.00002137,0.00001554,0.00000786,0.00003153
 ,-0.00000991,0.00000622,-0.00000959,-0.00000154,-0.00000164,0.00000379
 ,0.00000109,-0.00000070,0.00000197,-0.00000029,-0.00048836,-0.00050834
 ,0.00083791,-0.00145220,0.00296399,-0.00010996,0.00101739,0.00035451,0
 .00002109,-0.00355003,-0.02448637,0.01443025,0.00030921,-0.00138710,-0
 .00463759,-0.03086368,-0.23318933,0.11837746,0.00025045,0.00067887,0.0
 0162012,0.00042476,-0.00088834,0.00134674,0.00050479,0.00024238,-0.000
 59869,0.00074757,0.00269169,-0.00205801,0.03319417,0.25429218,-0.00002
 252,-0.00001301,0.00000464,0.00000627,0.00001021,-0.00001942,-0.000003
 91,-0.00000732,0.00000363,-0.00000816,-0.00000781,0.00000177,-0.000001
 98,0.00000215,-0.00000778,-0.00000322,-0.00000217,-0.00000445,-0.00000
 401,0.00000489,-0.00000370,-0.00002146,0.00004063,0.00005074,0.0000588
 6,-0.00003126,-0.00002423,0.00000191,-0.00001220,-0.00000893,-0.000007
 40,0.00000374,0.00000136,0.00000282,-0.00000242,0.00000042,0.00000051,
 -0.00000057,0.00000041,0.00012102,-0.00025624,0.00004006,-0.00150427,0
 .00046465,0.00058958,0.00035358,0.00025783,0.00037338,-0.00189007,-0.0
 1671637,0.00740148,0.00103399,-0.00210785,-0.00238488,0.01970065,0.122
 00584,-0.12053757,-0.00008031,-0.00069018,0.00090614,0.00016566,-0.000
 69870,0.00066623,-0.00003090,0.00012242,-0.00089200,0.00456228,0.02166
 568,-0.01271475,-0.02246091,-0.12803073,0.12946379,-0.00014760,0.00000
 136,-0.00012739,0.00005091,0.00004688,-0.00009064,-0.00000584,-0.00002
 580,0.00002285,-0.00007204,-0.00007235,0.00001151,-0.00002491,0.000016
 72,-0.00004327,0.00000922,0.00000353,-0.00000433,-0.00002903,0.0000258
 1,-0.00002415,0.00004414,0.00017436,-0.00000083,-0.00002638,-0.0000728
 5,-0.00002246,-0.00004461,-0.00011955,0.00004306,0.00000423,0.00004631
 ,0.00000981,-0.00000008,-0.00000621,-0.00000182,-0.00000063,-0.0000070
 3,-0.00000285,0.00119654,-0.00116348,0.00178967,-0.00224875,0.00325438
 ,0.00126937,0.00045054,0.00052942,-0.00034173,-0.00906189,-0.00398847,
 -0.00081566,-0.00061273,-0.00023495,0.00067184,-0.30142987,-0.02507915
 ,0.05285738,-0.00003048,-0.00063160,-0.00074195,0.00006305,0.00010005,
 -0.00017223,0.00004442,-0.00084791,0.00058220,-0.01295769,-0.00125828,
 0.00399400,-0.00244640,0.00001852,-0.00001572,0.32588812,0.00006248,0.
 00002967,0.00020401,-0.00005093,-0.00004696,0.00007172,0.00000486,0.00
 002512,-0.00001810,0.00008593,0.00005060,-0.00002249,0.00002052,-0.000
 01254,0.00004121,-0.00000488,-0.00000553,0.00000606,0.00002509,-0.0000
 2389,0.00002635,-0.00000019,-0.00015791,-0.00003877,-0.00002378,0.0000
 7162,0.00003726,0.00002676,0.00008885,-0.00002075,0.00000475,-0.000030
 16,-0.00000727,-0.00000169,0.00000691,0.00000143,-0.00000048,0.0000052
 2,0.00000110,-0.00039712,0.00103822,-0.00198718,0.00603111,-0.00350308
 ,-0.00278932,-0.00073589,-0.00037696,0.00033441,0.02162428,0.00465682,
 -0.00190420,0.00030070,0.00073885,0.00026142,-0.02887684,-0.04886654,0
 .00383158,-0.00016805,0.00075744,0.00053314,-0.00018195,0.00004199,-0.
 00009888,0.00030497,-0.00092411,0.00070063,-0.00182121,-0.00138095,0.0
 0082203,-0.02534494,-0.00150233,0.00390184,0.02947861,0.05048435,0.000
 12522,0.00001380,0.00015113,-0.00004027,-0.00003706,0.00006324,0.00000
 356,0.00001977,-0.00001630,0.00006413,0.00005818,-0.00000911,0.0000213
 1,-0.00001142,0.00003913,-0.00000385,-0.00000450,0.00000480,0.00001837
 ,-0.00001854,0.00001962,0.00000125,-0.00012541,-0.00003553,-0.00001858
 ,0.00005498,0.00003329,0.00002219,0.00007287,-0.00001368,-0.00000037,-
 0.00002527,-0.00000645,-0.00000048,0.00000410,0.00000064,0.00000065,0.
 00000425,0.00000128,-0.00021855,0.00079421,-0.00210901,0.00495455,-0.0
 0379913,-0.00031897,-0.00062983,-0.00016511,0.00063942,0.01379332,0.00
 539237,-0.00314612,0.00009090,0.00005314,0.00002865,0.05169172,0.00312
 293,-0.05575078,-0.00021656,0.00036372,0.00040103,-0.00001387,0.000039
 23,-0.00005411,-0.00007363,0.00053784,0.00009776,-0.02585045,-0.002349
 93,0.00655394,0.01540857,0.00023779,-0.00351727,-0.05844424,-0.0042998
 5,0.05764568,0.00005087,-0.00002637,0.00004003,-0.00000503,-0.00000967
 ,0.00002356,0.00000180,0.00000595,-0.00000354,0.00001755,0.00001898,0.
 00000338,0.00000686,-0.00000283,0.00001056,-0.00000527,0.00000413,0.00
 000019,0.00000786,-0.00000624,0.00000454,-0.00000540,-0.00003878,-0.00
 000935,-0.00000017,0.00001695,0.00001049,0.00000849,0.00002426,-0.0000
 0571,-0.00000065,-0.00000938,-0.00000230,-0.00000010,0.00000141,0.0000
 0022,0.00000032,0.00000149,0.00000069,0.00000588,0.00026190,-0.0004622
 4,0.00232439,-0.00006344,0.00113171,-0.00007444,-0.00018072,0.00015504
 ,0.00535493,-0.01290514,-0.01061870,0.00030180,0.00031194,0.00063765,-
 0.00153767,-0.00020408,-0.00283461,-0.09406617,0.07911343,0.07255008,0
 .00010301,0.00095816,-0.00077854,-0.00000796,-0.00008332,0.00004501,0.
 00047591,-0.00065020,-0.00081602,-0.00010093,0.00016238,0.00003228,0.0
 0022962,-0.00001160,-0.00011971,0.09851878,-0.00000811,-0.00000980,0.0
 0001263,0.00000391,0.00000244,-0.00000952,-0.00000408,-0.00000254,0.00
 000350,-0.00000513,-0.00000029,0.00000082,-0.00000250,0.00000102,-0.00
 000190,-0.00000058,-0.00000097,0.00000214,-0.00000362,0.00000052,-0.00
 000094,0.00000774,0.00000795,-0.00000921,-0.00000617,-0.00000185,0.000
 00563,-0.00000424,-0.00000897,0.00000811,0.00000074,0.00000110,-0.0000
 0040,-0.00000033,-0.00000012,-0.00000041,0.00000024,-0.00000041,0.0000
 0026,0.00002631,0.00018385,-0.00025061,0.00003884,0.00041544,0.0005316
 1,-0.00032038,-0.00008765,-0.00007371,0.00028988,-0.00230505,-0.000450
 61,-0.00012498,-0.00031124,0.00020410,-0.00104031,0.00075042,-0.000956
 71,0.07875726,-0.16708022,-0.11381677,0.00051221,-0.00157364,0.0016060
 5,-0.00010442,-0.00004876,0.00002033,0.00032185,0.00002038,-0.00035185
 ,0.00005349,0.00043786,0.00016284,0.00016082,-0.00002207,0.00014206,-0
 .08650272,0.18107596,0.00002874,-0.00002474,-0.00004776,0.00000081,0.0
 0000528,0.00000163,0.00000153,-0.00000114,0.00000072,-0.00000510,-0.00
 000241,0.00000652,0.00000102,0.00000017,-0.00000116,0.00000269,0.00000
 175,0.00000001,0.00000011,-0.00000023,-0.00000205,0.00000768,0.0000022
 0,-0.00001333,-0.00001017,0.00000109,0.00000720,-0.00000425,-0.0000046
 0,0.00000589,0.00000186,0.00000207,-0.00000005,-0.00000054,0.00000013,
 -0.00000032,0.00000012,-0.00000031,-0.00000019,0.00011527,-0.00014906,
 -0.00001135,0.00089013,0.00128265,0.00250572,-0.00003050,0.00042174,0.
 00021108,0.01455576,-0.01902839,-0.01686341,0.00033093,-0.00167651,0.0
 0043211,-0.00404307,0.00088341,-0.00440290,0.06853383,-0.11026185,-0.1
 4767358,0.00047272,0.00013660,-0.00031799,0.00004436,0.00008562,0.0001
 9301,0.00035229,-0.00164173,-0.00088353,-0.00004227,-0.00012025,0.0001
 8120,-0.00003682,0.00032116,0.00028047,-0.07491274,0.12176714,0.159757
 78,-0.00022527,0.00023350,-0.00014878,0.00006414,0.00004770,-0.0001120
 3,-0.00001129,-0.00002434,0.00001782,-0.00010828,-0.00007367,0.0000302
 5,-0.00002963,0.00001752,-0.00004006,0.00000708,0.00000684,0.00000038,
 -0.00004168,0.00003230,-0.00003298,0.00004060,0.00018373,0.00002255,-0
 .00001103,-0.00007634,-0.00003343,-0.00004087,-0.00011582,0.00003634,0
 .00000230,0.00004386,0.00000954,0.00000033,-0.00000649,-0.00000151,-0.
 00000062,-0.00000693,-0.00000259,0.00039059,-0.00181851,0.00160491,-0.
 00329798,0.00027825,-0.00487522,0.00051232,0.00062801,-0.00042356,-0.0
 1362618,-0.00325136,0.00709693,-0.00039008,-0.00059092,0.00010264,-0.0
 0003049,0.00046093,0.00062135,-0.28324815,-0.07005560,0.04457657,-0.00
 025357,-0.00025681,0.00001971,-0.00008734,0.00014017,-0.00002279,0.000
 24148,0.00010571,-0.00018947,0.00008067,0.00010130,-0.00000909,0.00063
 572,-0.00010914,-0.00007926,-0.01044031,-0.00403775,0.00121010,0.30717
 590,-0.00003005,-0.00000550,-0.00002988,0.00000785,0.00000992,-0.00001
 642,-0.00000141,-0.00000491,0.00000376,-0.00001134,-0.00000894,0.00000
 694,-0.00000413,0.00000147,-0.00000547,0.00000494,-0.00000093,0.000000
 84,-0.00000468,0.00000235,-0.00000417,0.00000414,0.00002499,0.00000751
 ,-0.00000044,-0.00001054,-0.00000672,-0.00000668,-0.00001731,0.0000038
 3,0.00000171,0.00000731,0.00000176,-0.00000014,-0.00000060,0.00000013,
 -0.00000050,-0.00000103,-0.00000059,0.00006022,0.00001296,0.00002074,-
 0.00002637,0.00139372,-0.00021326,-0.00026223,0.00004503,-0.00013786,-
 0.00043023,-0.00261743,0.00138980,0.00028261,-0.00001681,0.00010884,-0
 .00002604,-0.00013923,0.00006744,-0.07054401,-0.06389744,0.01279371,0.
 00028602,-0.00003636,-0.00029606,0.00009853,0.00002792,0.00005509,0.00
 016195,0.00003124,0.00003178,-0.00007184,0.00013157,-0.00010454,0.0000
 2558,-0.00007655,-0.00041747,0.01994690,0.00637275,-0.00254528,0.07687
 594,0.06573698,-0.00020302,0.00029428,-0.00018888,0.00005603,0.0000443
 9,-0.00008954,-0.00001196,-0.00001713,0.00001184,-0.00010770,-0.000080
 46,0.00000739,-0.00002840,0.00001833,-0.00003556,0.00000079,0.00000696
 ,-0.00000180,-0.00003484,0.00002657,-0.00002619,0.00003019,0.00014273,
 0.00001337,-0.00000639,-0.00005705,-0.00002316,-0.00002898,-0.00008531
 ,0.00002999,-0.00000079,0.00002983,0.00000595,0.00000063,-0.00000533,-
 0.00000158,0.00000016,-0.00000502,-0.00000125,-0.00039697,-0.00163318,
 0.00160558,-0.00651338,0.00000726,-0.00524638,0.00087313,0.00015953,-0
 .00016978,-0.02342717,-0.00791528,0.00825701,-0.00014581,0.00059156,0.
 00054389,0.00051398,0.00002093,0.00066654,0.04809673,0.01351249,-0.056
 45162,0.00021970,0.00021521,-0.00012051,-0.00032845,-0.00000494,-0.000
 13899,0.00016711,0.00030303,0.00014672,0.00000321,0.00001244,-0.000068
 18,0.00000224,-0.00049151,-0.00058180,0.01689770,0.00679723,-0.0033099
 3,-0.04904997,-0.01486608,0.05832713,0.00000306,-0.00007516,0.00005069
 ,-0.00000860,0.00000032,-0.00000443,-0.00000253,-0.00000321,0.00000419
 ,0.00001288,0.00000823,-0.00000603,-0.00000175,-0.00000325,0.00000120,
 0.00000681,-0.00000911,0.00000955,-0.00000235,-0.00000227,0.00000332,-
 0.00000196,0.00001021,-0.00000005,0.00000535,-0.00000345,0.00000213,-0
 .00000005,-0.00000690,0.00000594,-0.00000258,-0.00000040,-0.00000053,0
 .00000069,-0.00000079,-0.00000075,0.00000085,-0.00000028,0.00000066,0.
 00044379,0.00066893,-0.00049907,0.00192503,-0.00007045,0.00109295,-0.0
 0126076,0.00040478,-0.00073141,-0.00212961,0.01591983,-0.00893444,-0.0
 0073176,-0.00138645,-0.00154788,0.00027544,0.00049481,0.00085970,-0.04
 348651,0.00191295,-0.00049722,-0.00039433,-0.00031215,-0.00029151,-0.0
 0021270,0.00037118,-0.00020207,-0.00013744,0.00004470,0.00012940,0.000
 23815,-0.00036209,0.00000690,0.00000796,-0.00013084,0.00001855,-0.0006
 8445,0.01148937,-0.00679627,0.00165608,-0.02629038,0.01334991,0.043796
 44,0.00006790,-0.00000951,-0.00000940,-0.00000996,-0.00001324,0.000033
 79,0.00000590,0.00000846,-0.00000748,0.00001795,0.00001619,-0.00000121
 ,0.00000774,-0.00000375,0.00001124,-0.00000447,0.00000241,-0.00000430,
 0.00001047,-0.00000722,0.00000574,-0.00000970,-0.00005830,-0.00000290,
 0.00000343,0.00002316,0.00000804,0.00001302,0.00003840,-0.00001519,0.0
 0000101,-0.00001252,-0.00000198,-0.00000023,0.00000249,0.00000099,-0.0
 0000024,0.00000223,0.00000026,-0.00012126,-0.00001932,-0.00008126,0.00
 084759,0.00055427,0.00005070,0.00010486,0.00038767,-0.00001855,-0.0008
 3492,0.00090438,-0.00236823,-0.00060493,0.00052949,-0.00123310,-0.0002
 6964,0.00047465,-0.00118925,0.00340841,-0.25923128,0.10975156,-0.00013
 335,-0.00022187,0.00030470,0.00013663,-0.00004646,-0.00002731,0.000114
 77,0.00027953,-0.00006058,-0.00021635,0.00043756,-0.00028544,0.0001002
 5,0.00002385,0.00003052,-0.00069060,-0.01664676,0.00946822,0.00072873,
 -0.00661141,0.00269643,-0.00279855,0.27875600,-0.00010863,-0.00009589,
 0.00006019,-0.00000326,0.00001706,-0.00005805,-0.00000712,-0.00001757,
 0.00001469,-0.00000736,-0.00000811,-0.00000159,-0.00001341,0.,-0.00001
 294,0.00002555,-0.00001401,0.00002250,-0.00001778,0.00000659,-0.000004
 84,0.00000647,0.00010219,0.00002218,0.00000950,-0.00004410,-0.00002102
 ,-0.00001880,-0.00006412,0.00001942,-0.00000289,0.00002236,0.00000453,
 0.00000139,-0.00000445,-0.00000127,0.00000046,-0.00000381,-0.00000075,
 0.00088154,0.00072536,-0.00060840,0.00113932,-0.00098454,0.00179595,-0
 .00223047,0.00100195,-0.00112930,0.00041238,0.02725363,-0.01631543,-0.
 00205735,-0.00394846,-0.00189819,0.00037583,0.00142533,0.00097651,-0.0
 0163866,0.10615057,-0.09939315,0.00010411,-0.00079006,0.00003145,-0.00
 020491,0.00044527,0.00011288,-0.00001982,-0.00012092,0.00046803,-0.000
 16438,-0.00087614,-0.00030085,0.00004715,-0.00006555,-0.00006144,-0.00
 060784,-0.01690662,0.00932965,-0.00028832,0.00385365,-0.00309657,0.004
 16823,-0.11736626,0.10990652,0.00002031,0.00004036,-0.00004645,0.00000
 489,-0.00000182,0.00002785,0.00000267,0.00000503,-0.00000418,-0.000000
 85,0.00000203,-0.00000299,0.00000237,0.00000218,0.00000260,-0.00000748
 ,-0.00000040,-0.00000635,0.00000601,-0.00000201,-0.00000024,-0.0000120
 3,-0.00003155,-0.00001073,0.00000083,0.00001283,0.00000695,0.00000694,
 0.00002227,-0.00000684,-0.00000024,-0.00000806,-0.00000160,-0.00000011
 ,0.00000124,0.00000029,0.00000013,0.00000135,0.00000046,-0.00004084,-0
 .00026514,0.00049336,0.00039955,0.00000645,-0.00016922,0.00095735,-0.0
 0041555,0.00044334,-0.00014730,-0.00041734,0.00015539,-0.00232050,-0.0
 0019596,-0.00159995,0.00004974,0.00004056,-0.00006300,0.00014818,0.000
 15468,0.00010497,-0.06291566,0.05722015,-0.03992522,-0.00016959,0.0004
 0007,-0.00033659,0.00000473,0.00000191,0.00001857,0.00001879,0.0000159
 3,0.00002751,0.00000062,-0.00000899,-0.00000366,-0.00020973,0.00001034
 ,-0.00005561,0.00024768,-0.00020011,-0.00000207,0.00011662,0.00006959,
 0.00002900,0.06422196,-0.00003972,0.00002163,-0.00005918,0.00001831,0.
 00001188,-0.00001887,0.00000167,-0.00000597,0.00000279,-0.00002573,-0.
 00002282,0.00001277,-0.00000731,0.00000651,-0.00001070,0.00000482,-0.0
 0000085,-0.00000299,-0.00000927,0.00000599,-0.00000825,0.00000789,0.00
 004558,-0.00000155,-0.00000761,-0.00001722,-0.00000681,-0.00001119,-0.
 00002615,0.00000983,0.00000277,0.00001023,0.00000237,-0.00000052,-0.00
 000112,-0.00000029,-0.00000037,-0.00000164,-0.00000086,0.00041875,-0.0
 0047828,0.00115275,-0.00099166,0.00005550,-0.00025653,0.00084816,0.003
 31435,0.00025548,0.00104559,-0.00152607,-0.00479860,0.00731467,-0.0244
 2158,0.01607113,-0.00041865,-0.00106756,0.00132023,-0.00039102,0.00016
 662,-0.00072700,0.05580743,-0.20689018,0.11849488,-0.00084232,0.000640
 85,0.00149804,-0.00005166,0.00004090,-0.00009064,0.00021693,-0.0005245
 5,-0.00031440,0.00008146,0.00003176,-0.00001014,-0.00010545,0.00010547
 ,-0.00004397,0.00009312,0.00001113,-0.00004967,0.00007413,0.00004787,0
 .00014766,-0.06193666,0.22600177,0.00003249,0.00001269,-0.00002649,-0.
 00000001,-0.00000909,0.00002290,0.00000382,0.00000599,-0.00000632,0.00
 000895,0.00000597,-0.00000369,0.00000330,-0.00000413,0.00000791,-0.000
 00786,0.00000165,0.00000043,0.00000714,-0.00000423,0.00000317,-0.00000
 501,-0.00003167,-0.00000858,-0.00000028,0.00001487,0.00000708,0.000007
 86,0.00002226,-0.00000564,-0.00000038,-0.00000807,-0.00000213,-0.00000
 001,0.00000119,0.00000022,0.00000017,0.00000135,0.00000060,-0.00004861
 ,-0.00036276,0.00015975,-0.00044712,0.00012944,0.00024383,0.00142316,0
 .00093443,0.00102054,0.00011934,-0.00241662,-0.00264986,0.00500929,-0.
 01677814,0.00848848,-0.00009236,-0.00077555,0.00068265,0.00019258,0.00
 018942,-0.00089140,-0.04125568,0.12223609,-0.13245055,0.00002421,-0.00
 057358,0.00092937,-0.00002427,0.00007312,0.00004042,0.00009391,-0.0003
 2450,-0.00008850,0.00001222,0.00003734,0.00001137,-0.00028251,0.000335
 66,0.00054159,0.00003327,-0.00006411,0.00000645,-0.00006430,0.00020659
 ,0.00026267,0.04395439,-0.12800975,0.14246353,-0.00010689,-0.00005663,
 0.00008014,-0.00000322,0.00001993,-0.00004667,-0.00000629,-0.00001747,
 0.00001450,-0.00000429,-0.00002219,-0.00000632,-0.00001180,0.00000182,
 -0.00001527,0.00001251,-0.00000136,0.00001369,-0.00001098,0.00001070,-
 0.00000719,0.00000438,0.00009949,0.00001358,0.00000212,-0.00004145,-0.
 00002013,-0.00002159,-0.00006462,0.00002030,0.00000091,0.00002319,0.00
 000491,0.00000039,-0.00000373,-0.00000102,-0.00000018,-0.00000379,-0.0
 0000111,0.00086019,0.00089475,-0.00046785,0.00015064,-0.00031764,0.000
 10927,0.00100928,-0.00102936,-0.00014819,-0.00027086,-0.00009452,-0.00
 077647,-0.00031370,0.00135312,0.00197585,-0.00000581,-0.00011172,0.000
 19936,0.00000764,0.00093900,-0.00075529,-0.26579654,-0.04413518,-0.095
 29347,-0.00028969,0.00024619,0.00039778,-0.00000591,0.00004077,0.00003
 954,0.00002625,-0.00008094,-0.00002233,0.00002159,-0.00001329,-0.00001
 699,-0.00035051,0.00019984,0.00028387,0.00023865,0.00022611,-0.0002094
 5,0.00013163,0.00037374,0.00024630,-0.00618411,-0.00151238,-0.00172871
 ,0.28646887,-0.00020995,-0.00006741,0.00031329,-0.00000709,0.00003491,
 -0.00011509,-0.00003030,-0.00003360,0.00002673,-0.00000927,-0.00002097
 ,0.00001261,-0.00001576,0.00000841,-0.00002859,0.00002833,-0.00001363,
 0.00000984,-0.00002786,0.00002018,-0.00001514,0.00003233,0.00017502,0.
 00004617,0.00000103,-0.00007689,-0.00003872,-0.00004117,-0.00012199,0.
 00003652,-0.00000045,0.00004253,0.00000889,0.00000079,-0.00000685,-0.0
 0000181,-0.00000028,-0.00000739,-0.00000210,0.00076947,0.00153172,-0.0
 0214538,0.00085469,-0.00025343,0.00057135,-0.00402866,-0.00567955,-0.0
 0408323,-0.00067871,0.00057298,-0.00005361,-0.02279563,-0.00143715,-0.
 00615874,0.00018778,0.00006682,-0.00000490,-0.00024236,-0.00073992,0.0
 0039153,-0.04051862,-0.05427457,-0.01990954,-0.00027936,0.00089406,0.0
 0069498,-0.00001336,0.00005532,0.00005648,0.00000004,0.00001029,0.0000
 3223,0.00003508,-0.00002635,-0.00002498,-0.00015969,-0.00057574,0.0005
 0032,0.00043955,-0.00050243,0.00026036,0.00010562,0.00017202,0.0000393
 0,0.02219663,0.00538897,0.00857216,0.04611760,0.05648822,-0.00021951,-
 0.00007629,0.00022737,-0.00001291,0.00003843,-0.00008203,-0.00002668,-
 0.00002891,0.00002383,-0.00000756,-0.00001694,0.00000496,-0.00001400,0
 .00000403,-0.00002186,0.00002051,-0.00001029,0.00001091,-0.00002210,0.
 00001889,-0.00001280,0.00002626,0.00013516,0.00003644,0.00000154,-0.00
 005879,-0.00002977,-0.00003199,-0.00009457,0.00002696,-0.00000017,0.00
 003288,0.00000705,0.00000054,-0.00000516,-0.00000137,-0.00000030,-0.00
 000570,-0.00000168,0.00059095,0.00114279,-0.00221573,0.00060719,-0.000
 04323,0.00082256,-0.00343959,-0.00553224,-0.00139014,-0.00021322,-0.00
 001595,-0.00015622,-0.01496410,0.00149908,-0.00586703,0.00001975,0.000
 02473,-0.00001600,-0.00016781,0.00071053,-0.00002959,-0.09386770,-0.02
 094762,-0.08598803,-0.00009871,0.00048083,0.00053766,-0.00001937,0.000
 00816,-0.00000465,0.00000962,-0.00002153,0.00000874,0.00003388,-0.0000
 2485,-0.00001501,0.00023043,0.00042750,-0.00019363,0.00021295,0.000120
 79,0.00013283,0.00014483,0.00003185,-0.00003438,-0.01463414,-0.0043082
 6,-0.00670940,0.10447623,0.02223985,0.09116821,0.00003794,0.00006430,-
 0.00002566,0.00001479,-0.00000356,0.00000999,0.00000425,0.00000523,-0.
 00000466,-0.00000162,0.00000420,0.00000533,0.00000168,0.00000027,0.000
 00229,-0.00000598,0.00000048,-0.00001013,0.00000178,-0.00000098,-0.000
 00036,-0.00000893,-0.00000645,0.00000536,0.00000795,0.00000467,-0.0000
 0282,0.00000485,0.00001281,-0.00000854,0.00000008,-0.00000603,-0.00000
 049,-0.00000015,0.00000115,0.00000040,-0.00000033,0.00000095,0.0000003
 1,0.00006993,-0.00030305,0.00043117,0.00009998,-0.00036788,-0.00055607
 ,0.00173318,0.00052930,-0.00060630,-0.00014223,-0.00014188,0.00104569,
 -0.00297377,-0.00063693,-0.00143876,-0.00005784,0.00008489,-0.00017977
 ,-0.00022682,-0.00004498,0.00074814,-0.16316651,-0.01710128,0.13272631
 ,0.00115171,0.00090462,0.00007328,-0.00001215,-0.00005541,-0.00006122,
 -0.00000664,0.00005517,-0.00000654,0.00001434,-0.00000984,0.00002106,0
 .00000807,0.00021359,-0.00077922,0.00020291,-0.00005140,-0.00002387,0.
 00016987,-0.00026944,-0.00025935,0.00572654,0.00038130,-0.00704592,-0.
 01624976,-0.00224279,0.02083760,0.17322697,0.00003819,-0.00003434,0.00
 003676,-0.00002033,-0.00001307,0.00002732,0.00000628,0.00001113,-0.000
 00809,0.00002764,0.00002937,0.00000525,0.00000509,-0.00000509,0.000016
 94,0.00000836,-0.00001414,-0.00000008,0.00001173,-0.00000867,0.0000077
 3,-0.00001062,-0.00004909,0.00001206,0.00001600,0.00002397,-0.00000023
 ,0.00001933,0.00004311,-0.00002033,-0.00000257,-0.00001927,-0.00000412
 ,0.,0.00000285,0.00000065,0.00000009,0.00000267,0.00000157,-0.00081708
 ,-0.00007535,-0.00094664,-0.00003851,0.00001573,0.00065388,0.00078496,
 0.00123410,0.00225485,0.00065543,0.00070981,-0.00007796,0.01932609,0.0
 0298113,-0.02091314,0.00004004,0.00023030,-0.00008126,0.00032427,-0.00
 047286,0.00037116,-0.02055400,-0.04833568,0.02098062,-0.00089999,-0.00
 445582,-0.00283734,0.00002426,0.00006768,0.00003384,-0.00003274,0.0000
 5416,0.00007245,-0.00005852,0.00004080,0.00000302,0.00078840,-0.000763
 53,0.00062262,-0.00012826,0.00002639,-0.00004154,-0.00009416,0.0001253
 3,0.00004631,-0.01672830,-0.00198892,0.01675373,-0.00301196,-0.0016255
 9,0.00444444,0.01947702,0.05188679,0.00000861,0.00001406,0.00001540,0.
 00000313,-0.00000129,0.00002604,-0.00000304,0.00000307,-0.00000593,0.0
 0001716,0.00001819,0.00000578,0.00000724,-0.00000326,0.00001197,-0.000
 00058,-0.00000502,-0.00000619,0.00000250,-0.00000612,0.00000332,-0.000
 01075,-0.00003602,0.00000501,0.00001213,0.00002047,0.00000589,0.000010
 90,0.00003398,-0.00001416,-0.00000137,-0.00001664,-0.00000365,-0.00000
 034,0.00000260,0.00000036,0.00000013,0.00000206,0.00000146,-0.00036344
 ,-0.00047224,-0.00078494,-0.00047972,0.00041657,0.00067113,-0.00021001
 ,0.00076665,0.00160770,0.00027491,0.00079819,-0.00052030,0.01232769,0.
 00315076,-0.01373769,-0.00008715,-0.00002963,0.00008214,-0.00058712,0.
 00034588,-0.00018910,0.13209404,0.01856010,-0.19280447,-0.00108336,-0.
 00387537,-0.00180093,0.00004688,0.00004126,0.00000321,-0.00000152,-0.0
 0008265,0.00004123,-0.00005422,0.00004133,-0.00001227,-0.00037629,0.00
 079493,0.00018129,-0.00008312,0.00019698,0.00003743,-0.00001341,0.0000
 0457,0.00010565,0.01108225,0.00061709,-0.01194773,-0.00868798,-0.00106
 442,0.01000939,-0.14495080,-0.02004042,0.20912032,0.00000782,0.0000961
 4,-0.00005199,0.00002753,0.00000501,-0.00000497,0.00000141,-0.00000099
 ,0.,-0.00002151,-0.00001603,0.00000317,-0.00000348,0.00000446,-0.00000
 710,-0.00000319,0.00000419,-0.00000426,-0.00000312,0.00000487,-0.00000
 501,0.00000785,0.00002361,-0.00000252,-0.00000456,-0.00000894,-0.00000
 379,-0.00000453,-0.00001096,0.00000378,0.00000071,0.00000538,0.0000010
 7,-0.00000009,-0.00000070,-0.00000008,-0.00000015,-0.00000075,-0.00000
 037,0.00059839,-0.00057308,0.00072365,-0.00147001,-0.00115569,0.000599
 58,0.00238924,0.00078770,-0.00091524,-0.00218191,0.00141849,0.00183380
 ,0.00138473,-0.02077230,0.01218810,-0.00054401,0.00038225,0.00008494,-
 0.00010095,-0.00046893,0.00014165,0.00062498,-0.00075370,-0.00056502,-
 0.04986322,0.03747543,-0.02010850,0.00001876,0.00004983,-0.00000413,0.
 00017028,-0.00006743,-0.00002078,0.00034135,-0.00004716,-0.00005607,0.
 00002382,0.00002493,-0.00000965,0.00008713,-0.00000471,0.00012636,0.00
 012267,-0.00003223,0.00018034,-0.00002954,0.00041191,0.00013580,0.0000
 0377,0.00013950,-0.00000245,-0.00002698,-0.00011687,-0.00021292,0.0521
 3977,-0.00006223,-0.00001333,-0.00000418,0.00000503,0.00001434,-0.0000
 3508,-0.00000148,-0.00001001,0.00000861,-0.00001788,-0.00002278,0.0000
 0719,-0.00000832,0.00000423,-0.00001257,0.00000199,0.00000210,0.000002
 43,-0.00000983,0.00000910,-0.00000800,0.00001297,0.00006171,0.00000498
 ,-0.00000573,-0.00002479,-0.00001183,-0.00001456,-0.00003960,0.0000133
 0,0.00000242,0.00001482,0.00000353,-0.00000039,-0.00000190,-0.00000052
 ,-0.00000042,-0.00000243,-0.00000115,0.00030202,-0.00014523,0.00015669
 ,-0.00059720,0.00005973,0.00010460,-0.00034002,0.00052089,-0.00040522,
 0.00013430,0.00108777,-0.00063241,0.00132380,-0.00424114,0.00091785,-0
 .00002047,-0.00010050,0.00037358,-0.00014432,-0.00021364,-0.00000731,0
 .00053525,0.00041277,-0.00131737,0.03531553,-0.24942175,0.11008880,0.0
 0023669,0.00021838,0.00005491,-0.00007914,0.00000383,0.00019531,-0.000
 33517,0.00003301,-0.00007522,0.00000565,0.00006421,0.00005541,0.000019
 25,0.00002111,-0.00000351,0.00004525,0.00001914,0.00011688,0.00014506,
 0.00061205,-0.00020906,-0.00010911,0.00003139,0.00000569,-0.00019324,0
 .00020713,-0.00014370,-0.03945590,0.26803028,0.00010444,-0.00003660,0.
 00002761,-0.00002792,-0.00001945,0.00005321,0.00000249,0.00001472,-0.0
 0001139,0.00003491,0.00003184,-0.00001116,0.00001368,-0.00000703,0.000
 02012,-0.00001072,0.00000198,-0.00000187,0.00001759,-0.00001239,0.0000
 1185,-0.00002005,-0.00010123,-0.00001033,0.00000563,0.00004043,0.00001
 762,0.00002242,0.00006192,-0.00001987,-0.00000179,-0.00002342,-0.00000
 505,-0.00000002,0.00000346,0.00000079,0.00000037,0.00000376,0.00000139
 ,-0.00077457,0.00034231,-0.00069219,0.00174182,0.00144173,-0.00057075,
 -0.00068803,-0.00119711,0.00140479,0.00308079,-0.00287677,-0.00100847,
 -0.00469040,0.02272199,-0.01464292,0.00001928,-0.00073068,0.00006430,0
 .00001867,0.00038805,0.00017264,-0.00083116,0.00111932,0.00071064,-0.0
 1803845,0.10732434,-0.10281863,0.00022436,0.00013199,0.00015360,-0.000
 09245,0.00011403,0.00025447,-0.00018327,-0.00004069,-0.00008881,0.0000
 4769,0.00000347,-0.00003945,-0.00003408,-0.00004409,0.00005276,-0.0001
 4019,0.00006123,-0.00019481,0.00047031,-0.00070990,-0.00020923,-0.0000
 2404,-0.00004529,-0.00006641,-0.00005465,-0.00014178,0.00042897,0.0170
 8575,-0.11921177,0.11217745,0.00006996,0.00006069,-0.00004232,-0.00000
 737,-0.00000796,0.00001207,0.00000047,0.00000534,-0.00000672,-0.000002
 67,0.00000506,-0.00000368,0.00000100,-0.00000073,0.00000449,0.00000161
 ,0.00000087,0.00000087,0.00000605,-0.00000412,0.00000078,0.00000301,-0
 .00003052,0.00000503,0.00000703,0.00001412,-0.00000220,0.00000900,0.00
 002460,-0.00001193,0.00000012,-0.00000889,-0.00000137,-0.00000017,0.00
 000145,0.00000050,-0.00000013,0.00000151,0.00000027,-0.00000776,-0.000
 27919,0.00051495,-0.00015757,0.00005441,-0.00020625,0.00264402,0.00041
 968,-0.00115768,0.00039541,0.00024637,-0.00066720,0.00007827,0.0176959
 4,0.01431516,0.00039480,-0.00035527,0.00040396,-0.00003054,0.00006787,
 -0.00009313,-0.00308714,-0.00103360,0.00322506,-0.04633795,-0.01920167
 ,-0.01643226,0.00004337,-0.00063630,0.00007879,-0.00022848,0.00001339,
 0.00001516,-0.00020403,0.00014627,-0.00034235,-0.00000474,0.00001880,-
 0.00006942,0.00005749,-0.00001940,0.00004755,0.00004343,-0.00002472,-0
 .00003141,0.00001395,-0.00026145,-0.00012177,0.00024551,0.00003083,0.0
 0007216,0.00009021,0.00103673,0.00111288,-0.00050250,0.00359812,0.0035
 8671,0.04740208,0.00001975,0.00000829,-0.00000786,0.00000331,-0.000004
 01,0.00001331,0.00000092,0.00000378,-0.00000307,0.00000557,0.00000739,
 -0.00000189,0.00000550,-0.00000091,0.00000460,-0.00000209,-0.00000443,
 -0.00000279,0.00000300,-0.00000440,0.00000411,-0.00000370,-0.00002526,
 -0.00000225,0.00000731,0.00001092,0.00000354,0.00000609,0.00001673,-0.
 00000553,-0.00000055,-0.00000648,-0.00000179,0.00000006,0.00000092,0.0
 0000016,0.00000032,0.00000103,0.00000054,-0.00001929,0.00011089,-0.000
 12315,0.00029949,0.00003896,-0.00005663,0.00046366,0.00049862,0.000221
 94,0.00031237,-0.00025010,0.00003091,0.00041562,0.00228282,0.00332784,
 -0.00025936,-0.00187233,0.00168526,0.00009791,0.00000278,0.00002378,0.
 00018544,0.00084375,0.00008356,-0.01805270,-0.19646773,-0.13757854,-0.
 00011525,-0.00104580,0.00079052,-0.00018262,0.00009351,0.00035890,-0.0
 0018993,-0.00057724,0.00030255,-0.00001282,-0.00001996,-0.00001858,-0.
 00002523,0.00000332,0.00000256,-0.00003077,0.00005078,-0.00001355,-0.0
 0021340,0.00033143,0.00011414,-0.00010516,-0.00005601,0.00014264,-0.00
 020708,0.00019859,-0.00011355,-0.00288741,-0.01811857,-0.01779456,0.02
 010222,0.21321974,0.00000355,-0.00001869,-0.00005194,0.00000390,-0.000
 00325,0.00000676,0.00000390,0.00000090,0.00000036,-0.00000158,-0.00000
 044,0.00000057,0.00000305,0.00000096,-0.00000015,-0.00000616,0.0000042
 3,-0.00000472,0.00000014,0.00000094,-0.00000056,-0.00000226,-0.0000134
 5,-0.00001877,-0.00001161,0.00000615,0.00001133,-0.00000112,0.00000356
 ,0.00000379,0.00000178,-0.00000139,-0.00000042,-0.00000058,0.00000064,
 -0.00000017,0.00000004,0.00000023,-0.00000002,-0.00004055,-0.00020847,
 0.00004192,-0.00014960,0.00042458,0.00017066,-0.00119085,0.00097608,0.
 00200702,0.00018493,-0.00170662,0.00026701,-0.00493455,-0.01854183,-0.
 01631889,-0.00035740,-0.00015482,-0.00028223,-0.00011014,0.00007633,0.
 00016508,0.00386279,0.00198567,-0.00293564,-0.01356963,-0.13320114,-0.
 16612774,0.00053067,0.00062048,0.00037886,-0.00009474,-0.00003817,0.00
 057177,-0.00043537,0.00039878,-0.00031262,0.00004774,0.00000190,0.0001
 1274,0.00005958,-0.00002958,0.00003379,0.00000885,0.00005436,-0.000044
 69,0.00003707,-0.00015651,0.00016808,-0.00006944,0.00032789,0.00030628
 ,0.00034175,-0.00145967,-0.00067940,0.00166500,0.01112969,0.01063207,0
 .01414674,0.14664834,0.17907077,-0.00026725,-0.00040191,0.00025890,-0.
 00005388,0.00001824,-0.00013854,-0.00000861,-0.00003933,0.00003623,0.0
 0001639,-0.00002738,0.00001293,-0.00002093,0.00000547,-0.00002944,0.00
 003229,-0.00000767,0.00002059,-0.00002919,0.00001730,-0.00001166,0.000
 00628,0.00021495,0.00004251,0.00000958,-0.00008807,-0.00004707,-0.0000
 4475,-0.00014187,0.00004477,0.00000155,0.00004867,0.00001063,0.0000008
 4,-0.00000822,-0.00000204,-0.00000044,-0.00000830,-0.00000236,0.000103
 19,0.00210716,-0.00173752,0.00063391,-0.00044948,0.00059593,-0.0051386
 5,-0.00205924,0.00463721,-0.00038087,0.00033385,-0.00031600,-0.0162703
 2,0.00038041,-0.01213298,-0.00015435,0.00018208,0.00006039,-0.00009249
 ,-0.00016319,0.00002678,0.00031028,-0.00034577,-0.00069291,-0.27513895
 ,0.00053136,-0.09096357,0.00011902,0.00016041,0.00004279,0.00018209,-0
 .00002762,0.00002307,0.00034239,-0.00017761,-0.00010733,0.00005325,0.0
 0003553,-0.00003782,0.00020310,0.00000385,0.00013474,0.00010043,0.0000
 0791,0.00005454,0.00008786,-0.00011542,0.00006269,0.00044858,0.0003635
 1,0.00045902,0.00031243,-0.00007674,0.00020627,-0.00319032,-0.00028722
 ,-0.00086595,-0.00093610,0.00037855,0.00007437,0.29876526,-0.00004899,
 -0.00009555,0.00002735,-0.00000903,-0.00000019,-0.00002146,0.00000144,
 -0.00000608,0.00000728,0.00000488,-0.00000383,0.00000126,-0.00000249,0
 .00000061,-0.00000360,0.00000606,-0.00000277,0.00000513,-0.00000397,0.
 00000169,-0.00000004,-0.00000206,0.00003444,0.00000369,0.00000313,-0.0
 0001461,-0.00000663,-0.00000689,-0.00002350,0.00000820,-0.00000020,0.0
 0000797,0.00000171,0.00000029,-0.00000147,-0.00000039,0.00000002,-0.00
 000135,-0.00000031,-0.00000064,0.00059449,-0.00047956,0.00042674,-0.00
 001860,0.00008881,-0.00173772,0.00083330,0.00104347,-0.00038230,0.0001
 1066,-0.00008484,-0.00327160,-0.00246072,-0.00166375,-0.00026894,-0.00
 006646,-0.00035753,-0.00011592,-0.00004569,0.00002593,0.00011807,-0.00
 024213,-0.00009723,0.00110496,-0.04326404,0.00023359,0.00003658,0.0000
 7857,0.00022304,0.00025702,0.00006156,-0.00001886,0.00000071,-0.000598
 95,0.00011110,0.00003924,0.00002068,-0.00003843,0.00014924,0.00008843,
 0.00012027,0.00003076,0.00002294,-0.00002515,0.00007504,0.00012424,-0.
 00007849,0.00019091,0.00003553,-0.00031096,-0.00009876,-0.00003285,0.0
 0005910,0.02554096,0.00093049,0.00918166,-0.02168222,0.00072775,-0.007
 12806,-0.00035413,0.04320710,0.00017404,0.00030657,-0.00017433,0.00005
 097,-0.00001394,0.00006046,-0.00000108,0.00002153,-0.00002125,-0.00002
 766,0.00001777,-0.00000750,0.00001308,0.00000020,0.00000992,-0.0000173
 4,0.00000148,-0.00001532,0.00001156,-0.00000580,0.00000351,0.00000310,
 -0.00010620,-0.00002614,-0.00001013,0.00004418,0.00002855,0.00001920,0
 .00006529,-0.00002004,-0.00000043,-0.00002120,-0.00000476,-0.00000040,
 0.00000387,0.00000086,0.00000036,0.00000398,0.00000102,0.00052595,-0.0
 0108612,0.00131643,-0.00073013,-0.00020289,-0.00023395,0.00622200,0.00
 166700,-0.00284890,-0.00017758,0.00062643,0.00056930,0.01962874,-0.001
 15760,0.01058041,-0.00027382,0.00019992,-0.00015569,0.00036534,0.00003
 061,-0.00007714,-0.00055918,-0.00021354,0.00041867,-0.09447911,-0.0001
 8942,-0.08517836,0.00005200,-0.00000423,0.00005359,0.00005980,-0.00005
 653,0.00001172,0.00021182,0.00023650,0.00007756,-0.00003901,0.00000127
 ,0.00001190,-0.00022847,0.00011813,-0.00032691,-0.00012765,-0.00004833
 ,0.00004484,0.00001449,-0.00000012,-0.00006158,0.00042266,-0.00044876,
 -0.00048726,-0.00023339,0.00022763,0.00014321,-0.01279809,-0.00116046,
 -0.00579305,-0.01835333,0.00196448,-0.00717098,0.10028099,-0.00082631,
 0.08927106,0.00001041,0.00005311,0.00003062,0.00011424,0.00017191,0.00
 000394,0.00002661,-0.00000713,0.00002828,0.00003283,-0.00000780,-0.000
 00886,-0.00000443,-0.00000023,-0.00000713,-0.00000765,0.00001116,-0.00
 001854,-0.00000381,0.00000380,0.00000125,-0.00048562,0.00040560,0.0008
 5679,0.00081494,-0.00074390,0.00004233,0.00071012,-0.00352642,0.000428
 94,-0.12086556,-0.03174875,0.05454756,-0.01351339,-0.01581161,0.022872
 86,0.00793768,0.00778861,-0.01008320,-0.00013641,-0.00001633,-0.000014
 13,0.00006316,-0.00000032,0.00001823,0.00006910,0.00002662,-0.00001137
 ,-0.00002857,-0.00000084,0.00000581,-0.00001979,-0.00000435,-0.0000130
 8,0.00000504,0.00000349,-0.00000153,0.00000399,-0.00000040,-0.00000309
 ,0.00000514,-0.00000111,0.00000128,0.00000302,0.00000189,0.00000384,-0
 .00000097,0.00000058,0.00000050,0.00000009,-0.00000065,0.00000097,0.00
 000230,-0.00000217,-0.00000149,-0.00000054,-0.00000021,0.00000001,0.00
 000237,0.00000042,0.00000153,-0.00000005,-0.00000036,0.00000138,-0.000
 00035,0.00000057,-0.00000056,0.00000118,0.00000223,0.00000176,-0.00000
 015,-0.00000098,-0.00000065,0.00000030,0.00000076,-0.00000130,-0.00000
 048,-0.00000032,-0.00000014,0.00000265,0.00000047,-0.00000120,0.549936
 10,-0.00008728,-0.00039115,-0.00031953,-0.00102777,-0.00156087,0.00125
 560,-0.00000446,0.00009580,0.00001312,-0.00008306,-0.00001149,-0.00000
 286,0.00001211,0.00000344,0.00002569,0.00002213,-0.00003340,0.00006026
 ,0.00001586,-0.00001002,0.00000623,0.00327744,-0.00418063,-0.00633187,
 -0.00064054,0.00230323,0.00138783,-0.02569078,-0.03993610,0.03130700,-
 0.02480468,-0.09089979,0.03881665,0.00430545,0.00637826,-0.00725408,0.
 00179049,0.00247695,-0.00142562,0.00044752,0.00004969,0.00010664,-0.00
 019494,0.00001254,-0.00007522,-0.00022730,-0.00008417,0.00003650,0.000
 08277,0.00000415,-0.00001571,0.00006695,0.00001019,0.00003889,-0.00001
 497,-0.00000906,0.00000196,-0.00001091,0.00000123,0.00000913,-0.000016
 99,0.00000368,-0.00000429,-0.00000946,-0.00000513,-0.00001165,0.000002
 61,-0.00000141,-0.00000191,0.00000105,0.00000232,-0.00000159,-0.000006
 76,0.00000610,0.00000465,0.00000158,-0.00000012,0.00000003,-0.00000687
 ,-0.00000092,-0.00000504,-0.00000035,0.00000218,-0.00000406,0.00000127
 ,-0.00000139,0.00000140,-0.00000381,-0.00000723,-0.00000566,0.00000066
 ,0.00000239,0.00000200,-0.00000068,-0.00000223,0.00000365,0.00000135,0
 .00000102,0.00000045,-0.00000821,-0.00000136,0.00000379,-0.01938349,0.
 55865774,-0.00010342,-0.00015908,-0.00016633,-0.00029645,-0.00074168,0
 .00042256,0.00002622,0.00002375,-0.00000649,-0.00005842,-0.00000852,-0
 .00001247,0.00000304,0.00000687,0.00001021,0.00001632,-0.00002909,0.00
 004439,0.00001491,-0.00001153,0.00000495,0.00157940,-0.00176630,-0.003
 03823,0.00004973,0.00148256,0.00124976,-0.00540270,-0.00510899,0.00907
 018,0.05639956,0.05027988,-0.16242620,-0.00022018,0.00049544,-0.001200
 19,0.01677073,0.01419179,-0.01882541,0.00034291,0.00005773,0.00008936,
 -0.00015589,0.00000010,-0.00005940,-0.00017968,-0.00006821,0.00002302,
 0.00006700,0.00000397,-0.00001004,0.00005357,0.00000791,0.00003137,-0.
 00001224,-0.00000730,0.00000104,-0.00000848,0.00000031,0.00000768,-0.0
 0001432,0.00000259,-0.00000277,-0.00000765,-0.00000428,-0.00000950,0.0
 0000202,-0.00000044,-0.00000299,0.00000189,0.00000169,0.00000022,-0.00
 000581,0.00000413,0.00000348,0.00000103,-0.00000106,-0.00000035,-0.000
 00541,-0.00000058,-0.00000459,-0.00000095,0.00000239,-0.00000306,0.000
 00106,-0.00000123,0.00000092,-0.00000311,-0.00000598,-0.00000464,0.000
 00087,0.00000193,0.00000134,-0.00000055,-0.00000189,0.00000296,0.00000
 120,0.00000072,0.00000002,-0.00000661,-0.00000106,0.00000304,0.0287477
 7,0.02897910,0.53067655,-0.00000679,0.00000183,0.00000637,0.00003494,0
 .00002356,-0.00002110,-0.00000686,0.00000072,-0.00000838,-0.00000379,0
 .00000067,-0.00000111,-0.00000046,0.00000149,-0.00000086,0.00000090,-0
 .00000189,0.00000173,0.00000060,-0.00000070,-0.00000022,-0.00010252,0.
 00031685,0.00015438,-0.00022008,-0.00031617,-0.00000579,0.00050446,0.0
 0120498,-0.00098410,0.00825353,0.00299101,0.01815758,0.00116805,0.0007
 1219,-0.00032187,-0.00074153,-0.00249536,0.00260873,0.00001970,0.00000
 325,0.00000376,-0.00000861,0.00000131,-0.00000273,-0.00000872,-0.00000
 245,0.00000050,0.00000415,-0.00000037,-0.00000107,0.00000251,0.0000000
 6,0.00000177,-0.00000040,-0.00000089,0.00000060,-0.00000033,-0.0000004
 1,0.00000062,-0.00000057,0.00000036,-0.00000047,-0.00000042,-0.0000001
 0,-0.00000054,0.00000016,0.00000007,-0.00000013,-0.00000013,0.00000052
 ,-0.00000029,-0.00000022,0.00000051,0.00000012,0.00000007,0.00000027,0
 .00000007,-0.00000027,0.00000009,-0.00000029,-0.00000011,0.00000015,-0
 .00000049,0.00000004,0.00000006,0.00000004,-0.00000018,-0.00000030,-0.
 00000020,0.00000003,0.00000016,0.00000026,-0.00000003,0.,0.00000009,0.
 00000007,0.00000007,0.00000016,-0.00000035,-0.00000012,0.00000017,-0.1
 0195351,-0.01685174,-0.10833301,0.10599046,0.00002593,0.00001980,0.000
 01855,0.00000522,0.00014550,-0.00004140,-0.00000158,-0.00001480,-0.000
 00944,0.00000624,0.00000302,0.00000413,-0.00000033,-0.00000157,-0.0000
 0132,-0.00000199,0.00000417,-0.00000594,-0.00000227,0.00000121,-0.0000
 0089,-0.00053082,-0.00018612,0.00056481,0.00005755,-0.00032838,-0.0002
 7931,0.00113123,0.00251467,-0.00058865,0.00736837,0.00004630,0.0151432
 4,0.00008092,0.00026981,-0.00084648,-0.00172284,-0.00072900,0.00227311
 ,-0.00004443,-0.00000709,-0.00001120,0.00002231,0.00000032,0.00000549,
 0.00002538,0.00000971,-0.00000371,-0.00001077,-0.00000022,0.00000232,-
 0.00000729,-0.00000084,-0.00000411,0.00000198,0.00000083,-0.00000033,0
 .00000153,0.00000001,-0.00000089,0.00000181,-0.00000037,0.00000066,0.0
 0000097,0.00000066,0.00000120,-0.00000033,0.00000010,0.00000018,-0.000
 00038,-0.00000007,0.00000014,0.00000098,-0.00000053,-0.00000063,-0.000
 00027,-0.00000036,-0.00000002,0.00000101,0.00000028,0.00000032,-0.0000
 0029,-0.00000006,0.00000047,-0.00000015,0.00000020,-0.00000022,0.00000
 053,0.00000079,0.00000062,0.00000009,-0.00000029,-0.00000038,0.0000001
 2,0.00000028,-0.00000047,-0.00000013,-0.00000017,-0.00000015,0.0000009
 7,0.00000017,-0.00000037,-0.01674914,-0.04961180,-0.03393871,0.0194144
 3,0.04929332,0.00001854,0.00003069,0.00000896,-0.00001471,0.00000540,-
 0.00002819,0.00000226,0.00000426,0.00000918,0.00001777,-0.00000053,0.0
 0000354,0.00000010,-0.00000373,0.00000107,-0.00000416,0.00000782,-0.00
 001002,-0.00000381,0.00000183,-0.00000060,0.00010395,-0.00031458,0.000
 13852,0.00012002,0.00040309,0.00006743,-0.00022031,-0.00084281,0.00194
 015,-0.01182965,-0.00458580,-0.02311002,0.00015889,-0.00028053,0.00107
 100,0.00318771,0.00273615,-0.00219385,-0.00009075,-0.00001449,-0.00002
 197,0.00003966,-0.00000102,0.00001688,0.00004371,0.00001531,-0.0000022
 1,-0.00001614,-0.00000083,0.00000170,-0.00001366,-0.00000197,-0.000008
 99,0.00000251,0.00000289,-0.00000128,0.00000171,0.00000065,-0.00000233
 ,0.00000355,-0.00000075,0.00000073,0.00000205,0.00000076,0.00000239,-0
 .00000042,-0.00000018,0.00000135,-0.00000016,-0.00000099,-0.00000009,0
 .00000134,-0.00000127,-0.00000070,-0.00000011,0.00000056,0.00000015,0.
 00000118,-0.00000009,0.00000146,0.00000079,-0.00000099,0.00000110,-0.0
 0000027,0.00000009,-0.00000010,0.00000085,0.00000155,0.00000115,-0.000
 00049,-0.00000044,-0.00000027,0.00000005,0.00000024,-0.00000062,-0.000
 00048,0.,0.00000003,0.00000175,0.00000034,-0.00000070,-0.10515295,-0.0
 3127114,-0.25303762,0.11373060,0.03374303,0.27679226,-0.00005708,-0.00
 008425,-0.00007723,-0.00022659,-0.00029440,0.00018980,0.00000624,0.000
 01058,-0.00000094,-0.00002657,0.00000260,-0.00000379,0.00000275,0.0000
 0241,0.00000521,0.00000734,-0.00001146,0.00001783,0.00000537,-0.000004
 24,0.00000159,0.00122114,-0.00042090,-0.00110638,-0.00028033,0.0002607
 6,0.00035502,-0.00187845,-0.00363671,0.00382399,-0.00137525,-0.0146370
 6,-0.00613292,0.00018955,0.00045785,-0.00054964,0.00048605,0.00022663,
 0.00001145,0.00014742,0.00001971,0.00003293,-0.00006529,0.00000098,-0.
 00002326,-0.00007620,-0.00002834,0.00001110,0.00002949,0.00000151,-0.0
 0000532,0.00002271,0.00000393,0.00001377,-0.00000518,-0.00000293,0.000
 00087,-0.00000380,0.00000039,0.00000316,-0.00000560,0.00000127,-0.0000
 0138,-0.00000325,-0.00000186,-0.00000409,0.00000103,-0.00000027,-0.000
 00109,0.00000087,0.00000065,-0.00000038,-0.00000254,0.00000179,0.00000
 156,0.00000050,-0.00000006,-0.00000006,-0.00000243,-0.00000043,-0.0000
 0172,0.,0.00000076,-0.00000137,0.00000043,-0.00000050,0.00000046,-0.00
 000131,-0.00000247,-0.00000191,0.00000031,0.00000100,0.00000078,-0.000
 00026,-0.00000075,0.00000129,0.00000054,0.00000032,0.00000011,-0.00000
 286,-0.00000050,0.00000127,-0.04456174,-0.00970301,-0.00027302,-0.0013
 3484,-0.01370338,-0.00149776,0.04496132,-0.00005604,-0.00008783,-0.000
 06921,-0.00012481,-0.00023065,0.00018975,0.00000009,0.00000002,-0.0000
 0739,-0.00003702,-0.00000397,-0.00000864,0.00000179,0.00000649,0.00000
 260,0.00000984,-0.00001717,0.00002395,0.00000793,-0.00000499,0.0000018
 5,0.00112304,0.00063326,-0.00178300,-0.00037873,0.00010626,0.00067254,
 -0.00293256,-0.00239571,0.00388724,0.00213194,-0.01273926,-0.00615354,
 -0.00042502,0.00046317,0.00001044,0.00028801,0.00038444,0.00038311,0.0
 0019885,0.00003536,0.00003986,-0.00008888,-0.00000239,-0.00002871,-0.0
 0010200,-0.00003964,0.00001513,0.00004170,0.00000252,-0.00000745,0.000
 03120,0.00000567,0.00001798,-0.00000718,-0.00000364,0.00000079,-0.0000
 0530,0.00000062,0.00000409,-0.00000745,0.00000170,-0.00000189,-0.00000
 416,-0.00000270,-0.00000549,0.00000167,-0.00000020,-0.00000164,0.00000
 162,0.00000048,-0.00000017,-0.00000379,0.00000219,0.00000214,0.0000008
 4,0.00000007,-0.00000018,-0.00000358,-0.00000071,-0.00000216,0.0000003
 1,0.00000089,-0.00000166,0.00000066,-0.00000088,0.00000069,-0.00000190
 ,-0.00000333,-0.00000261,0.00000029,0.00000150,0.00000131,-0.00000041,
 -0.00000125,0.00000188,0.00000068,0.00000055,0.00000011,-0.00000392,-0
 .00000063,0.00000167,-0.01190857,-0.30397948,-0.04919142,0.00010158,-0
 .00238168,-0.00015513,0.01325736,0.32926437,0.00004111,0.00011430,0.00
 008750,0.00022703,0.00044998,-0.00034077,-0.00000028,-0.00002044,0.000
 00539,0.00003502,0.00000633,0.00000469,-0.00000221,-0.00000442,-0.0000
 0565,-0.00000984,0.00001568,-0.00002469,-0.00000776,0.00000538,-0.0000
 0260,-0.00073685,0.00070981,0.00195732,0.00019169,-0.00037361,-0.00051
 489,0.00403372,0.00508187,-0.00423979,-0.00171477,0.02152080,0.0057484
 5,-0.00000958,-0.00048862,0.00072262,-0.00075207,-0.00049707,0.0005085
 8,-0.00018862,-0.00002997,-0.00004556,0.00008266,-0.00000091,0.0000315
 3,0.00009554,0.00003647,-0.00001319,-0.00003545,-0.00000219,0.00000586
 ,-0.00002861,-0.00000460,-0.00001672,0.00000643,0.00000372,-0.00000064
 ,0.00000459,-0.00000058,-0.00000403,0.00000747,-0.00000149,0.00000149,
 0.00000403,0.00000235,0.00000514,-0.00000119,0.00000041,0.00000134,-0.
 00000081,-0.00000080,0.00000017,0.00000305,-0.00000232,-0.00000187,-0.
 00000055,0.00000051,0.00000014,0.00000289,0.00000036,0.00000239,0.0000
 0039,-0.00000109,0.00000156,-0.00000056,0.00000070,-0.00000054,0.00000
 158,0.00000316,0.00000246,-0.00000043,-0.00000115,-0.00000077,0.000000
 31,0.00000104,-0.00000161,-0.00000062,-0.00000042,-0.00000002,0.000003
 50,0.00000056,-0.00000165,-0.00085230,-0.05281669,-0.05572007,0.000045
 54,-0.02667136,-0.00390606,-0.00017940,0.05375043,0.05720602,-0.000028
 55,-0.00001547,-0.00001741,-0.00000651,0.00001776,0.00001671,0.0000030
 2,-0.00000754,-0.00000565,-0.00001003,0.00000218,-0.00000633,-0.000000
 89,0.00000202,0.00000078,0.00000321,-0.00000466,0.00000630,0.00000312,
 -0.00000344,0.00000076,0.00013773,0.00004017,0.00014393,0.00004657,-0.
 00030314,-0.00010251,0.00126780,0.00061234,-0.00074601,-0.01666985,0.0
 0670677,0.00047695,-0.00021648,-0.00187717,0.00288145,0.00113182,-0.00
 028683,0.00007911,0.00004920,0.00001456,0.00000893,-0.00002138,-0.0000
 0579,-0.00000601,-0.00002711,-0.00001295,0.00000448,0.00001123,0.00000
 236,-0.00000108,0.00000808,0.00000281,0.00000462,-0.00000190,-0.000000
 25,-0.00000066,-0.00000139,0.00000078,0.00000076,-0.00000213,0.0000001
 2,0.00000011,-0.00000100,-0.00000096,-0.00000146,0.00000063,0.00000040
 ,-0.00000109,0.00000135,-0.00000063,0.00000083,-0.00000134,-0.00000004
 ,0.00000050,0.00000026,-0.00000038,-0.00000040,-0.00000107,-0.00000035
 ,-0.00000048,0.00000037,0.00000015,0.00000015,0.00000016,-0.00000066,0
 .00000029,-0.00000044,-0.00000093,-0.00000080,0.00000007,0.00000058,0.
 00000004,-0.00000015,-0.00000068,0.00000072,0.00000019,0.00000017,-0.0
 0000038,-0.00000105,-0.00000006,0.00000046,-0.27815824,0.08874885,0.01
 100869,-0.01158893,0.00462882,0.00140686,0.00282651,-0.00110811,-0.000
 26467,0.30124712,0.00000772,0.00003545,0.00001454,0.00006769,0.0001325
 2,-0.00001648,0.00000788,-0.00001492,-0.00000380,0.00001273,-0.0000013
 6,-0.00000121,-0.00000247,0.00000016,-0.00000338,-0.00000268,0.0000046
 0,-0.00000763,-0.00000140,0.00000028,0.00000007,-0.00034970,-0.0001908
 7,0.00071991,0.00014513,-0.00036151,-0.00018896,0.00055972,0.00269146,
 -0.00091205,-0.01672377,0.00396790,0.00095657,-0.00175154,-0.00083728,
 0.00225447,0.00057111,0.00034948,-0.00062025,-0.00005278,-0.00000780,-
 0.00000770,0.00002447,-0.00000005,0.00000722,0.00002795,0.00001079,-0.
 00000461,-0.00001101,-0.00000059,0.00000208,-0.00000828,-0.00000161,-0
 .00000481,0.00000193,0.00000101,-0.00000014,0.00000145,-0.00000020,-0.
 00000103,0.00000191,-0.00000044,0.00000057,0.00000113,0.00000071,0.000
 00148,-0.00000035,0.00000014,0.00000025,-0.00000021,-0.00000017,0.0000
 0009,0.00000097,-0.00000073,-0.00000057,-0.00000026,-0.00000006,0.0000
 0004,0.00000099,0.00000016,0.00000054,-0.00000008,-0.00000019,0.000000
 43,-0.00000020,0.00000026,-0.00000021,0.00000054,0.00000086,0.00000069
 ,-0.00000005,-0.00000038,-0.00000043,0.00000011,0.00000038,-0.00000052
 ,-0.00000014,-0.00000016,-0.00000004,0.00000107,0.00000015,-0.00000046
 ,0.09144387,-0.07928315,-0.00449550,-0.00510572,0.00095218,0.00052262,
 0.02828304,-0.00901347,-0.00078614,-0.09715078,0.08156644,0.00002952,0
 .00001434,0.00000673,0.00000939,-0.00000708,0.00002761,-0.00001184,0.0
 0000373,0.00000056,0.00001151,-0.00000203,0.00000645,0.00000118,-0.000
 00283,-0.00000019,-0.00000370,0.00000575,-0.00000705,-0.00000293,0.000
 00296,-0.00000047,-0.00013474,-0.00041683,-0.00012805,-0.00001523,0.00
 048068,-0.00016556,-0.00155365,-0.00090794,0.00097580,0.02544996,-0.01
 074106,-0.00205748,0.00253302,0.00325906,-0.00260331,-0.00034312,-0.00
 080935,0.00103046,-0.00005980,-0.00001555,-0.00001128,0.00002664,0.000
 00326,0.00000768,0.00003099,0.00001271,-0.00000423,-0.00001330,-0.0000
 0119,0.00000176,-0.00000957,-0.00000187,-0.00000538,0.00000224,0.00000
 113,-0.00000006,0.00000153,0.00000010,-0.00000126,0.00000224,-0.000000
 52,0.00000049,0.00000120,0.00000087,0.00000174,-0.00000068,-0.00000037
 ,0.00000103,-0.00000094,0.00000003,-0.00000056,0.00000136,-0.00000042,
 -0.00000061,-0.00000024,0.00000009,0.00000020,0.00000115,0.00000019,0.
 00000072,-0.00000003,-0.00000034,0.00000041,-0.00000020,0.00000040,-0.
 00000021,0.00000059,0.00000105,0.00000081,-0.00000012,-0.00000057,-0.0
 0000044,0.00000015,0.00000052,-0.00000063,-0.00000019,-0.00000021,0.00
 000008,0.00000120,0.00000018,-0.00000054,0.00857588,-0.00251364,-0.047
 11266,-0.02503043,0.01064771,0.00226656,0.00538944,-0.00158728,-0.0014
 5152,-0.01488849,0.00257436,0.04922241\\-0.00000725,0.00000036,-0.0000
 0292,0.00000325,0.00000838,-0.00000093,0.00000241,-0.00000016,0.000001
 18,0.00000821,0.00000355,0.00001399,-0.00000285,0.00000126,-0.00000168
 ,-0.00000317,-0.00000142,0.00000157,-0.00000156,-0.00000274,0.00000046
 ,-0.00000865,0.00000284,0.00001073,0.00000684,-0.00000279,-0.00000650,
 0.00000287,0.00000687,-0.00000172,0.00000449,-0.00000577,-0.00000134,-
 0.00000015,-0.00000037,-0.00000151,-0.00000223,0.00000053,-0.00000246,
 -0.00001215,-0.00000763,-0.00000184,0.00000446,-0.00000669,0.00000799,
 0.00000143,0.00000573,-0.00000658,-0.00000216,0.00000452,-0.00000118,0
 .00000674,-0.00000064,0.00000077,-0.00000576,-0.00000245,-0.00000626,0
 .00000211,-0.00000477,0.00000264,-0.00000050,0.00000181,-0.00000015,-0
 .00000484,-0.00000466,0.00000118,0.00000125,0.00000209,0.00000107,0.00
 000034,-0.00000017,-0.00000172,0.00000103,0.00000097,-0.00000232,0.000
 00074,-0.00000250,-0.00000149,0.00000148,-0.00000105,-0.00000123,0.000
 00169,0.00000274,-0.00000336,-0.00000045,0.00000054,0.00000122,0.00000
 173,-0.00000085,0.00000098,0.00000068,-0.00000111,0.00000209,-0.000000
 10,0.00000328,-0.00000080,-0.00000177,0.00000315,0.00000047,-0.0000002
 6,0.00000122,-0.00000044,-0.00000217,-0.00000296,0.00000093,0.00000130
 ,-0.00000133,-0.00000035,0.00000083,0.00000128,-0.00000073,0.00000216,
 -0.00000109,0.00000022\\\@


 Any fool can criticize, condemn, and complain -- and most do.
 -- Dale Carnegie
 Job cpu time:       0 days  5 hours 23 minutes 24.3 seconds.
 Elapsed time:       0 days  5 hours 23 minutes 52.1 seconds.
 File lengths (MBytes):  RWF=   1084 Int=      0 D2E=      0 Chk=     25 Scr=      1
 Normal termination of Gaussian 16 at Tue Aug 18 18:20:00 2026.
