%mem=20GB
%chk=alkene_triplet.chk
#p opt freq b3lyp/gen EmpiricalDispersion=GD3BJ pseudo=read scrf=(solvent=acetonitrile,pcm) nosymm pop=(Orbitals=20)

Title Card Required

0 3
C      -1.28308      0.59828      0.67660
C      -0.61773      1.61222     -0.13327
H      -0.11423      1.35848     -1.07270
C      -0.48915     -0.09172      1.74772
H      -0.13495      0.64533      2.49399
H      -1.08769     -0.85440      2.26466
H       0.41880     -0.56644      1.33247
C      -0.63046      3.00635      0.27483
O      -1.18242      3.43149      1.28586
O       0.03867      3.79844     -0.59763
C       0.06882      5.20733     -0.27625
H      -0.96642      5.57679     -0.20151
H       0.53984      5.33672      0.71136
B      -2.78993      0.35096      0.49796
O      -3.55517      0.99270     -0.45074
O      -3.50966     -0.52309      1.28172
C      -4.95371      0.69943     -0.13935
C      -4.84149     -0.63512      0.68560
C      -5.47120      1.87807      0.68776
C      -5.72889      0.58295     -1.44413
C      -4.82306     -1.88733     -0.19293
C      -5.86198     -0.78358      1.80531
H      -4.92275      1.97137      1.63666
H      -5.32413      2.80574      0.11536
H      -6.54318      1.77340      0.90995
H      -5.27218     -0.14816     -2.12344
H      -6.76900      0.28013     -1.24821
H      -5.74842      1.55895     -1.95175
H      -4.53139     -2.75053      0.42324
H      -5.81402     -2.08898     -0.62523
H      -4.09635     -1.78916     -1.01278
H      -5.70447     -1.73987      2.32621
H      -5.77665      0.02628      2.54113
H      -6.88431     -0.78227      1.39700
C       0.84473      5.90514     -1.37243
H       0.35932      5.76007     -2.35009
H       0.89210      6.98536     -1.16546
H       1.87382      5.51799     -1.43245

-C B O H 0
cc-pVDZ
****



