 Entering Gaussian System, Link 0=g16
 Initial command:
 /mnt/data/applications/G16/g16/l1.exe "/scratch/Gau-9482.inp" -scrdir="/scratch/"
 Entering Link 1 = /mnt/data/applications/G16/g16/l1.exe PID=      9483.
  
 Copyright (c) 1988,1990,1992,1993,1995,1998,2003,2009,2016,
            Gaussian, Inc.  All Rights Reserved.
  
 This is part of the Gaussian(R) 16 program.  It is based on
 the Gaussian(R) 09 system (copyright 2009, Gaussian, Inc.),
 the Gaussian(R) 03 system (copyright 2003, Gaussian, Inc.),
 the Gaussian(R) 98 system (copyright 1998, Gaussian, Inc.),
 the Gaussian(R) 94 system (copyright 1995, Gaussian, Inc.),
 the Gaussian 92(TM) system (copyright 1992, Gaussian, Inc.),
 the Gaussian 90(TM) system (copyright 1990, Gaussian, Inc.),
 the Gaussian 88(TM) system (copyright 1988, Gaussian, Inc.),
 the Gaussian 86(TM) system (copyright 1986, Carnegie Mellon
 University), and the Gaussian 82(TM) system (copyright 1983,
 Carnegie Mellon University). Gaussian is a federally registered
 trademark of Gaussian, Inc.
  
 This software contains proprietary and confidential information,
 including trade secrets, belonging to Gaussian, Inc.
  
 This software is provided under written license and may be
 used, copied, transmitted, or stored only in accord with that
 written license.
  
 The following legend is applicable only to US Government
 contracts under FAR:
  
                    RESTRICTED RIGHTS LEGEND
  
 Use, reproduction and disclosure by the US Government is
 subject to restrictions as set forth in subparagraphs (a)
 and (c) of the Commercial Computer Software - Restricted
 Rights clause in FAR 52.227-19.
  
 Gaussian, Inc.
 340 Quinnipiac St., Bldg. 40, Wallingford CT 06492
  
  
 ---------------------------------------------------------------
 Warning -- This program may not be used in any manner that
 competes with the business of Gaussian, Inc. or will provide
 assistance to any competitor of Gaussian, Inc.  The licensee
 of this program is prohibited from giving any competitor of
 Gaussian, Inc. access to this program.  By using this program,
 the user acknowledges that Gaussian, Inc. is engaged in the
 business of creating and licensing software in the field of
 computational chemistry and represents and warrants to the
 licensee that it is not a competitor of Gaussian, Inc. and that
 it will not use this program in any manner prohibited above.
 ---------------------------------------------------------------
  

 Cite this work as:
 Gaussian 16, Revision A.03,
 M. J. Frisch, G. W. Trucks, H. B. Schlegel, G. E. Scuseria, 
 M. A. Robb, J. R. Cheeseman, G. Scalmani, V. Barone, 
 G. A. Petersson, H. Nakatsuji, X. Li, M. Caricato, A. V. Marenich, 
 J. Bloino, B. G. Janesko, R. Gomperts, B. Mennucci, H. P. Hratchian, 
 J. V. Ortiz, A. F. Izmaylov, J. L. Sonnenberg, D. Williams-Young, 
 F. Ding, F. Lipparini, F. Egidi, J. Goings, B. Peng, A. Petrone, 
 T. Henderson, D. Ranasinghe, V. G. Zakrzewski, J. Gao, N. Rega, 
 G. Zheng, W. Liang, M. Hada, M. Ehara, K. Toyota, R. Fukuda, 
 J. Hasegawa, M. Ishida, T. Nakajima, Y. Honda, O. Kitao, H. Nakai, 
 T. Vreven, K. Throssell, J. A. Montgomery, Jr., J. E. Peralta, 
 F. Ogliaro, M. J. Bearpark, J. J. Heyd, E. N. Brothers, K. N. Kudin, 
 V. N. Staroverov, T. A. Keith, R. Kobayashi, J. Normand, 
 K. Raghavachari, A. P. Rendell, J. C. Burant, S. S. Iyengar, 
 J. Tomasi, M. Cossi, J. M. Millam, M. Klene, C. Adamo, R. Cammi, 
 J. W. Ochterski, R. L. Martin, K. Morokuma, O. Farkas, 
 J. B. Foresman, and D. J. Fox, Gaussian, Inc., Wallingford CT, 2016.
 
 ******************************************
 Gaussian 16:  AM64L-G16RevA.03 25-Dec-2016
                18-Aug-2026 
 ******************************************
 %nprocshared=24
 Will use up to   24 processors via shared memory.
 %mem=20GB
 %chk=alkene_triplet_eq.chk
 ----------------------------------------------------------------------
 #p b3lyp/gen EmpiricalDispersion=GD3BJ pseudo=read scrf=(solvent=aceto
 nitrile,pcm,read) nosymm pop=(Orbitals=20)
 ----------------------------------------------------------------------
 1/38=1,40=2,172=1/1;
 2/12=2,15=1,17=6,18=5,40=1/2;
 3/5=7,11=2,16=1,17=8,25=1,30=1,70=2203,72=2,74=-5,124=41/1,2,3;
 4//1;
 5/5=2,38=5,53=2/2;
 6/7=2,8=2,9=2,10=2,28=1,96=20/1;
 99/5=1,9=1/99;
 Leave Link    1 at Tue Aug 18 20:46:06 2026, MaxMem=  2684354560 cpu:               1.7 elap:               0.1
 (Enter /mnt/data/applications/G16/g16/l101.exe)
 -------------------
 Title Card Required
 -------------------
 Symbolic Z-matrix:
 Charge =  0 Multiplicity = 3
 C                    -1.28308   0.59828   0.6766 
 C                    -0.61773   1.61222  -0.13327 
 H                    -0.11423   1.35848  -1.0727 
 C                    -0.48915  -0.09172   1.74772 
 H                    -0.13495   0.64533   2.49399 
 H                    -1.08769  -0.8544    2.26466 
 H                     0.4188   -0.56644   1.33247 
 C                    -0.63046   3.00635   0.27483 
 O                    -1.18242   3.43149   1.28586 
 O                     0.03867   3.79844  -0.59763 
 C                     0.06882   5.20733  -0.27625 
 H                    -0.96642   5.57679  -0.20151 
 H                     0.53984   5.33672   0.71136 
 B                    -2.78993   0.35096   0.49796 
 O                    -3.55517   0.9927   -0.45074 
 O                    -3.50966  -0.52309   1.28172 
 C                    -4.95371   0.69943  -0.13935 
 C                    -4.84149  -0.63512   0.6856 
 C                    -5.4712    1.87807   0.68776 
 C                    -5.72889   0.58295  -1.44413 
 C                    -4.82306  -1.88733  -0.19293 
 C                    -5.86198  -0.78358   1.80531 
 H                    -4.92275   1.97137   1.63666 
 H                    -5.32413   2.80574   0.11536 
 H                    -6.54318   1.7734    0.90995 
 H                    -5.27218  -0.14816  -2.12344 
 H                    -6.769     0.28013  -1.24821 
 H                    -5.74842   1.55895  -1.95175 
 H                    -4.53139  -2.75053   0.42324 
 H                    -5.81402  -2.08898  -0.62523 
 H                    -4.09635  -1.78916  -1.01278 
 H                    -5.70447  -1.73987   2.32621 
 H                    -5.77665   0.02628   2.54113 
 H                    -6.88431  -0.78227   1.397 
 C                     0.84473   5.90514  -1.37243 
 H                     0.35932   5.76007  -2.35009 
 H                     0.8921    6.98536  -1.16546 
 H                     1.87382   5.51799  -1.43245 
 
 ITRead=  0  0  0  0  0  0  0  0  0  0  0  0  0  0  0  0  0  0  0  0
 ITRead=  0  0  0  0  0  0  0  0  0  0  0  0  0  0  0  0  0  0
 MicOpt= -1 -1 -1 -1 -1 -1 -1 -1 -1 -1 -1 -1 -1 -1 -1 -1 -1 -1 -1 -1
 MicOpt= -1 -1 -1 -1 -1 -1 -1 -1 -1 -1 -1 -1 -1 -1 -1 -1 -1 -1
 NAtoms=     38 NQM=       38 NQMF=       0 NMMI=      0 NMMIF=      0
                NMic=       0 NMicF=      0.
                    Isotopes and Nuclear Properties:
 (Nuclear quadrupole moments (NQMom) in fm**2, nuclear magnetic moments (NMagM)
  in nuclear magnetons)

  Atom         1           2           3           4           5           6           7           8           9          10
 IAtWgt=          12          12           1          12           1           1           1          12          16          16
 AtmWgt=  12.0000000  12.0000000   1.0078250  12.0000000   1.0078250   1.0078250   1.0078250  12.0000000  15.9949146  15.9949146
 NucSpn=           0           0           1           0           1           1           1           0           0           0
 AtZEff=  -0.0000000  -0.0000000  -0.0000000  -0.0000000  -0.0000000  -0.0000000  -0.0000000  -0.0000000  -0.0000000  -0.0000000
 NQMom=    0.0000000   0.0000000   0.0000000   0.0000000   0.0000000   0.0000000   0.0000000   0.0000000   0.0000000   0.0000000
 NMagM=    0.0000000   0.0000000   2.7928460   0.0000000   2.7928460   2.7928460   2.7928460   0.0000000   0.0000000   0.0000000
 AtZNuc=   6.0000000   6.0000000   1.0000000   6.0000000   1.0000000   1.0000000   1.0000000   6.0000000   8.0000000   8.0000000

  Atom        11          12          13          14          15          16          17          18          19          20
 IAtWgt=          12           1           1          11          16          16          12          12          12          12
 AtmWgt=  12.0000000   1.0078250   1.0078250  11.0093053  15.9949146  15.9949146  12.0000000  12.0000000  12.0000000  12.0000000
 NucSpn=           0           1           1           3           0           0           0           0           0           0
 AtZEff=  -0.0000000  -0.0000000  -0.0000000  -0.0000000  -0.0000000  -0.0000000  -0.0000000  -0.0000000  -0.0000000  -0.0000000
 NQMom=    0.0000000   0.0000000   0.0000000   4.0590000   0.0000000   0.0000000   0.0000000   0.0000000   0.0000000   0.0000000
 NMagM=    0.0000000   2.7928460   2.7928460   2.6886370   0.0000000   0.0000000   0.0000000   0.0000000   0.0000000   0.0000000
 AtZNuc=   6.0000000   1.0000000   1.0000000   5.0000000   8.0000000   8.0000000   6.0000000   6.0000000   6.0000000   6.0000000

  Atom        21          22          23          24          25          26          27          28          29          30
 IAtWgt=          12          12           1           1           1           1           1           1           1           1
 AtmWgt=  12.0000000  12.0000000   1.0078250   1.0078250   1.0078250   1.0078250   1.0078250   1.0078250   1.0078250   1.0078250
 NucSpn=           0           0           1           1           1           1           1           1           1           1
 AtZEff=  -0.0000000  -0.0000000  -0.0000000  -0.0000000  -0.0000000  -0.0000000  -0.0000000  -0.0000000  -0.0000000  -0.0000000
 NQMom=    0.0000000   0.0000000   0.0000000   0.0000000   0.0000000   0.0000000   0.0000000   0.0000000   0.0000000   0.0000000
 NMagM=    0.0000000   0.0000000   2.7928460   2.7928460   2.7928460   2.7928460   2.7928460   2.7928460   2.7928460   2.7928460
 AtZNuc=   6.0000000   6.0000000   1.0000000   1.0000000   1.0000000   1.0000000   1.0000000   1.0000000   1.0000000   1.0000000

  Atom        31          32          33          34          35          36          37          38
 IAtWgt=           1           1           1           1          12           1           1           1
 AtmWgt=   1.0078250   1.0078250   1.0078250   1.0078250  12.0000000   1.0078250   1.0078250   1.0078250
 NucSpn=           1           1           1           1           0           1           1           1
 AtZEff=  -0.0000000  -0.0000000  -0.0000000  -0.0000000  -0.0000000  -0.0000000  -0.0000000  -0.0000000
 NQMom=    0.0000000   0.0000000   0.0000000   0.0000000   0.0000000   0.0000000   0.0000000   0.0000000
 NMagM=    2.7928460   2.7928460   2.7928460   2.7928460   0.0000000   2.7928460   2.7928460   2.7928460
 AtZNuc=   1.0000000   1.0000000   1.0000000   1.0000000   6.0000000   1.0000000   1.0000000   1.0000000
 Leave Link  101 at Tue Aug 18 20:46:06 2026, MaxMem=  2684354560 cpu:               1.9 elap:               0.1
 (Enter /mnt/data/applications/G16/g16/l202.exe)
                          Input orientation:                          
 ---------------------------------------------------------------------
 Center     Atomic      Atomic             Coordinates (Angstroms)
 Number     Number       Type             X           Y           Z
 ---------------------------------------------------------------------
      1          6           0       -1.283080    0.598280    0.676600
      2          6           0       -0.617730    1.612220   -0.133270
      3          1           0       -0.114230    1.358480   -1.072700
      4          6           0       -0.489150   -0.091720    1.747720
      5          1           0       -0.134950    0.645330    2.493990
      6          1           0       -1.087690   -0.854400    2.264660
      7          1           0        0.418800   -0.566440    1.332470
      8          6           0       -0.630460    3.006350    0.274830
      9          8           0       -1.182420    3.431490    1.285860
     10          8           0        0.038670    3.798440   -0.597630
     11          6           0        0.068820    5.207330   -0.276250
     12          1           0       -0.966420    5.576790   -0.201510
     13          1           0        0.539840    5.336720    0.711360
     14          5           0       -2.789930    0.350960    0.497960
     15          8           0       -3.555170    0.992700   -0.450740
     16          8           0       -3.509660   -0.523090    1.281720
     17          6           0       -4.953710    0.699430   -0.139350
     18          6           0       -4.841490   -0.635120    0.685600
     19          6           0       -5.471200    1.878070    0.687760
     20          6           0       -5.728890    0.582950   -1.444130
     21          6           0       -4.823060   -1.887330   -0.192930
     22          6           0       -5.861980   -0.783580    1.805310
     23          1           0       -4.922750    1.971370    1.636660
     24          1           0       -5.324130    2.805740    0.115360
     25          1           0       -6.543180    1.773400    0.909950
     26          1           0       -5.272180   -0.148160   -2.123440
     27          1           0       -6.769000    0.280130   -1.248210
     28          1           0       -5.748420    1.558950   -1.951750
     29          1           0       -4.531390   -2.750530    0.423240
     30          1           0       -5.814020   -2.088980   -0.625230
     31          1           0       -4.096350   -1.789160   -1.012780
     32          1           0       -5.704470   -1.739870    2.326210
     33          1           0       -5.776650    0.026280    2.541130
     34          1           0       -6.884310   -0.782270    1.397000
     35          6           0        0.844730    5.905140   -1.372430
     36          1           0        0.359320    5.760070   -2.350090
     37          1           0        0.892100    6.985360   -1.165460
     38          1           0        1.873820    5.517990   -1.432450
 ---------------------------------------------------------------------
                    Distance matrix (angstroms):
                    1          2          3          4          5
     1  C    0.000000
     2  C    1.458305   0.000000
     3  H    2.236999   1.095639   0.000000
     4  C    1.501240   2.541273   3.193496   0.000000
     5  H    2.150191   2.840853   3.637347   1.107077   0.000000
     6  H    2.161109   3.472052   4.120975   1.098707   1.791507
     7  H    2.164055   2.823003   3.126385   1.105516   1.767528
     8  C    2.527080   1.452689   2.190389   3.433280   3.277898
     9  O    2.899726   2.375405   3.316807   3.620352   3.212391
    10  O    3.689405   2.329388   2.490477   4.573030   4.419317
    11  C    4.896825   3.662869   3.934652   5.699800   5.341123
    12  H    5.065265   3.980459   4.390824   6.013260   5.681229
    13  H    5.077111   3.990648   4.408749   5.621461   5.063818
    14  B    1.537425   2.589919   3.262122   2.655457   3.334623
    15  O    2.566877   3.018799   3.515778   3.925515   4.526589
    16  O    2.565404   3.863289   4.540104   3.086538   3.771402
    17  C    3.761586   4.431021   4.972530   4.911135   5.491617
    18  C    3.766117   4.853992   5.423380   4.512898   5.202052
    19  C    4.379308   4.929598   5.662713   5.461173   5.766947
    20  C    4.925744   5.376031   5.680124   6.172355   6.841407
    21  C    4.412006   5.471308   5.786394   5.076723   5.967603
    22  C    4.914250   6.082771   6.775544   5.417498   5.942637
    23  H    4.006780   4.668494   5.553209   4.891368   5.041471
    24  H    4.638745   4.861739   5.536163   5.868297   6.103511
    25  H    5.394813   6.018741   6.740509   6.389977   6.696800
    26  H    4.930549   5.359442   5.475260   6.153571   6.952799
    27  H    5.822494   6.391845   6.743857   6.967811   7.625487
    28  H    5.269760   5.443683   5.705875   6.638577   7.218750
    29  H    4.672284   5.887277   6.215553   5.016296   5.928622
    30  H    5.426375   6.398620   6.676288   6.162319   7.032625
    31  H    4.058123   4.944059   5.076269   4.849078   5.823819
    32  H    5.266578   6.569663   7.239002   5.500056   6.061096
    33  H    4.898554   6.023461   6.848177   5.347998   5.675758
    34  H    5.813663   6.880795   7.517727   6.441889   6.985362
    35  C    6.073620   4.701433   4.656346   6.890348   6.601104
    36  H    6.205031   4.803496   4.607599   7.194122   7.061868
    37  H    6.994239   5.675882   5.716912   7.776859   7.392049
    38  H    6.214311   4.811520   4.624207   6.867747   6.572283
                    6          7          8          9         10
     6  H    0.000000
     7  H    1.794829   0.000000
     8  C    4.367365   3.870966   0.000000
     9  O    4.397258   4.306916   1.227838   0.000000
    10  O    5.577662   4.787689   1.355112   2.274477   0.000000
    11  C    6.673703   6.003906   2.374236   2.675705   1.445394
    12  H    6.888897   6.481605   2.635703   2.619396   2.080780
    13  H    6.587227   5.936980   2.644009   2.631754   2.081089
    14  B    2.733449   3.440055   3.429897   3.562940   4.591995
    15  O    4.107753   4.626359   3.624247   3.820133   4.561736
    16  O    2.634744   3.929027   4.664822   4.588547   5.899002
    17  C    4.810381   5.712490   4.917714   4.870113   5.893873
    18  C    4.078300   5.300359   5.582276   5.503310   6.717075
    19  C    5.400756   6.409632   4.987614   4.600486   5.974840
    20  C    6.112433   6.842857   5.900990   6.019752   6.657378
    21  C    4.589083   5.616822   6.461021   6.612936   7.491874
    22  C    4.796860   6.302295   6.638881   6.319409   7.847719
    23  H    4.804898   5.921585   4.620554   4.030519   5.739854
    24  H    5.996961   6.770096   4.700661   4.349183   5.500312
    25  H    6.205074   7.356802   6.073204   5.623906   7.049421
    26  H    6.104437   6.671246   6.103130   6.415868   6.790352
    27  H    6.775301   7.683818   6.887206   6.896554   7.690652
    28  H    6.732368   7.303286   5.765947   5.902278   6.351328
    29  H    4.341107   5.486468   6.955641   7.083579   8.050878
    30  H    5.675724   6.708112   7.324056   7.455171   8.301594
    31  H    4.546144   5.232764   6.055349   6.405460   6.963621
    32  H    4.701330   6.313390   7.244332   6.947966   8.497375
    33  H    4.778952   6.340014   6.363977   5.854751   7.609136
    34  H    5.861641   7.306583   7.397537   7.090816   8.537512
    35  C    7.915431   7.027037   3.645907   4.158700   2.385002
    36  H    8.193959   7.320486   3.931010   4.584690   2.649891
    37  H    8.783344   7.968271   4.497237   4.789843   3.347721
    38  H    7.940184   6.839748   3.936313   4.591655   2.649821
                   11         12         13         14         15
    11  C    0.000000
    12  H    1.101730   0.000000
    13  H    1.101805   1.777578   0.000000
    14  B    5.688249   5.578866   5.999226   0.000000
    15  O    5.561192   5.270448   6.081948   1.377481   0.000000
    16  O    6.933289   6.773225   7.145707   1.377046   2.302414
    17  C    6.750238   6.300078   7.239286   2.282442   1.462493
    18  C    7.692238   7.375023   8.038796   2.283957   2.365520
    19  C    6.534915   5.896132   6.935086   3.091488   2.398173
    20  C    7.507481   7.011680   8.157294   3.530300   2.424825
    21  C    8.618099   8.401597   9.042419   3.101756   3.157306
    22  C    8.683218   8.273339   8.924018   3.526165   3.683246
    23  H    6.248714   5.659547   6.482411   2.910548   2.680543
    24  H    5.916494   5.173854   6.414610   3.548873   2.595535
    25  H    7.544368   6.841153   7.931321   4.034843   3.374785
    26  H    7.785863   7.416767   8.479362   3.644506   2.654734
    27  H    8.483972   7.925915   9.100998   4.345932   3.387096
    28  H    7.068116   6.486440   7.804224   4.026535   2.717355
    29  H    9.218392   9.079845   9.550079   3.557739   3.965932
    30  H    9.379005   9.079801   9.864027   4.044748   3.824866
    31  H    8.175695   8.044367   8.674392   2.927317   2.889206
    32  H    9.400386   9.075902   9.574825   4.025992   4.449481
    33  H    8.303639   7.840188   8.452625   3.633243   3.849705
    34  H    9.328510   8.832570   9.645214   4.342399   4.200933
    35  C    1.513468   2.181543   2.181339   6.896233   6.658881
    36  H    2.165808   2.531319   3.095850   6.876601   6.454346
    37  H    2.151714   2.523364   2.522807   7.767855   7.496733
    38  H    2.165949   3.096068   2.531459   7.223243   7.135540
                   16         17         18         19         20
    16  O    0.000000
    17  C    2.366279   0.000000
    18  C    1.463448   1.572946   0.000000
    19  C    3.156897   1.530065   2.590881   0.000000
    20  C    3.684910   1.522144   2.609008   2.507727   0.000000
    21  C    2.400159   2.590611   1.529766   3.920961   2.913471
    22  C    2.423925   2.608826   1.522232   2.913075   3.527602
    23  H    2.888795   2.184720   2.775772   1.099961   3.474023
    24  H    3.966586   2.153748   3.521027   1.099929   2.745293
    25  H    3.822868   2.186517   2.957541   1.099757   2.760785
    26  H    3.852553   2.180928   2.883285   3.471032   1.097528
    27  H    4.203452   2.168101   2.879687   2.825894   1.100869
    28  H    4.449974   2.157576   3.548532   2.673145   1.100289
    29  H    2.596615   3.520950   2.154055   4.730449   4.004144
    30  H    3.376173   2.958284   2.185818   4.192726   2.795900
    31  H    2.685492   2.773270   2.184385   4.269734   2.911727
    32  H    2.718217   3.548635   2.157964   3.978495   4.428493
    33  H    2.650880   2.883632   2.180588   2.637690   4.024234
    34  H    3.386551   2.878024   2.168146   3.094723   3.357207
    35  C    8.205325   7.889348   8.907502   7.768697   8.458329
    36  H    8.224181   7.663272   8.784207   7.635013   8.042987
    37  H    9.041073   8.645190   9.714535   8.367223   9.214446
    38  H    8.534824   8.456110   9.351058   8.467209   9.063992
                   21         22         23         24         25
    21  C    0.000000
    22  C    2.508103   0.000000
    23  H    4.271639   2.915535   0.000000
    24  H    4.729801   4.003552   1.780908   0.000000
    25  H    4.192386   2.793537   1.786923   1.784147   0.000000
    26  H    2.636909   4.023270   4.330457   3.706811   3.809106
    27  H    3.098093   3.358295   3.819870   3.213359   2.634104
    28  H    3.978264   4.428978   3.705200   2.451010   2.977744
    29  H    1.099932   2.747632   4.891001   5.620975   4.974950
    30  H    1.099794   2.759329   4.732542   4.974611   4.219767
    31  H    1.099954   3.474230   4.673762   4.888072   4.730296
    32  H    2.672956   1.100289   3.854850   5.069032   3.879728
    33  H    3.470781   1.097536   2.308806   3.716791   2.510128
    34  H    2.828036   1.100853   3.389349   4.117108   2.623935
    35  C    9.707608   9.990844   7.602170   7.062197   8.767083
    36  H    9.486471   9.939380   7.625529   6.863535   8.611963
    37  H   10.598750  10.714453   8.173399   7.599424   9.314249
    38  H   10.060983  10.489780   8.257803   7.846177   9.505508
                   26         27         28         29         30
    26  H    0.000000
    27  H    1.786038   0.000000
    28  H    1.780592   1.780992   0.000000
    29  H    3.715734   4.121352   5.068862   0.000000
    30  H    2.510977   2.629215   3.882184   1.783838   0.000000
    31  H    2.304132   3.388281   3.849784   1.782034   1.786191
    32  H    4.745503   4.241474   5.402322   2.453333   2.974034
    33  H    4.695011   3.925340   4.747193   3.707668   3.808091
    34  H    3.923590   2.852915   4.240953   3.218461   2.634848
    35  C    8.638463   9.467051   7.917993  10.346387  10.430878
    36  H    8.165313   9.058522   7.423784  10.200035  10.133748
    37  H    9.476454  10.181327   8.611660  11.257254  11.296351
    38  H    9.145930  10.107792   8.604778  10.622557  10.845298
                   31         32         33         34         35
    31  H    0.000000
    32  H    3.706391   0.000000
    33  H    4.330070   1.780642   0.000000
    34  H    3.820156   1.781138   1.785972   0.000000
    35  C    9.151277  10.724651   9.680889  10.589110   0.000000
    36  H    8.867484  10.718509   9.718565  10.455289   1.101130
    37  H   10.094560  11.481992  10.326656  11.286046   1.100889
    38  H    9.445290  11.146055  10.221444  11.153650   1.101142
                   36         37         38
    36  H    0.000000
    37  H    1.785648   0.000000
    38  H    1.787282   1.785562   0.000000
 Symmetry turned off by external request.
 Stoichiometry    C12H21BO4(3)
 Framework group  C1[X(C12H21BO4)]
 Deg. of freedom   108
 Full point group                 C1      NOp   1
 Rotational constants (GHZ):           0.8703360           0.2234991           0.2008030
 Leave Link  202 at Tue Aug 18 20:46:06 2026, MaxMem=  2684354560 cpu:               0.9 elap:               0.1
 (Enter /mnt/data/applications/G16/g16/l301.exe)
 General basis read from cards:  (5D, 7F)
 Centers:       1      2      4      8     11     17     18     19     20     21
 Centers:      22     35     14      9     10     15     16      3      5      6
 Centers:       7     12     13     23     24     25     26     27     28     29
 Centers:      30     31     32     33     34     36     37     38
 cc-pVDZ
 ****
 ======================================================================================================
                                       Pseudopotential Parameters
 ======================================================================================================
  Center     Atomic      Valence      Angular      Power
  Number     Number     Electrons     Momentum     of R      Exponent        Coefficient   SO-Coeffient
 ======================================================================================================
    1          6
                                   No pseudopotential on this center.
    2          6
                                   No pseudopotential on this center.
    3          1
                                   No pseudopotential on this center.
    4          6
                                   No pseudopotential on this center.
    5          1
                                   No pseudopotential on this center.
    6          1
                                   No pseudopotential on this center.
    7          1
                                   No pseudopotential on this center.
    8          6
                                   No pseudopotential on this center.
    9          8
                                   No pseudopotential on this center.
   10          8
                                   No pseudopotential on this center.
   11          6
                                   No pseudopotential on this center.
   12          1
                                   No pseudopotential on this center.
   13          1
                                   No pseudopotential on this center.
   14          5
                                   No pseudopotential on this center.
   15          8
                                   No pseudopotential on this center.
   16          8
                                   No pseudopotential on this center.
   17          6
                                   No pseudopotential on this center.
   18          6
                                   No pseudopotential on this center.
   19          6
                                   No pseudopotential on this center.
   20          6
                                   No pseudopotential on this center.
   21          6
                                   No pseudopotential on this center.
   22          6
                                   No pseudopotential on this center.
   23          1
                                   No pseudopotential on this center.
   24          1
                                   No pseudopotential on this center.
   25          1
                                   No pseudopotential on this center.
   26          1
                                   No pseudopotential on this center.
   27          1
                                   No pseudopotential on this center.
   28          1
                                   No pseudopotential on this center.
   29          1
                                   No pseudopotential on this center.
   30          1
                                   No pseudopotential on this center.
   31          1
                                   No pseudopotential on this center.
   32          1
                                   No pseudopotential on this center.
   33          1
                                   No pseudopotential on this center.
   34          1
                                   No pseudopotential on this center.
   35          6
                                   No pseudopotential on this center.
   36          1
                                   No pseudopotential on this center.
   37          1
                                   No pseudopotential on this center.
   38          1
                                   No pseudopotential on this center.
 ======================================================================================================
 Ernie: Thresh=  0.10000D-02 Tol=  0.10000D-05 Strict=F.
 Ernie:  34 primitive shells out of 479 were deleted.
   343 basis functions,   708 primitive gaussians,   360 cartesian basis functions
    66 alpha electrons       64 beta electrons
       nuclear repulsion energy      1259.6752861424 Hartrees.
 IExCor=  402 DFT=T Ex+Corr=B3LYP ExCW=0 ScaHFX=  0.200000
 ScaDFX=  0.800000  0.720000  1.000000  0.810000 ScalE2=  1.000000  1.000000
 IRadAn=      5 IRanWt=     -1 IRanGd=            0 ICorTp=0 IEmpDi=141
 NAtoms=   38 NActive=   38 NUniq=   38 SFac= 1.00D+00 NAtFMM=   60 NAOKFM=F Big=F
 Integral buffers will be    131072 words long.
 Raffenetti 2 integral format.
 Two-electron integral symmetry is turned off.
 R6Disp:  Grimme-D3(BJ) Dispersion energy=       -0.0651038580 Hartrees.
 Nuclear repulsion after empirical dispersion term =     1259.6101822843 Hartrees.
 Using the following non-standard input for PCM:
 NonEq=write
 --- end of non-standard input.
 ------------------------------------------------------------------------------
 Polarizable Continuum Model (PCM)
 =================================
 Model                : PCM.
 Atomic radii         : UFF (Universal Force Field).
 Polarization charges : Total charges.
 Charge compensation  : None.
 Solution method      : On-the-fly selection.
 Cavity type          : Scaled VdW (van der Waals Surface) (Alpha=1.100).
 Cavity algorithm     : GePol (No added spheres)
                        Default sphere list used, NSphG=   38.
                        Lebedev-Laikov grids with approx.  5.0 points / Ang**2.
                        Smoothing algorithm: York/Karplus (Gamma=1.0000).
                        Polarization charges: spherical gaussians, with
                                              point-specific exponents (IZeta= 3).
                        Self-potential: point-specific (ISelfS= 7).
                        Self-field    : sphere-specific E.n sum rule (ISelfD= 2).
 Solvent              : Acetonitrile, Eps=  35.688000 Eps(inf)=   1.806874
 ------------------------------------------------------------------------------
 GePol: Number of generator spheres                  =      38
 GePol: Total number of spheres                      =      38
 GePol: Number of exposed spheres                    =      38 (100.00%)
 GePol: Number of points                             =    2656
 GePol: Average weight of points                     =       0.13
 GePol: Minimum weight of points                     =   0.12D-10
 GePol: Maximum weight of points                     =    0.20577
 GePol: Number of points with low weight             =     160
 GePol: Fraction of low-weight points (<1% of avg)   =       6.02%
 GePol: Cavity surface area                          =    355.595 Ang**2
 GePol: Cavity volume                                =    374.354 Ang**3
 Leave Link  301 at Tue Aug 18 20:46:06 2026, MaxMem=  2684354560 cpu:               2.4 elap:               0.1
 (Enter /mnt/data/applications/G16/g16/l302.exe)
 NPDir=0 NMtPBC=     1 NCelOv=     1 NCel=       1 NClECP=     1 NCelD=      1
         NCelK=      1 NCelE2=     1 NClLst=     1 CellRange=     0.0.
 One-electron integrals computed using PRISM.
   1 Symmetry operations used in ECPInt.
 ECPInt:  NShTT=   13695 NPrTT=  100063 LenC2=   12378 LenP2D=   51044.
 LDataN:  DoStor=T MaxTD1= 4 Len=   56
 NBasis=   343 RedAO= T EigKep=  1.68D-03  NBF=   343
 NBsUse=   343 1.00D-06 EigRej= -1.00D+00 NBFU=   343
 Precomputing XC quadrature grid using
 IXCGrd= 4 IRadAn=           5 IRanWt=          -1 IRanGd=           0 AccXCQ= 0.00D+00.
 Generated NRdTot=       0 NPtTot=           0 NUsed=           0 NTot=          32
 NSgBfM=   358   358   358   358   358 MxSgAt=    38 MxSgA2=    38.
 Leave Link  302 at Tue Aug 18 20:46:07 2026, MaxMem=  2684354560 cpu:              15.3 elap:               0.7
 (Enter /mnt/data/applications/G16/g16/l303.exe)
 DipDrv:  MaxL=1.
 Leave Link  303 at Tue Aug 18 20:46:07 2026, MaxMem=  2684354560 cpu:               2.0 elap:               0.1
 (Enter /mnt/data/applications/G16/g16/l401.exe)
 ExpMin= 9.54D-02 ExpMax= 1.17D+04 ExpMxC= 4.01D+02 IAcc=3 IRadAn=         5 AccDes= 0.00D+00
 Harris functional with IExCor=  402 and IRadAn=       5 diagonalized for initial guess.
 HarFok:  IExCor=  402 AccDes= 0.00D+00 IRadAn=         5 IDoV= 1 UseB2=F ITyADJ=14
 ICtDFT=  3500011 ScaDFX=  1.000000  1.000000  1.000000  1.000000
 FoFCou: FMM=F IPFlag=           0 FMFlag=      100000 FMFlg1=           0
         NFxFlg=           0 DoJE=T BraDBF=F KetDBF=T FulRan=T
         wScrn=  0.000000 ICntrl=       500 IOpCl=  0 I1Cent=   200000004 NGrid=           0
         NMat0=    1 NMatS0=      1 NMatT0=    0 NMatD0=    1 NMtDS0=    0 NMtDT0=    0
 Symmetry not used in FoFCou.
 Harris En= -795.820829319280    
 JPrj=0 DoOrth=F DoCkMO=F.
 Initial guess <Sx>= 0.0000 <Sy>= 0.0000 <Sz>= 1.0000 <S**2>= 2.0000 S= 1.0000
 Leave Link  401 at Tue Aug 18 20:46:09 2026, MaxMem=  2684354560 cpu:              50.4 elap:               2.1
 (Enter /mnt/data/applications/G16/g16/l502.exe)
 Two-electron integral symmetry not used.
 UHF open shell SCF:
 Using DIIS extrapolation, IDIIS=  1040.
 NGot=  2684354560 LenX=  2684083570 LenY=  2683953529
 Requested convergence on RMS density matrix=1.00D-08 within 128 cycles.
 Requested convergence on MAX density matrix=1.00D-06.
 Requested convergence on             energy=1.00D-06.
 No special actions if energy rises.
 Fock matrices will be formed incrementally for  20 cycles.

 Cycle   1  Pass 1  IDiag  1:
 FoFJK:  IHMeth= 1 ICntrl=       0 DoSepK=F KAlg= 0 I1Cent=           0 FoldK=F
 IRaf= 830000000 NMat=       1 IRICut=       1 DoRegI=T DoRafI=F ISym2E= 0 IDoP0=0 IntGTp=1.
 FoFCou: FMM=F IPFlag=           0 FMFlag=      100000 FMFlg1=           0
         NFxFlg=           0 DoJE=F BraDBF=F KetDBF=F FulRan=T
         wScrn=  0.000000 ICntrl=         0 IOpCl=  1 I1Cent=           0 NGrid=           0
         NMat0=    1 NMatS0=      1 NMatT0=    0 NMatD0=    1 NMtDS0=    0 NMtDT0=    0
 Symmetry not used in FoFCou.
 Inv3:  Mode=1 IEnd=    21163008.
 Iteration    1 A*A^-1 deviation from unit magnitude is 2.44D-15 for   2027.
 Iteration    1 A*A^-1 deviation from orthogonality  is 1.97D-15 for   2112    448.
 Iteration    1 A^-1*A deviation from unit magnitude is 2.44D-15 for    765.
 Iteration    1 A^-1*A deviation from orthogonality  is 1.45D-15 for   2439    254.
 E= -795.315972071055    
 DIIS: error= 3.28D-02 at cycle   1 NSaved=   1.
 NSaved= 1 IEnMin= 1 EnMin= -795.315972071055     IErMin= 1 ErrMin= 3.28D-02
 ErrMax= 3.28D-02  0.00D+00 EMaxC= 1.00D-01 BMatC= 2.07D+00 BMatP= 2.07D+00
 IDIUse=3 WtCom= 6.72D-01 WtEn= 3.28D-01
 Coeff-Com:  0.100D+01
 Coeff-En:   0.100D+01
 Coeff:      0.100D+01
 Gap=     0.216 Goal=   None    Shift=    0.000
 Gap=     0.079 Goal=   None    Shift=    0.000
 GapD=    0.079 DampG=0.500 DampE=0.500 DampFc=0.2500 IDamp=-1.
 Damping current iteration by 2.50D-01
 RMSDP=4.29D-03 MaxDP=1.92D-01              OVMax= 2.84D-01

 Cycle   2  Pass 1  IDiag  1:
 RMSU=  1.06D-03    CP:  9.92D-01
 E= -795.500003131300     Delta-E=       -0.184031060246 Rises=F Damp=T
 DIIS: error= 1.54D-02 at cycle   2 NSaved=   2.
 NSaved= 2 IEnMin= 2 EnMin= -795.500003131300     IErMin= 2 ErrMin= 1.54D-02
 ErrMax= 1.54D-02  0.00D+00 EMaxC= 1.00D-01 BMatC= 4.40D-01 BMatP= 2.07D+00
 IDIUse=3 WtCom= 8.46D-01 WtEn= 1.54D-01
 Coeff-Com: -0.707D+00 0.171D+01
 Coeff-En:   0.000D+00 0.100D+01
 Coeff:     -0.598D+00 0.160D+01
 Gap=     0.243 Goal=   None    Shift=    0.000
 Gap=     0.183 Goal=   None    Shift=    0.000
 RMSDP=1.30D-03 MaxDP=4.35D-02 DE=-1.84D-01 OVMax= 1.89D-01

 Cycle   3  Pass 1  IDiag  1:
 RMSU=  9.74D-04    CP:  9.79D-01  1.78D+00
 E= -795.785977147635     Delta-E=       -0.285974016335 Rises=F Damp=F
 DIIS: error= 1.10D-02 at cycle   3 NSaved=   3.
 NSaved= 3 IEnMin= 3 EnMin= -795.785977147635     IErMin= 3 ErrMin= 1.10D-02
 ErrMax= 1.10D-02  0.00D+00 EMaxC= 1.00D-01 BMatC= 1.49D-01 BMatP= 4.40D-01
 IDIUse=3 WtCom= 8.90D-01 WtEn= 1.10D-01
 Coeff-Com: -0.397D+00 0.950D+00 0.447D+00
 Coeff-En:   0.000D+00 0.000D+00 0.100D+01
 Coeff:     -0.353D+00 0.846D+00 0.507D+00
 Gap=     0.255 Goal=   None    Shift=    0.000
 Gap=     0.160 Goal=   None    Shift=    0.000
 RMSDP=6.50D-04 MaxDP=5.07D-02 DE=-2.86D-01 OVMax= 1.09D-01

 Cycle   4  Pass 1  IDiag  1:
 RMSU=  4.37D-04    CP:  9.82D-01  1.78D+00  5.07D-01
 E= -795.813291530238     Delta-E=       -0.027314382603 Rises=F Damp=F
 DIIS: error= 5.92D-03 at cycle   4 NSaved=   4.
 NSaved= 4 IEnMin= 4 EnMin= -795.813291530238     IErMin= 4 ErrMin= 5.92D-03
 ErrMax= 5.92D-03  0.00D+00 EMaxC= 1.00D-01 BMatC= 3.01D-02 BMatP= 1.49D-01
 IDIUse=3 WtCom= 9.41D-01 WtEn= 5.92D-02
 Coeff-Com: -0.639D-01 0.170D+00 0.310D+00 0.584D+00
 Coeff-En:   0.000D+00 0.000D+00 0.165D+00 0.835D+00
 Coeff:     -0.601D-01 0.160D+00 0.302D+00 0.599D+00
 Gap=     0.252 Goal=   None    Shift=    0.000
 Gap=     0.164 Goal=   None    Shift=    0.000
 RMSDP=2.34D-04 MaxDP=1.71D-02 DE=-2.73D-02 OVMax= 3.84D-02

 Cycle   5  Pass 1  IDiag  1:
 RMSU=  1.22D-04    CP:  9.81D-01  1.73D+00  6.41D-01  6.72D-01
 E= -795.818734420322     Delta-E=       -0.005442890084 Rises=F Damp=F
 DIIS: error= 1.46D-03 at cycle   5 NSaved=   5.
 NSaved= 5 IEnMin= 5 EnMin= -795.818734420322     IErMin= 5 ErrMin= 1.46D-03
 ErrMax= 1.46D-03  0.00D+00 EMaxC= 1.00D-01 BMatC= 2.57D-03 BMatP= 3.01D-02
 IDIUse=3 WtCom= 9.85D-01 WtEn= 1.46D-02
 Coeff-Com: -0.840D-03 0.122D-01 0.131D+00 0.345D+00 0.513D+00
 Coeff-En:   0.000D+00 0.000D+00 0.000D+00 0.238D-02 0.998D+00
 Coeff:     -0.828D-03 0.120D-01 0.129D+00 0.340D+00 0.520D+00
 Gap=     0.253 Goal=   None    Shift=    0.000
 Gap=     0.162 Goal=   None    Shift=    0.000
 RMSDP=6.79D-05 MaxDP=5.59D-03 DE=-5.44D-03 OVMax= 1.28D-02

 Cycle   6  Pass 1  IDiag  1:
 RMSU=  4.21D-05    CP:  9.81D-01  1.74D+00  6.38D-01  7.25D-01  6.18D-01
 E= -795.819234451542     Delta-E=       -0.000500031220 Rises=F Damp=F
 DIIS: error= 4.19D-04 at cycle   6 NSaved=   6.
 NSaved= 6 IEnMin= 6 EnMin= -795.819234451542     IErMin= 6 ErrMin= 4.19D-04
 ErrMax= 4.19D-04  0.00D+00 EMaxC= 1.00D-01 BMatC= 2.21D-04 BMatP= 2.57D-03
 IDIUse=3 WtCom= 9.96D-01 WtEn= 4.19D-03
 Coeff-Com:  0.839D-02-0.167D-01 0.279D-01 0.929D-01 0.270D+00 0.618D+00
 Coeff-En:   0.000D+00 0.000D+00 0.000D+00 0.000D+00 0.000D+00 0.100D+01
 Coeff:      0.835D-02-0.166D-01 0.278D-01 0.925D-01 0.269D+00 0.619D+00
 Gap=     0.254 Goal=   None    Shift=    0.000
 Gap=     0.162 Goal=   None    Shift=    0.000
 RMSDP=2.17D-05 MaxDP=1.46D-03 DE=-5.00D-04 OVMax= 2.14D-03

 Cycle   7  Pass 1  IDiag  1:
 RMSU=  1.82D-05    CP:  9.81D-01  1.75D+00  6.40D-01  7.29D-01  6.75D-01
                    CP:  7.92D-01
 E= -795.819283016675     Delta-E=       -0.000048565133 Rises=F Damp=F
 DIIS: error= 1.21D-04 at cycle   7 NSaved=   7.
 NSaved= 7 IEnMin= 7 EnMin= -795.819283016675     IErMin= 7 ErrMin= 1.21D-04
 ErrMax= 1.21D-04  0.00D+00 EMaxC= 1.00D-01 BMatC= 1.66D-05 BMatP= 2.21D-04
 IDIUse=3 WtCom= 9.99D-01 WtEn= 1.21D-03
 Coeff-Com:  0.305D-02-0.703D-02-0.621D-02-0.173D-01 0.283D-01 0.211D+00
 Coeff-Com:  0.788D+00
 Coeff-En:   0.000D+00 0.000D+00 0.000D+00 0.000D+00 0.000D+00 0.000D+00
 Coeff-En:   0.100D+01
 Coeff:      0.305D-02-0.702D-02-0.620D-02-0.173D-01 0.283D-01 0.211D+00
 Coeff:      0.788D+00
 Gap=     0.254 Goal=   None    Shift=    0.000
 Gap=     0.162 Goal=   None    Shift=    0.000
 RMSDP=9.39D-06 MaxDP=7.09D-04 DE=-4.86D-05 OVMax= 1.33D-03

 Cycle   8  Pass 1  IDiag  1:
 RMSU=  6.43D-06    CP:  9.81D-01  1.74D+00  6.42D-01  7.30D-01  7.06D-01
                    CP:  9.12D-01  9.73D-01
 E= -795.819289692937     Delta-E=       -0.000006676262 Rises=F Damp=F
 DIIS: error= 6.39D-05 at cycle   8 NSaved=   8.
 NSaved= 8 IEnMin= 8 EnMin= -795.819289692937     IErMin= 8 ErrMin= 6.39D-05
 ErrMax= 6.39D-05  0.00D+00 EMaxC= 1.00D-01 BMatC= 2.37D-06 BMatP= 1.66D-05
 IDIUse=1 WtCom= 1.00D+00 WtEn= 0.00D+00
 Coeff-Com: -0.776D-03 0.157D-02-0.559D-02-0.227D-01-0.456D-01-0.842D-01
 Coeff-Com:  0.150D+00 0.101D+01
 Coeff:     -0.776D-03 0.157D-02-0.559D-02-0.227D-01-0.456D-01-0.842D-01
 Coeff:      0.150D+00 0.101D+01
 Gap=     0.254 Goal=   None    Shift=    0.000
 Gap=     0.162 Goal=   None    Shift=    0.000
 RMSDP=5.18D-06 MaxDP=4.65D-04 DE=-6.68D-06 OVMax= 1.13D-03

 Cycle   9  Pass 1  IDiag  1:
 RMSU=  2.63D-06    CP:  9.81D-01  1.74D+00  6.43D-01  7.31D-01  7.13D-01
                    CP:  9.65D-01  1.15D+00  1.27D+00
 E= -795.819291225794     Delta-E=       -0.000001532857 Rises=F Damp=F
 DIIS: error= 2.31D-05 at cycle   9 NSaved=   9.
 NSaved= 9 IEnMin= 9 EnMin= -795.819291225794     IErMin= 9 ErrMin= 2.31D-05
 ErrMax= 2.31D-05  0.00D+00 EMaxC= 1.00D-01 BMatC= 6.57D-07 BMatP= 2.37D-06
 IDIUse=1 WtCom= 1.00D+00 WtEn= 0.00D+00
 Coeff-Com: -0.655D-03 0.148D-02-0.201D-02-0.955D-02-0.259D-01-0.677D-01
 Coeff-Com: -0.139D-01 0.489D+00 0.629D+00
 Coeff:     -0.655D-03 0.148D-02-0.201D-02-0.955D-02-0.259D-01-0.677D-01
 Coeff:     -0.139D-01 0.489D+00 0.629D+00
 Gap=     0.254 Goal=   None    Shift=    0.000
 Gap=     0.162 Goal=   None    Shift=    0.000
 RMSDP=1.81D-06 MaxDP=1.41D-04 DE=-1.53D-06 OVMax= 2.98D-04

 Cycle  10  Pass 1  IDiag  1:
 RMSU=  1.24D-06    CP:  9.81D-01  1.74D+00  6.43D-01  7.31D-01  7.16D-01
                    CP:  9.77D-01  1.18D+00  1.40D+00  8.96D-01
 E= -795.819291477158     Delta-E=       -0.000000251363 Rises=F Damp=F
 DIIS: error= 1.10D-05 at cycle  10 NSaved=  10.
 NSaved=10 IEnMin=10 EnMin= -795.819291477158     IErMin=10 ErrMin= 1.10D-05
 ErrMax= 1.10D-05  0.00D+00 EMaxC= 1.00D-01 BMatC= 1.23D-07 BMatP= 6.57D-07
 IDIUse=1 WtCom= 1.00D+00 WtEn= 0.00D+00
 Coeff-Com: -0.490D-04 0.202D-03 0.528D-03 0.126D-02-0.329D-03-0.109D-01
 Coeff-Com: -0.408D-01-0.389D-01 0.279D+00 0.810D+00
 Coeff:     -0.490D-04 0.202D-03 0.528D-03 0.126D-02-0.329D-03-0.109D-01
 Coeff:     -0.408D-01-0.389D-01 0.279D+00 0.810D+00
 Gap=     0.254 Goal=   None    Shift=    0.000
 Gap=     0.162 Goal=   None    Shift=    0.000
 RMSDP=1.03D-06 MaxDP=1.01D-04 DE=-2.51D-07 OVMax= 2.21D-04

 Cycle  11  Pass 1  IDiag  1:
 RMSU=  5.66D-07    CP:  9.81D-01  1.74D+00  6.43D-01  7.31D-01  7.16D-01
                    CP:  9.82D-01  1.20D+00  1.48D+00  1.10D+00  1.11D+00
 E= -795.819291535321     Delta-E=       -0.000000058163 Rises=F Damp=F
 DIIS: error= 5.31D-06 at cycle  11 NSaved=  11.
 NSaved=11 IEnMin=11 EnMin= -795.819291535321     IErMin=11 ErrMin= 5.31D-06
 ErrMax= 5.31D-06  0.00D+00 EMaxC= 1.00D-01 BMatC= 4.72D-08 BMatP= 1.23D-07
 IDIUse=1 WtCom= 1.00D+00 WtEn= 0.00D+00
 Coeff-Com:  0.121D-03-0.196D-03 0.757D-03 0.264D-02 0.506D-02 0.670D-02
 Coeff-Com: -0.207D-01-0.123D+00 0.452D-01 0.492D+00 0.592D+00
 Coeff:      0.121D-03-0.196D-03 0.757D-03 0.264D-02 0.506D-02 0.670D-02
 Coeff:     -0.207D-01-0.123D+00 0.452D-01 0.492D+00 0.592D+00
 Gap=     0.254 Goal=   None    Shift=    0.000
 Gap=     0.162 Goal=   None    Shift=    0.000
 RMSDP=4.34D-07 MaxDP=3.97D-05 DE=-5.82D-08 OVMax= 8.56D-05

 Cycle  12  Pass 1  IDiag  1:
 RMSU=  2.55D-07    CP:  9.81D-01  1.74D+00  6.43D-01  7.31D-01  7.16D-01
                    CP:  9.83D-01  1.21D+00  1.51D+00  1.18D+00  1.28D+00
                    CP:  8.17D-01
 E= -795.819291550356     Delta-E=       -0.000000015035 Rises=F Damp=F
 DIIS: error= 2.41D-06 at cycle  12 NSaved=  12.
 NSaved=12 IEnMin=12 EnMin= -795.819291550356     IErMin=12 ErrMin= 2.41D-06
 ErrMax= 2.41D-06  0.00D+00 EMaxC= 1.00D-01 BMatC= 5.36D-09 BMatP= 4.72D-08
 IDIUse=1 WtCom= 1.00D+00 WtEn= 0.00D+00
 Coeff-Com:  0.703D-04-0.137D-03 0.182D-03 0.648D-03 0.215D-02 0.523D-02
 Coeff-Com:  0.234D-02-0.397D-01-0.514D-01-0.150D-01 0.232D+00 0.864D+00
 Coeff:      0.703D-04-0.137D-03 0.182D-03 0.648D-03 0.215D-02 0.523D-02
 Coeff:      0.234D-02-0.397D-01-0.514D-01-0.150D-01 0.232D+00 0.864D+00
 Gap=     0.254 Goal=   None    Shift=    0.000
 Gap=     0.162 Goal=   None    Shift=    0.000
 RMSDP=2.21D-07 MaxDP=2.14D-05 DE=-1.50D-08 OVMax= 4.09D-05

 Cycle  13  Pass 1  IDiag  1:
 RMSU=  9.98D-08    CP:  9.81D-01  1.74D+00  6.43D-01  7.31D-01  7.16D-01
                    CP:  9.84D-01  1.21D+00  1.52D+00  1.21D+00  1.37D+00
                    CP:  9.81D-01  1.03D+00
 E= -795.819291552787     Delta-E=       -0.000000002431 Rises=F Damp=F
 DIIS: error= 6.24D-07 at cycle  13 NSaved=  13.
 NSaved=13 IEnMin=13 EnMin= -795.819291552787     IErMin=13 ErrMin= 6.24D-07
 ErrMax= 6.24D-07  0.00D+00 EMaxC= 1.00D-01 BMatC= 7.89D-10 BMatP= 5.36D-09
 IDIUse=1 WtCom= 1.00D+00 WtEn= 0.00D+00
 Coeff-Com:  0.127D-04-0.286D-04-0.164D-04-0.772D-04 0.282D-03 0.115D-02
 Coeff-Com:  0.318D-02-0.113D-02-0.257D-01-0.651D-01 0.258D-01 0.372D+00
 Coeff-Com:  0.689D+00
 Coeff:      0.127D-04-0.286D-04-0.164D-04-0.772D-04 0.282D-03 0.115D-02
 Coeff:      0.318D-02-0.113D-02-0.257D-01-0.651D-01 0.258D-01 0.372D+00
 Coeff:      0.689D+00
 Gap=     0.254 Goal=   None    Shift=    0.000
 Gap=     0.162 Goal=   None    Shift=    0.000
 RMSDP=6.85D-08 MaxDP=5.66D-06 DE=-2.43D-09 OVMax= 9.86D-06

 Cycle  14  Pass 1  IDiag  1:
 RMSU=  3.99D-08    CP:  9.81D-01  1.74D+00  6.43D-01  7.31D-01  7.16D-01
                    CP:  9.84D-01  1.21D+00  1.52D+00  1.22D+00  1.38D+00
                    CP:  1.02D+00  1.12D+00  7.61D-01
 E= -795.819291552995     Delta-E=       -0.000000000208 Rises=F Damp=F
 DIIS: error= 2.93D-07 at cycle  14 NSaved=  14.
 NSaved=14 IEnMin=14 EnMin= -795.819291552995     IErMin=14 ErrMin= 2.93D-07
 ErrMax= 2.93D-07  0.00D+00 EMaxC= 1.00D-01 BMatC= 1.76D-10 BMatP= 7.89D-10
 IDIUse=1 WtCom= 1.00D+00 WtEn= 0.00D+00
 Coeff-Com: -0.609D-05 0.959D-05-0.410D-04-0.157D-03-0.210D-03-0.314D-03
 Coeff-Com:  0.135D-02 0.635D-02-0.474D-02-0.316D-01-0.272D-01 0.453D-01
 Coeff-Com:  0.364D+00 0.648D+00
 Coeff:     -0.609D-05 0.959D-05-0.410D-04-0.157D-03-0.210D-03-0.314D-03
 Coeff:      0.135D-02 0.635D-02-0.474D-02-0.316D-01-0.272D-01 0.453D-01
 Coeff:      0.364D+00 0.648D+00
 Gap=     0.254 Goal=   None    Shift=    0.000
 Gap=     0.162 Goal=   None    Shift=    0.000
 RMSDP=2.37D-08 MaxDP=1.60D-06 DE=-2.08D-10 OVMax= 2.99D-06

 Cycle  15  Pass 1  IDiag  1:
 RMSU=  1.35D-08    CP:  9.81D-01  1.74D+00  6.43D-01  7.31D-01  7.16D-01
                    CP:  9.84D-01  1.21D+00  1.52D+00  1.22D+00  1.39D+00
                    CP:  1.03D+00  1.15D+00  8.91D-01  7.94D-01
 E= -795.819291553083     Delta-E=       -0.000000000088 Rises=F Damp=F
 DIIS: error= 7.83D-08 at cycle  15 NSaved=  15.
 NSaved=15 IEnMin=15 EnMin= -795.819291553083     IErMin=15 ErrMin= 7.83D-08
 ErrMax= 7.83D-08  0.00D+00 EMaxC= 1.00D-01 BMatC= 1.60D-11 BMatP= 1.76D-10
 IDIUse=1 WtCom= 1.00D+00 WtEn= 0.00D+00
 Coeff-Com: -0.415D-05 0.733D-05-0.145D-04-0.515D-04-0.111D-03-0.273D-03
 Coeff-Com:  0.123D-03 0.265D-02 0.133D-02-0.434D-02-0.147D-01-0.301D-01
 Coeff-Com:  0.646D-01 0.270D+00 0.711D+00
 Coeff:     -0.415D-05 0.733D-05-0.145D-04-0.515D-04-0.111D-03-0.273D-03
 Coeff:      0.123D-03 0.265D-02 0.133D-02-0.434D-02-0.147D-01-0.301D-01
 Coeff:      0.646D-01 0.270D+00 0.711D+00
 Gap=     0.254 Goal=   None    Shift=    0.000
 Gap=     0.162 Goal=   None    Shift=    0.000
 RMSDP=7.21D-09 MaxDP=4.25D-07 DE=-8.78D-11 OVMax= 1.14D-06

 NEqSol: Computing the fast-slow partition of the PCM polarization charges.
 Error on total polarization charges =  0.01343
 SCF Done:  E(UB3LYP) =  -795.819291553     A.U. after   15 cycles
            NFock= 15  Conv=0.72D-08     -V/T= 2.0069
 <Sx>= 0.0000 <Sy>= 0.0000 <Sz>= 1.0000 <S**2>= 2.0071 S= 1.0024
 <L.S>= 0.000000000000E+00
 KE= 7.903436518095D+02 PE=-4.375906764434D+03 EE= 1.530133638787D+03
 Annihilation of the first spin contaminant:
 S**2 before annihilation     2.0071,   after     2.0000
 Leave Link  502 at Tue Aug 18 20:48:17 2026, MaxMem=  2684354560 cpu:            2969.2 elap:             127.7
 (Enter /mnt/data/applications/G16/g16/l601.exe)
 Copying SCF densities to generalized density rwf, IOpCl= 1 IROHF=0.

 **********************************************************************

            Population analysis using the SCF density.

 **********************************************************************

 Alpha  occ. eigenvalues --  -19.18108 -19.14490 -19.14427 -19.13063 -10.31212
 Alpha  occ. eigenvalues --  -10.24940 -10.24900 -10.24209 -10.22376 -10.20158
 Alpha  occ. eigenvalues --  -10.19216 -10.18527 -10.18184 -10.18178 -10.18063
 Alpha  occ. eigenvalues --  -10.18013  -6.78028  -1.10069  -1.06258  -1.01450
 Alpha  occ. eigenvalues --   -0.99564  -0.82053  -0.80591  -0.77378  -0.75342
 Alpha  occ. eigenvalues --   -0.72051  -0.70700  -0.67973  -0.64735  -0.62323
 Alpha  occ. eigenvalues --   -0.59372  -0.55998  -0.55417  -0.53179  -0.51075
 Alpha  occ. eigenvalues --   -0.49188  -0.48156  -0.46784  -0.46603  -0.44958
 Alpha  occ. eigenvalues --   -0.44548  -0.43951  -0.42830  -0.41823  -0.40779
 Alpha  occ. eigenvalues --   -0.40265  -0.40124  -0.39809  -0.39741  -0.39184
 Alpha  occ. eigenvalues --   -0.38474  -0.37520  -0.37033  -0.36589  -0.36224
 Alpha  occ. eigenvalues --   -0.35444  -0.35229  -0.34914  -0.34061  -0.33594
 Alpha  occ. eigenvalues --   -0.31271  -0.30673  -0.28123  -0.27771  -0.23275
 Alpha  occ. eigenvalues --   -0.21443
 Alpha virt. eigenvalues --    0.03935   0.04972   0.06805   0.06931   0.08120
 Alpha virt. eigenvalues --    0.08759   0.09513   0.10165   0.10227   0.11020
 Alpha virt. eigenvalues --    0.11287   0.11722   0.12082   0.12483   0.12793
 Alpha virt. eigenvalues --    0.13383   0.13850   0.14332   0.14716   0.15154
 Alpha virt. eigenvalues --    0.15611   0.16085   0.16315   0.16644   0.18117
 Alpha virt. eigenvalues --    0.19629   0.20503   0.21194   0.21683   0.21943
 Alpha virt. eigenvalues --    0.22849   0.23445   0.25639   0.26753   0.27888
 Alpha virt. eigenvalues --    0.28503   0.30373   0.30848   0.32368   0.32892
 Alpha virt. eigenvalues --    0.37032   0.39114   0.40607   0.41081   0.41202
 Alpha virt. eigenvalues --    0.42296   0.43518   0.44313   0.44984   0.46182
 Alpha virt. eigenvalues --    0.47870   0.48045   0.48170   0.49801   0.49840
 Alpha virt. eigenvalues --    0.50268   0.51776   0.52352   0.53847   0.54672
 Alpha virt. eigenvalues --    0.54877   0.57226   0.57350   0.58031   0.58549
 Alpha virt. eigenvalues --    0.58750   0.59726   0.60573   0.61884   0.61948
 Alpha virt. eigenvalues --    0.62396   0.62673   0.62943   0.63353   0.63756
 Alpha virt. eigenvalues --    0.64403   0.65015   0.65147   0.65352   0.65667
 Alpha virt. eigenvalues --    0.65875   0.66723   0.66893   0.67132   0.67631
 Alpha virt. eigenvalues --    0.68013   0.68728   0.69159   0.69443   0.70525
 Alpha virt. eigenvalues --    0.71239   0.71944   0.72795   0.73596   0.75095
 Alpha virt. eigenvalues --    0.76159   0.77198   0.78684   0.79713   0.81981
 Alpha virt. eigenvalues --    0.83367   0.84469   0.86268   0.88072   0.89219
 Alpha virt. eigenvalues --    0.89567   0.89968   0.91576   0.92954   0.96494
 Alpha virt. eigenvalues --    0.97489   0.99521   1.01176   1.02334   1.04048
 Alpha virt. eigenvalues --    1.05057   1.06551   1.07483   1.11578   1.12979
 Alpha virt. eigenvalues --    1.14872   1.16359   1.17631   1.19808   1.20217
 Alpha virt. eigenvalues --    1.21678   1.22621   1.23141   1.23977   1.24847
 Alpha virt. eigenvalues --    1.26476   1.27499   1.28897   1.30993   1.32911
 Alpha virt. eigenvalues --    1.33205   1.33910   1.35434   1.35993   1.36243
 Alpha virt. eigenvalues --    1.38162   1.39456   1.40104   1.40450   1.41351
 Alpha virt. eigenvalues --    1.41582   1.41908   1.42198   1.43874   1.44686
 Alpha virt. eigenvalues --    1.46331   1.48594   1.50215   1.50857   1.53214
 Alpha virt. eigenvalues --    1.53384   1.54779   1.56598   1.57227   1.58284
 Alpha virt. eigenvalues --    1.59257   1.60365   1.60559   1.60960   1.61193
 Alpha virt. eigenvalues --    1.61861   1.63011   1.63655   1.63803   1.64069
 Alpha virt. eigenvalues --    1.64667   1.65774   1.66945   1.67657   1.68185
 Alpha virt. eigenvalues --    1.68489   1.69330   1.69561   1.70337   1.71556
 Alpha virt. eigenvalues --    1.72071   1.72508   1.72916   1.73757   1.74843
 Alpha virt. eigenvalues --    1.76408   1.76779   1.78353   1.78584   1.79430
 Alpha virt. eigenvalues --    1.80069   1.81738   1.83760   1.84030   1.84750
 Alpha virt. eigenvalues --    1.85774   1.87155   1.88578   1.90196   1.90732
 Alpha virt. eigenvalues --    1.93558   1.93685   1.94459   1.95018   1.99530
 Alpha virt. eigenvalues --    2.00020   2.00595   2.01626   2.02087   2.02975
 Alpha virt. eigenvalues --    2.03828   2.05730   2.07926   2.08778   2.09164
 Alpha virt. eigenvalues --    2.12474   2.13394   2.15316   2.17331   2.18341
 Alpha virt. eigenvalues --    2.18937   2.20472   2.22219   2.23180   2.23525
 Alpha virt. eigenvalues --    2.28101   2.28668   2.29312   2.32151   2.32427
 Alpha virt. eigenvalues --    2.33826   2.35339   2.36515   2.38600   2.40583
 Alpha virt. eigenvalues --    2.41116   2.41748   2.41863   2.42235   2.43700
 Alpha virt. eigenvalues --    2.44615   2.45745   2.45926   2.46945   2.48128
 Alpha virt. eigenvalues --    2.48875   2.49680   2.50721   2.52721   2.53648
 Alpha virt. eigenvalues --    2.54174   2.54397   2.55688   2.56129   2.59377
 Alpha virt. eigenvalues --    2.59648   2.62748   2.64186   2.71820   2.87877
 Alpha virt. eigenvalues --    2.88483   2.89355   2.91021   2.97922   2.99864
 Alpha virt. eigenvalues --    3.01430   3.04828   3.15478   3.16215   3.18169
 Alpha virt. eigenvalues --    3.23994   3.35302   3.36557   3.43115   3.43684
 Alpha virt. eigenvalues --    3.48432   3.54482
  Beta  occ. eigenvalues --  -19.17987 -19.14370 -19.14312 -19.12647 -10.31228
  Beta  occ. eigenvalues --  -10.24939 -10.24905 -10.24211 -10.21259 -10.19183
  Beta  occ. eigenvalues --  -10.19002 -10.18527 -10.18181 -10.18176 -10.18059
  Beta  occ. eigenvalues --  -10.18009  -6.77955  -1.09711  -1.06051  -1.00781
  Beta  occ. eigenvalues --   -0.99315  -0.81046  -0.78965  -0.76720  -0.75311
  Beta  occ. eigenvalues --   -0.70706  -0.70575  -0.67963  -0.64055  -0.62141
  Beta  occ. eigenvalues --   -0.58285  -0.55573  -0.55169  -0.52557  -0.49672
  Beta  occ. eigenvalues --   -0.48710  -0.47812  -0.46598  -0.46042  -0.44822
  Beta  occ. eigenvalues --   -0.43981  -0.43547  -0.41636  -0.40883  -0.40310
  Beta  occ. eigenvalues --   -0.40138  -0.39699  -0.39629  -0.39530  -0.39087
  Beta  occ. eigenvalues --   -0.38127  -0.37280  -0.37018  -0.36452  -0.35618
  Beta  occ. eigenvalues --   -0.35175  -0.35044  -0.34010  -0.33509  -0.33307
  Beta  occ. eigenvalues --   -0.31217  -0.29357  -0.27542  -0.27279
  Beta virt. eigenvalues --   -0.11051  -0.09075   0.04943   0.06220   0.06922
  Beta virt. eigenvalues --    0.08212   0.08811   0.08861   0.09667   0.10241
  Beta virt. eigenvalues --    0.10330   0.11136   0.11765   0.12152   0.12191
  Beta virt. eigenvalues --    0.12644   0.12966   0.13474   0.14283   0.14492
  Beta virt. eigenvalues --    0.14834   0.15416   0.15685   0.16223   0.16362
  Beta virt. eigenvalues --    0.16747   0.18179   0.19941   0.20606   0.21392
  Beta virt. eigenvalues --    0.21836   0.22353   0.23000   0.23981   0.25986
  Beta virt. eigenvalues --    0.27200   0.28397   0.28963   0.30767   0.32099
  Beta virt. eigenvalues --    0.33216   0.34410   0.37545   0.39146   0.40779
  Beta virt. eigenvalues --    0.41133   0.41970   0.43373   0.44317   0.44779
  Beta virt. eigenvalues --    0.45677   0.46603   0.48200   0.48230   0.48461
  Beta virt. eigenvalues --    0.50094   0.50350   0.50767   0.52430   0.52807
  Beta virt. eigenvalues --    0.54041   0.55127   0.55854   0.57325   0.57866
  Beta virt. eigenvalues --    0.58496   0.58682   0.59324   0.60132   0.60952
  Beta virt. eigenvalues --    0.62121   0.62203   0.62551   0.62887   0.63318
  Beta virt. eigenvalues --    0.63954   0.64185   0.64520   0.65220   0.65238
  Beta virt. eigenvalues --    0.65498   0.65820   0.65959   0.66992   0.67250
  Beta virt. eigenvalues --    0.67739   0.67753   0.68256   0.69122   0.69370
  Beta virt. eigenvalues --    0.69608   0.71162   0.71920   0.72321   0.73283
  Beta virt. eigenvalues --    0.74269   0.75450   0.76466   0.77425   0.78912
  Beta virt. eigenvalues --    0.80152   0.82602   0.83714   0.85214   0.86834
  Beta virt. eigenvalues --    0.88798   0.89452   0.89920   0.90752   0.92040
  Beta virt. eigenvalues --    0.93231   0.97278   0.98787   1.00694   1.01576
  Beta virt. eigenvalues --    1.03141   1.05210   1.05698   1.06942   1.07521
  Beta virt. eigenvalues --    1.12131   1.13405   1.15154   1.17030   1.17964
  Beta virt. eigenvalues --    1.19935   1.20281   1.22308   1.23048   1.23926
  Beta virt. eigenvalues --    1.24287   1.25398   1.26740   1.27916   1.29496
  Beta virt. eigenvalues --    1.31178   1.33392   1.33605   1.35014   1.35977
  Beta virt. eigenvalues --    1.36309   1.36650   1.38467   1.39690   1.40398
  Beta virt. eigenvalues --    1.41293   1.41519   1.41593   1.42022   1.42652
  Beta virt. eigenvalues --    1.44486   1.44878   1.46896   1.48757   1.50948
  Beta virt. eigenvalues --    1.51935   1.53445   1.53779   1.55487   1.56835
  Beta virt. eigenvalues --    1.57523   1.58551   1.59631   1.60496   1.60605
  Beta virt. eigenvalues --    1.61100   1.61387   1.61961   1.63175   1.63759
  Beta virt. eigenvalues --    1.63922   1.64594   1.64984   1.66281   1.67202
  Beta virt. eigenvalues --    1.67850   1.68516   1.69017   1.69535   1.69860
  Beta virt. eigenvalues --    1.70911   1.72136   1.72466   1.72623   1.73272
  Beta virt. eigenvalues --    1.74339   1.75084   1.76621   1.77003   1.78526
  Beta virt. eigenvalues --    1.78877   1.79669   1.80860   1.81948   1.84104
  Beta virt. eigenvalues --    1.84593   1.85442   1.85856   1.87200   1.89848
  Beta virt. eigenvalues --    1.90994   1.92443   1.93720   1.93757   1.94985
  Beta virt. eigenvalues --    1.95959   1.99707   2.00132   2.00802   2.02059
  Beta virt. eigenvalues --    2.02755   2.03421   2.04187   2.05792   2.07969
  Beta virt. eigenvalues --    2.08997   2.09921   2.12897   2.13751   2.15939
  Beta virt. eigenvalues --    2.18312   2.18507   2.19014   2.20636   2.23059
  Beta virt. eigenvalues --    2.23286   2.23690   2.28142   2.29235   2.29848
  Beta virt. eigenvalues --    2.32212   2.32591   2.33938   2.35822   2.36626
  Beta virt. eigenvalues --    2.39027   2.40623   2.41292   2.41774   2.42149
  Beta virt. eigenvalues --    2.42451   2.43839   2.45109   2.45815   2.45979
  Beta virt. eigenvalues --    2.47287   2.48137   2.48903   2.49695   2.50783
  Beta virt. eigenvalues --    2.53152   2.53839   2.54538   2.54935   2.55736
  Beta virt. eigenvalues --    2.56333   2.59574   2.59828   2.62990   2.65076
  Beta virt. eigenvalues --    2.72932   2.88255   2.88869   2.89938   2.91472
  Beta virt. eigenvalues --    2.98222   3.00225   3.01711   3.05127   3.16348
  Beta virt. eigenvalues --    3.16515   3.18379   3.24290   3.35388   3.36895
  Beta virt. eigenvalues --    3.43307   3.43929   3.48809   3.54763
          Condensed to atoms (all electrons):
               1          2          3          4          5          6
     1  C    5.092303   0.306052  -0.031615   0.434602  -0.017702  -0.013168
     2  C    0.306052   5.262118   0.356200  -0.057001  -0.007783   0.008403
     3  H   -0.031615   0.356200   0.648200   0.000715  -0.000283  -0.000305
     4  C    0.434602  -0.057001   0.000715   4.538404   0.365524   0.381262
     5  H   -0.017702  -0.007783  -0.000283   0.365524   0.656872  -0.028002
     6  H   -0.013168   0.008403  -0.000305   0.381262  -0.028002   0.658081
     7  H   -0.019323  -0.002798   0.002337   0.373269  -0.028968  -0.027415
     8  C   -0.060703   0.393257  -0.024099  -0.002867   0.003084  -0.000035
     9  O    0.009146  -0.091790   0.003872  -0.003084   0.004180  -0.000118
    10  O    0.003720  -0.055635   0.006204  -0.000075  -0.000010   0.000001
    11  C   -0.000325   0.007234  -0.000719   0.000012  -0.000016  -0.000000
    12  H    0.000036   0.001330   0.000038   0.000003  -0.000006  -0.000000
    13  H    0.000055   0.001122   0.000043  -0.000008   0.000020   0.000000
    14  B    0.436048  -0.086747   0.006264  -0.043371   0.008534  -0.017255
    15  O   -0.020695   0.003334   0.000201   0.000882  -0.000022   0.000067
    16  O   -0.016716   0.000750  -0.000015  -0.002586  -0.000048   0.009665
    17  C    0.002900  -0.000419   0.000001   0.000071   0.000007   0.000011
    18  C    0.000174   0.000109   0.000011  -0.000282   0.000018  -0.000409
    19  C   -0.000171  -0.000058   0.000000   0.000008   0.000000  -0.000004
    20  C    0.000026  -0.000021   0.000001  -0.000001  -0.000000  -0.000002
    21  C   -0.000228  -0.000006  -0.000000   0.000003   0.000000  -0.000011
    22  C   -0.000004  -0.000005  -0.000000  -0.000011   0.000002  -0.000011
    23  H    0.000112  -0.000171  -0.000002   0.000003   0.000007  -0.000022
    24  H   -0.000191   0.000050   0.000001  -0.000001  -0.000000   0.000002
    25  H    0.000001  -0.000002  -0.000000  -0.000000   0.000000  -0.000000
    26  H   -0.000044   0.000009   0.000002   0.000000  -0.000000   0.000000
    27  H    0.000003   0.000001   0.000000  -0.000000   0.000000  -0.000000
    28  H   -0.000036   0.000012   0.000000   0.000000   0.000000   0.000000
    29  H   -0.000138  -0.000001   0.000000  -0.000002  -0.000000   0.000116
    30  H    0.000004  -0.000001   0.000000  -0.000001  -0.000000  -0.000001
    31  H    0.000086  -0.000037  -0.000000  -0.000001   0.000001  -0.000042
    32  H   -0.000025   0.000000   0.000000  -0.000005  -0.000000   0.000049
    33  H   -0.000053   0.000001  -0.000000   0.000005   0.000001   0.000001
    34  H    0.000003  -0.000000   0.000000   0.000001   0.000000  -0.000002
    35  C   -0.000001  -0.000080  -0.000127   0.000000  -0.000001   0.000000
    36  H    0.000002  -0.000027   0.000053  -0.000000   0.000000   0.000000
    37  H   -0.000000   0.000020   0.000004   0.000000  -0.000000  -0.000000
    38  H    0.000002  -0.000018   0.000051   0.000000  -0.000000  -0.000000
               7          8          9         10         11         12
     1  C   -0.019323  -0.060703   0.009146   0.003720  -0.000325   0.000036
     2  C   -0.002798   0.393257  -0.091790  -0.055635   0.007234   0.001330
     3  H    0.002337  -0.024099   0.003872   0.006204  -0.000719   0.000038
     4  C    0.373269  -0.002867  -0.003084  -0.000075   0.000012   0.000003
     5  H   -0.028968   0.003084   0.004180  -0.000010  -0.000016  -0.000006
     6  H   -0.027415  -0.000035  -0.000118   0.000001  -0.000000  -0.000000
     7  H    0.659641  -0.000784  -0.000008  -0.000003   0.000000  -0.000000
     8  C   -0.000784   4.401944   0.706834   0.385427  -0.049765  -0.001220
     9  O   -0.000008   0.706834   7.697068  -0.060676   0.000398   0.008134
    10  O   -0.000003   0.385427  -0.060676   7.794527   0.292890  -0.030458
    11  C    0.000000  -0.049765   0.000398   0.292890   4.480853   0.379480
    12  H   -0.000000  -0.001220   0.008134  -0.030458   0.379480   0.691038
    13  H    0.000000  -0.001159   0.007737  -0.030340   0.379689  -0.049267
    14  B    0.003402  -0.001148   0.020346   0.000735  -0.000104   0.000048
    15  O   -0.000026   0.000145  -0.000204  -0.000000  -0.000000  -0.000001
    16  O   -0.000020   0.000008  -0.000003  -0.000000   0.000000   0.000000
    17  C    0.000006  -0.000068  -0.000052   0.000000   0.000000  -0.000001
    18  C    0.000005  -0.000011   0.000010  -0.000000  -0.000000   0.000000
    19  C   -0.000000   0.000036  -0.000009   0.000000  -0.000000  -0.000000
    20  C   -0.000000  -0.000001  -0.000000   0.000000  -0.000000  -0.000000
    21  C    0.000004   0.000001   0.000000   0.000000  -0.000000   0.000000
    22  C   -0.000001   0.000000   0.000000   0.000000  -0.000000   0.000000
    23  H   -0.000000   0.000080   0.000334   0.000001  -0.000000   0.000000
    24  H   -0.000000   0.000052   0.000057  -0.000001  -0.000001   0.000008
    25  H   -0.000000   0.000001   0.000000   0.000000  -0.000000  -0.000000
    26  H    0.000000  -0.000000  -0.000000   0.000000   0.000000  -0.000000
    27  H    0.000000  -0.000000   0.000000   0.000000   0.000000   0.000000
    28  H   -0.000000  -0.000001  -0.000000   0.000000  -0.000000  -0.000000
    29  H   -0.000001  -0.000000   0.000000  -0.000000  -0.000000   0.000000
    30  H   -0.000000  -0.000000   0.000000   0.000000  -0.000000   0.000000
    31  H    0.000002   0.000002   0.000000   0.000000  -0.000000   0.000000
    32  H   -0.000000  -0.000000   0.000000   0.000000  -0.000000  -0.000000
    33  H   -0.000000  -0.000000  -0.000000  -0.000000   0.000000   0.000000
    34  H    0.000000   0.000000   0.000000  -0.000000   0.000000  -0.000000
    35  C    0.000000   0.003429   0.001201  -0.033625   0.450231  -0.026452
    36  H    0.000000   0.000186  -0.000021   0.002896  -0.019356  -0.010672
    37  H    0.000000  -0.000008   0.000041   0.002927  -0.011837  -0.001283
    38  H   -0.000000   0.000188  -0.000020   0.002843  -0.019254   0.008976
              13         14         15         16         17         18
     1  C    0.000055   0.436048  -0.020695  -0.016716   0.002900   0.000174
     2  C    0.001122  -0.086747   0.003334   0.000750  -0.000419   0.000109
     3  H    0.000043   0.006264   0.000201  -0.000015   0.000001   0.000011
     4  C   -0.000008  -0.043371   0.000882  -0.002586   0.000071  -0.000282
     5  H    0.000020   0.008534  -0.000022  -0.000048   0.000007   0.000018
     6  H    0.000000  -0.017255   0.000067   0.009665   0.000011  -0.000409
     7  H    0.000000   0.003402  -0.000026  -0.000020   0.000006   0.000005
     8  C   -0.001159  -0.001148   0.000145   0.000008  -0.000068  -0.000011
     9  O    0.007737   0.020346  -0.000204  -0.000003  -0.000052   0.000010
    10  O   -0.030340   0.000735  -0.000000  -0.000000   0.000000  -0.000000
    11  C    0.379689  -0.000104  -0.000000   0.000000   0.000000  -0.000000
    12  H   -0.049267   0.000048  -0.000001   0.000000  -0.000001   0.000000
    13  H    0.691437  -0.000035   0.000000   0.000000   0.000000  -0.000000
    14  B   -0.000035   3.677854   0.529005   0.518493  -0.100525  -0.101810
    15  O    0.000000   0.529005   7.586208  -0.018348   0.264199  -0.056806
    16  O    0.000000   0.518493  -0.018348   7.591293  -0.057005   0.264555
    17  C    0.000000  -0.100525   0.264199  -0.057005   4.992478   0.292381
    18  C   -0.000000  -0.101810  -0.056806   0.264555   0.292381   4.996376
    19  C    0.000000   0.007744  -0.040065   0.000491   0.420186  -0.057084
    20  C    0.000000  -0.001776  -0.032553   0.003189   0.443921  -0.052100
    21  C   -0.000000   0.007018   0.000231  -0.039930  -0.056906   0.421402
    22  C   -0.000000  -0.001778   0.003187  -0.032294  -0.052137   0.444247
    23  H   -0.000000   0.006045  -0.004250   0.002541  -0.006524  -0.008555
    24  H   -0.000000   0.000610   0.002266  -0.000224  -0.009938   0.007738
    25  H    0.000000  -0.001430   0.004307  -0.000102  -0.009852  -0.006967
    26  H    0.000000   0.001867   0.000533  -0.000004  -0.000498  -0.014362
    27  H   -0.000000   0.000593   0.003574   0.000029  -0.012932  -0.001898
    28  H    0.000000  -0.000274   0.000012  -0.000141  -0.008477   0.007756
    29  H   -0.000000   0.000053  -0.000231   0.002275   0.007720  -0.010146
    30  H   -0.000000  -0.001289  -0.000107   0.004276  -0.006790  -0.009428
    31  H   -0.000000   0.005974   0.002758  -0.004139  -0.008440  -0.006287
    32  H    0.000000  -0.000508  -0.000140  -0.000019   0.007746  -0.008728
    33  H    0.000000   0.001886  -0.000023   0.000721  -0.014259  -0.000191
    34  H    0.000000   0.000590   0.000031   0.003574  -0.001955  -0.012936
    35  C   -0.026420  -0.000009  -0.000000   0.000000   0.000000  -0.000000
    36  H    0.008996  -0.000000   0.000000  -0.000000   0.000000  -0.000000
    37  H   -0.001244  -0.000000   0.000000  -0.000000   0.000000  -0.000000
    38  H   -0.010643   0.000001  -0.000000   0.000000  -0.000000   0.000000
              19         20         21         22         23         24
     1  C   -0.000171   0.000026  -0.000228  -0.000004   0.000112  -0.000191
     2  C   -0.000058  -0.000021  -0.000006  -0.000005  -0.000171   0.000050
     3  H    0.000000   0.000001  -0.000000  -0.000000  -0.000002   0.000001
     4  C    0.000008  -0.000001   0.000003  -0.000011   0.000003  -0.000001
     5  H    0.000000  -0.000000   0.000000   0.000002   0.000007  -0.000000
     6  H   -0.000004  -0.000002  -0.000011  -0.000011  -0.000022   0.000002
     7  H   -0.000000  -0.000000   0.000004  -0.000001  -0.000000  -0.000000
     8  C    0.000036  -0.000001   0.000001   0.000000   0.000080   0.000052
     9  O   -0.000009  -0.000000   0.000000   0.000000   0.000334   0.000057
    10  O    0.000000   0.000000   0.000000   0.000000   0.000001  -0.000001
    11  C   -0.000000  -0.000000  -0.000000  -0.000000  -0.000000  -0.000001
    12  H   -0.000000  -0.000000   0.000000   0.000000   0.000000   0.000008
    13  H    0.000000   0.000000  -0.000000  -0.000000  -0.000000  -0.000000
    14  B    0.007744  -0.001776   0.007018  -0.001778   0.006045   0.000610
    15  O   -0.040065  -0.032553   0.000231   0.003187  -0.004250   0.002266
    16  O    0.000491   0.003189  -0.039930  -0.032294   0.002541  -0.000224
    17  C    0.420186   0.443921  -0.056906  -0.052137  -0.006524  -0.009938
    18  C   -0.057084  -0.052100   0.421402   0.444247  -0.008555   0.007738
    19  C    4.537632  -0.056577   0.007599  -0.002327   0.375856   0.366587
    20  C   -0.056577   4.519355  -0.002496   0.002845   0.007398  -0.008329
    21  C    0.007599  -0.002496   4.537712  -0.056378   0.000246  -0.000337
    22  C   -0.002327   0.002845  -0.056378   4.518562  -0.000960   0.000249
    23  H    0.375856   0.007398   0.000246  -0.000960   0.656110  -0.027443
    24  H    0.366587  -0.008329  -0.000337   0.000249  -0.027443   0.665334
    25  H    0.366574  -0.001103  -0.000247   0.006719  -0.029415  -0.023921
    26  H    0.007594   0.364876   0.009599  -0.000142  -0.000506  -0.000024
    27  H   -0.000204   0.369894  -0.000833  -0.000207   0.000038  -0.000377
    28  H   -0.008422   0.369037  -0.000123  -0.000300   0.000043   0.005177
    29  H   -0.000345   0.000246   0.366924  -0.008219  -0.000036   0.000017
    30  H   -0.000244   0.006518   0.366737  -0.001237  -0.000010   0.000007
    31  H    0.000263  -0.001180   0.375588   0.007470   0.000067  -0.000036
    32  H   -0.000144  -0.000300  -0.008288   0.369167  -0.000128  -0.000016
    33  H    0.009646  -0.000148   0.007604   0.364498   0.001603  -0.000087
    34  H   -0.000790  -0.000219  -0.000202   0.369934   0.000192  -0.000012
    35  C   -0.000000  -0.000000  -0.000000  -0.000000  -0.000000  -0.000000
    36  H    0.000000   0.000000  -0.000000  -0.000000  -0.000000  -0.000000
    37  H    0.000000  -0.000000  -0.000000  -0.000000  -0.000000  -0.000000
    38  H   -0.000000   0.000000   0.000000   0.000000   0.000000   0.000000
              25         26         27         28         29         30
     1  C    0.000001  -0.000044   0.000003  -0.000036  -0.000138   0.000004
     2  C   -0.000002   0.000009   0.000001   0.000012  -0.000001  -0.000001
     3  H   -0.000000   0.000002   0.000000   0.000000   0.000000   0.000000
     4  C   -0.000000   0.000000  -0.000000   0.000000  -0.000002  -0.000001
     5  H    0.000000  -0.000000   0.000000   0.000000  -0.000000  -0.000000
     6  H   -0.000000   0.000000  -0.000000   0.000000   0.000116  -0.000001
     7  H   -0.000000   0.000000   0.000000  -0.000000  -0.000001  -0.000000
     8  C    0.000001  -0.000000  -0.000000  -0.000001  -0.000000  -0.000000
     9  O    0.000000  -0.000000   0.000000  -0.000000   0.000000   0.000000
    10  O    0.000000   0.000000   0.000000   0.000000  -0.000000   0.000000
    11  C   -0.000000   0.000000   0.000000  -0.000000  -0.000000  -0.000000
    12  H   -0.000000  -0.000000   0.000000  -0.000000   0.000000   0.000000
    13  H    0.000000   0.000000  -0.000000   0.000000  -0.000000  -0.000000
    14  B   -0.001430   0.001867   0.000593  -0.000274   0.000053  -0.001289
    15  O    0.004307   0.000533   0.003574   0.000012  -0.000231  -0.000107
    16  O   -0.000102  -0.000004   0.000029  -0.000141   0.002275   0.004276
    17  C   -0.009852  -0.000498  -0.012932  -0.008477   0.007720  -0.006790
    18  C   -0.006967  -0.014362  -0.001898   0.007756  -0.010146  -0.009428
    19  C    0.366574   0.007594  -0.000204  -0.008422  -0.000345  -0.000244
    20  C   -0.001103   0.364876   0.369894   0.369037   0.000246   0.006518
    21  C   -0.000247   0.009599  -0.000833  -0.000123   0.366924   0.366737
    22  C    0.006719  -0.000142  -0.000207  -0.000300  -0.008219  -0.001237
    23  H   -0.029415  -0.000506   0.000038   0.000043  -0.000036  -0.000010
    24  H   -0.023921  -0.000024  -0.000377   0.005177   0.000017   0.000007
    25  H    0.668181  -0.000022   0.001694  -0.000247   0.000005  -0.000023
    26  H   -0.000022   0.660210  -0.025500  -0.027419  -0.000095  -0.000094
    27  H    0.001694  -0.025500   0.658002  -0.025611  -0.000013   0.000238
    28  H   -0.000247  -0.027419  -0.025611   0.666889  -0.000016   0.000149
    29  H    0.000005  -0.000095  -0.000013  -0.000016   0.665822  -0.023823
    30  H   -0.000023  -0.000094   0.000238   0.000149  -0.023823   0.666975
    31  H   -0.000009   0.001711   0.000198  -0.000134  -0.027600  -0.029552
    32  H    0.000147  -0.000008  -0.000123   0.000023   0.005216  -0.000211
    33  H   -0.000143  -0.000025  -0.000083  -0.000005  -0.000014  -0.000026
    34  H    0.000200  -0.000079   0.001762  -0.000124  -0.000378   0.001684
    35  C   -0.000000   0.000000   0.000000  -0.000000  -0.000000  -0.000000
    36  H   -0.000000   0.000000  -0.000000   0.000000  -0.000000  -0.000000
    37  H    0.000000  -0.000000  -0.000000   0.000000  -0.000000  -0.000000
    38  H    0.000000   0.000000   0.000000  -0.000000   0.000000   0.000000
              31         32         33         34         35         36
     1  C    0.000086  -0.000025  -0.000053   0.000003  -0.000001   0.000002
     2  C   -0.000037   0.000000   0.000001  -0.000000  -0.000080  -0.000027
     3  H   -0.000000   0.000000  -0.000000   0.000000  -0.000127   0.000053
     4  C   -0.000001  -0.000005   0.000005   0.000001   0.000000  -0.000000
     5  H    0.000001  -0.000000   0.000001   0.000000  -0.000001   0.000000
     6  H   -0.000042   0.000049   0.000001  -0.000002   0.000000   0.000000
     7  H    0.000002  -0.000000  -0.000000   0.000000   0.000000   0.000000
     8  C    0.000002  -0.000000  -0.000000   0.000000   0.003429   0.000186
     9  O    0.000000   0.000000  -0.000000   0.000000   0.001201  -0.000021
    10  O    0.000000   0.000000  -0.000000  -0.000000  -0.033625   0.002896
    11  C   -0.000000  -0.000000   0.000000   0.000000   0.450231  -0.019356
    12  H    0.000000  -0.000000   0.000000  -0.000000  -0.026452  -0.010672
    13  H   -0.000000   0.000000   0.000000   0.000000  -0.026420   0.008996
    14  B    0.005974  -0.000508   0.001886   0.000590  -0.000009  -0.000000
    15  O    0.002758  -0.000140  -0.000023   0.000031  -0.000000   0.000000
    16  O   -0.004139  -0.000019   0.000721   0.003574   0.000000  -0.000000
    17  C   -0.008440   0.007746  -0.014259  -0.001955   0.000000   0.000000
    18  C   -0.006287  -0.008728  -0.000191  -0.012936  -0.000000  -0.000000
    19  C    0.000263  -0.000144   0.009646  -0.000790  -0.000000   0.000000
    20  C   -0.001180  -0.000300  -0.000148  -0.000219  -0.000000   0.000000
    21  C    0.375588  -0.008288   0.007604  -0.000202  -0.000000  -0.000000
    22  C    0.007470   0.369167   0.364498   0.369934  -0.000000  -0.000000
    23  H    0.000067  -0.000128   0.001603   0.000192  -0.000000  -0.000000
    24  H   -0.000036  -0.000016  -0.000087  -0.000012  -0.000000  -0.000000
    25  H   -0.000009   0.000147  -0.000143   0.000200  -0.000000  -0.000000
    26  H    0.001711  -0.000008  -0.000025  -0.000079   0.000000   0.000000
    27  H    0.000198  -0.000123  -0.000083   0.001762   0.000000  -0.000000
    28  H   -0.000134   0.000023  -0.000005  -0.000124  -0.000000   0.000000
    29  H   -0.027600   0.005216  -0.000014  -0.000378  -0.000000  -0.000000
    30  H   -0.029552  -0.000211  -0.000026   0.001684  -0.000000  -0.000000
    31  H    0.656848   0.000055  -0.000511   0.000033  -0.000000  -0.000000
    32  H    0.000055   0.666974  -0.027254  -0.025630  -0.000000   0.000000
    33  H   -0.000511  -0.027254   0.659450  -0.025431   0.000000   0.000000
    34  H    0.000033  -0.025630  -0.025431   0.657763  -0.000000   0.000000
    35  C   -0.000000  -0.000000   0.000000  -0.000000   4.518066   0.381800
    36  H   -0.000000   0.000000   0.000000   0.000000   0.381800   0.659154
    37  H   -0.000000  -0.000000   0.000000   0.000000   0.373908  -0.024048
    38  H    0.000000  -0.000000   0.000000  -0.000000   0.381669  -0.032201
              37         38
     1  C   -0.000000   0.000002
     2  C    0.000020  -0.000018
     3  H    0.000004   0.000051
     4  C    0.000000   0.000000
     5  H   -0.000000  -0.000000
     6  H   -0.000000  -0.000000
     7  H    0.000000  -0.000000
     8  C   -0.000008   0.000188
     9  O    0.000041  -0.000020
    10  O    0.002927   0.002843
    11  C   -0.011837  -0.019254
    12  H   -0.001283   0.008976
    13  H   -0.001244  -0.010643
    14  B   -0.000000   0.000001
    15  O    0.000000  -0.000000
    16  O   -0.000000   0.000000
    17  C    0.000000  -0.000000
    18  C   -0.000000   0.000000
    19  C    0.000000  -0.000000
    20  C   -0.000000   0.000000
    21  C   -0.000000   0.000000
    22  C   -0.000000   0.000000
    23  H   -0.000000   0.000000
    24  H   -0.000000   0.000000
    25  H    0.000000   0.000000
    26  H   -0.000000   0.000000
    27  H   -0.000000   0.000000
    28  H    0.000000  -0.000000
    29  H   -0.000000   0.000000
    30  H   -0.000000   0.000000
    31  H   -0.000000   0.000000
    32  H   -0.000000  -0.000000
    33  H    0.000000   0.000000
    34  H    0.000000  -0.000000
    35  C    0.373908   0.381669
    36  H   -0.024048  -0.032201
    37  H    0.652771  -0.024100
    38  H   -0.024100   0.659489
          Atomic-Atomic Spin Densities.
               1          2          3          4          5          6
     1  C    0.890792  -0.051431  -0.014461  -0.006993  -0.023087  -0.001855
     2  C   -0.051431   0.866330   0.016860  -0.018698   0.001191   0.000944
     3  H   -0.014461   0.016860   0.012108   0.000453  -0.001048   0.000065
     4  C   -0.006993  -0.018698   0.000453  -0.005942   0.009204  -0.001275
     5  H   -0.023087   0.001191  -0.001048   0.009204   0.073724  -0.001360
     6  H   -0.001855   0.000944   0.000065  -0.001275  -0.001360   0.005330
     7  H   -0.018943   0.003015   0.002221   0.006849  -0.017129   0.002391
     8  C   -0.025666   0.028309  -0.015249   0.000060   0.002571  -0.000052
     9  O    0.001283  -0.013213   0.000017   0.000268  -0.000168  -0.000013
    10  O    0.000570  -0.010269   0.001353   0.000009  -0.000026  -0.000000
    11  C   -0.000053  -0.000281  -0.000147   0.000001   0.000004  -0.000000
    12  H   -0.000011   0.000106  -0.000009   0.000001   0.000001  -0.000000
    13  H   -0.000014   0.000140  -0.000001  -0.000001   0.000001   0.000000
    14  B    0.076988  -0.017419  -0.001990  -0.010379   0.000097   0.002274
    15  O   -0.004932  -0.000467   0.000096   0.000015   0.000021  -0.000012
    16  O   -0.005730   0.000163   0.000013   0.000701   0.000099  -0.000538
    17  C   -0.000028   0.000112   0.000003   0.000019  -0.000007  -0.000000
    18  C    0.000295  -0.000138  -0.000009  -0.000083   0.000008   0.000090
    19  C    0.000047   0.000011   0.000001  -0.000000   0.000000  -0.000001
    20  C    0.000006  -0.000001  -0.000001  -0.000000   0.000000  -0.000000
    21  C    0.000041   0.000003  -0.000000   0.000003   0.000001  -0.000010
    22  C    0.000002   0.000002   0.000000   0.000002  -0.000000  -0.000005
    23  H    0.000049  -0.000035  -0.000000  -0.000007   0.000002   0.000002
    24  H    0.000001  -0.000011  -0.000000  -0.000000   0.000000   0.000000
    25  H   -0.000011  -0.000001  -0.000000  -0.000000   0.000000  -0.000000
    26  H   -0.000021   0.000005   0.000003   0.000000  -0.000000   0.000000
    27  H    0.000000  -0.000000   0.000000  -0.000000  -0.000000   0.000000
    28  H   -0.000001   0.000001  -0.000000   0.000000   0.000000  -0.000000
    29  H    0.000003  -0.000000   0.000000   0.000000   0.000000  -0.000002
    30  H   -0.000005  -0.000001   0.000000  -0.000000  -0.000000   0.000001
    31  H    0.000089  -0.000011  -0.000001  -0.000005   0.000000   0.000001
    32  H    0.000001  -0.000000   0.000000  -0.000000  -0.000000   0.000000
    33  H   -0.000034   0.000001  -0.000000   0.000001   0.000002  -0.000004
    34  H   -0.000000  -0.000000  -0.000000  -0.000000   0.000000   0.000000
    35  C    0.000001   0.000038   0.000017  -0.000000  -0.000000   0.000000
    36  H    0.000000  -0.000018   0.000004  -0.000000  -0.000000   0.000000
    37  H   -0.000000  -0.000001  -0.000001   0.000000   0.000000  -0.000000
    38  H    0.000000  -0.000020   0.000002   0.000000  -0.000000  -0.000000
               7          8          9         10         11         12
     1  C   -0.018943  -0.025666   0.001283   0.000570  -0.000053  -0.000011
     2  C    0.003015   0.028309  -0.013213  -0.010269  -0.000281   0.000106
     3  H    0.002221  -0.015249   0.000017   0.001353  -0.000147  -0.000009
     4  C    0.006849   0.000060   0.000268   0.000009   0.000001   0.000001
     5  H   -0.017129   0.002571  -0.000168  -0.000026   0.000004   0.000001
     6  H    0.002391  -0.000052  -0.000013  -0.000000  -0.000000  -0.000000
     7  H    0.062110  -0.001059  -0.000019   0.000005  -0.000001  -0.000000
     8  C   -0.001059   0.009036  -0.016788  -0.003874   0.001289  -0.000185
     9  O   -0.000019  -0.016788   0.183491   0.002869  -0.000176  -0.000570
    10  O    0.000005  -0.003874   0.002869   0.049472  -0.000947  -0.000126
    11  C   -0.000001   0.001289  -0.000176  -0.000947  -0.004921   0.000997
    12  H   -0.000000  -0.000185  -0.000570  -0.000126   0.000997   0.001869
    13  H    0.000000  -0.000142  -0.000574  -0.000178   0.000976   0.000202
    14  B   -0.001486  -0.000073   0.000152   0.000010   0.000009  -0.000012
    15  O    0.000005   0.000279   0.000011  -0.000001   0.000000   0.000000
    16  O    0.000055   0.000010  -0.000000  -0.000000   0.000000   0.000000
    17  C    0.000003   0.000014  -0.000003  -0.000000   0.000000   0.000000
    18  C    0.000000   0.000006   0.000001   0.000000   0.000000  -0.000000
    19  C    0.000000  -0.000000  -0.000002  -0.000000  -0.000000   0.000000
    20  C   -0.000000   0.000000  -0.000000   0.000000  -0.000000   0.000000
    21  C   -0.000001   0.000000  -0.000000  -0.000000   0.000000   0.000000
    22  C   -0.000000  -0.000000  -0.000000  -0.000000  -0.000000   0.000000
    23  H    0.000000  -0.000003   0.000013   0.000000   0.000000  -0.000000
    24  H    0.000000  -0.000006   0.000003   0.000000   0.000000  -0.000001
    25  H   -0.000000   0.000000   0.000000  -0.000000   0.000000   0.000000
    26  H    0.000000  -0.000001  -0.000000   0.000000  -0.000000  -0.000000
    27  H    0.000000  -0.000000   0.000000   0.000000  -0.000000  -0.000000
    28  H   -0.000000   0.000000  -0.000000  -0.000000  -0.000000   0.000000
    29  H    0.000000  -0.000000   0.000000  -0.000000   0.000000  -0.000000
    30  H    0.000000  -0.000000   0.000000   0.000000  -0.000000  -0.000000
    31  H   -0.000000   0.000000   0.000000   0.000000   0.000000  -0.000000
    32  H    0.000000  -0.000000   0.000000   0.000000  -0.000000  -0.000000
    33  H   -0.000000   0.000000  -0.000000  -0.000000   0.000000   0.000000
    34  H   -0.000000   0.000000   0.000000   0.000000   0.000000  -0.000000
    35  C    0.000000  -0.000033  -0.000023  -0.000412   0.000894   0.000003
    36  H    0.000000  -0.000009   0.000004   0.000101  -0.000013  -0.000089
    37  H   -0.000000  -0.000002  -0.000001   0.000003   0.000166   0.000003
    38  H   -0.000000  -0.000009   0.000004   0.000109  -0.000063   0.000031
              13         14         15         16         17         18
     1  C   -0.000014   0.076988  -0.004932  -0.005730  -0.000028   0.000295
     2  C    0.000140  -0.017419  -0.000467   0.000163   0.000112  -0.000138
     3  H   -0.000001  -0.001990   0.000096   0.000013   0.000003  -0.000009
     4  C   -0.000001  -0.010379   0.000015   0.000701   0.000019  -0.000083
     5  H    0.000001   0.000097   0.000021   0.000099  -0.000007   0.000008
     6  H    0.000000   0.002274  -0.000012  -0.000538  -0.000000   0.000090
     7  H    0.000000  -0.001486   0.000005   0.000055   0.000003   0.000000
     8  C   -0.000142  -0.000073   0.000279   0.000010   0.000014   0.000006
     9  O   -0.000574   0.000152   0.000011  -0.000000  -0.000003   0.000001
    10  O   -0.000178   0.000010  -0.000001  -0.000000  -0.000000   0.000000
    11  C    0.000976   0.000009   0.000000   0.000000   0.000000   0.000000
    12  H    0.000202  -0.000012   0.000000   0.000000   0.000000  -0.000000
    13  H    0.001930   0.000006   0.000000  -0.000000  -0.000000   0.000000
    14  B    0.000006   0.026737  -0.008252  -0.009528   0.000731  -0.000500
    15  O    0.000000  -0.008252   0.050394   0.001151   0.000385   0.000053
    16  O   -0.000000  -0.009528   0.001151   0.052591  -0.000046   0.000350
    17  C   -0.000000   0.000731   0.000385  -0.000046  -0.001222  -0.002468
    18  C    0.000000  -0.000500   0.000053   0.000350  -0.002468   0.002555
    19  C   -0.000000   0.000599  -0.000649  -0.000114   0.000803  -0.000906
    20  C   -0.000000  -0.000050  -0.000337  -0.000021  -0.000204   0.000664
    21  C    0.000000   0.000192  -0.000167  -0.000768  -0.000873   0.000645
    22  C   -0.000000   0.000291  -0.000024  -0.000316   0.000591  -0.000337
    23  H    0.000000  -0.000090   0.000094  -0.000019   0.000103   0.000103
    24  H    0.000000   0.000012  -0.000050   0.000002  -0.000032   0.000002
    25  H    0.000000  -0.000148   0.000054   0.000050  -0.000138   0.000263
    26  H   -0.000000  -0.000040   0.000216   0.000019   0.000117  -0.000172
    27  H    0.000000   0.000006   0.000017   0.000001   0.000164  -0.000127
    28  H   -0.000000   0.000007  -0.000025   0.000000   0.000045   0.000010
    29  H    0.000000   0.000018   0.000001  -0.000089  -0.000017  -0.000044
    30  H    0.000000  -0.000035   0.000047   0.000047   0.000239  -0.000089
    31  H    0.000000  -0.000048  -0.000084   0.000001   0.000003   0.000177
    32  H    0.000000   0.000015   0.000000  -0.000023   0.000005   0.000065
    33  H   -0.000000  -0.000142   0.000022   0.000241  -0.000145   0.000036
    34  H    0.000000  -0.000050   0.000002   0.000022  -0.000121   0.000108
    35  C   -0.000049  -0.000000  -0.000000  -0.000000  -0.000000  -0.000000
    36  H    0.000032   0.000000   0.000000  -0.000000  -0.000000   0.000000
    37  H    0.000009   0.000000   0.000000   0.000000   0.000000   0.000000
    38  H   -0.000097  -0.000000  -0.000000   0.000000   0.000000  -0.000000
              19         20         21         22         23         24
     1  C    0.000047   0.000006   0.000041   0.000002   0.000049   0.000001
     2  C    0.000011  -0.000001   0.000003   0.000002  -0.000035  -0.000011
     3  H    0.000001  -0.000001  -0.000000   0.000000  -0.000000  -0.000000
     4  C   -0.000000  -0.000000   0.000003   0.000002  -0.000007  -0.000000
     5  H    0.000000   0.000000   0.000001  -0.000000   0.000002   0.000000
     6  H   -0.000001  -0.000000  -0.000010  -0.000005   0.000002   0.000000
     7  H    0.000000  -0.000000  -0.000001  -0.000000   0.000000   0.000000
     8  C   -0.000000   0.000000   0.000000  -0.000000  -0.000003  -0.000006
     9  O   -0.000002  -0.000000  -0.000000  -0.000000   0.000013   0.000003
    10  O   -0.000000   0.000000  -0.000000  -0.000000   0.000000   0.000000
    11  C   -0.000000  -0.000000   0.000000  -0.000000   0.000000   0.000000
    12  H    0.000000   0.000000   0.000000   0.000000  -0.000000  -0.000001
    13  H   -0.000000  -0.000000   0.000000  -0.000000   0.000000   0.000000
    14  B    0.000599  -0.000050   0.000192   0.000291  -0.000090   0.000012
    15  O   -0.000649  -0.000337  -0.000167  -0.000024   0.000094  -0.000050
    16  O   -0.000114  -0.000021  -0.000768  -0.000316  -0.000019   0.000002
    17  C    0.000803  -0.000204  -0.000873   0.000591   0.000103  -0.000032
    18  C   -0.000906   0.000664   0.000645  -0.000337   0.000103   0.000002
    19  C    0.002774  -0.000379  -0.000122   0.000300  -0.000151   0.000128
    20  C   -0.000379   0.001514   0.000358  -0.000066  -0.000003  -0.000006
    21  C   -0.000122   0.000358   0.003162  -0.000290  -0.000002   0.000001
    22  C    0.000300  -0.000066  -0.000290   0.001560  -0.000021  -0.000004
    23  H   -0.000151  -0.000003  -0.000002  -0.000021  -0.000260   0.000035
    24  H    0.000128  -0.000006   0.000001  -0.000004   0.000035  -0.000082
    25  H   -0.000520   0.000074   0.000039  -0.000255   0.000111  -0.000050
    26  H    0.000056  -0.000360  -0.000119   0.000017  -0.000001   0.000001
    27  H    0.000127  -0.000289  -0.000109   0.000040  -0.000000   0.000007
    28  H   -0.000032   0.000031   0.000004  -0.000001   0.000001  -0.000011
    29  H    0.000000   0.000001   0.000185  -0.000002   0.000000  -0.000000
    30  H    0.000034  -0.000265  -0.000521   0.000009   0.000001  -0.000000
    31  H   -0.000006   0.000030  -0.000005  -0.000013  -0.000000   0.000000
    32  H    0.000003  -0.000002  -0.000035   0.000009   0.000001  -0.000000
    33  H   -0.000112   0.000021   0.000071  -0.000265  -0.000011   0.000000
    34  H   -0.000102   0.000041   0.000126  -0.000276   0.000006   0.000002
    35  C   -0.000000   0.000000  -0.000000   0.000000  -0.000000  -0.000000
    36  H   -0.000000   0.000000  -0.000000  -0.000000   0.000000   0.000000
    37  H    0.000000  -0.000000   0.000000  -0.000000   0.000000   0.000000
    38  H    0.000000  -0.000000   0.000000   0.000000  -0.000000  -0.000000
              25         26         27         28         29         30
     1  C   -0.000011  -0.000021   0.000000  -0.000001   0.000003  -0.000005
     2  C   -0.000001   0.000005  -0.000000   0.000001  -0.000000  -0.000001
     3  H   -0.000000   0.000003   0.000000  -0.000000   0.000000   0.000000
     4  C   -0.000000   0.000000  -0.000000   0.000000   0.000000  -0.000000
     5  H    0.000000  -0.000000  -0.000000   0.000000   0.000000  -0.000000
     6  H   -0.000000   0.000000   0.000000  -0.000000  -0.000002   0.000001
     7  H   -0.000000   0.000000   0.000000  -0.000000   0.000000   0.000000
     8  C    0.000000  -0.000001  -0.000000   0.000000  -0.000000  -0.000000
     9  O    0.000000  -0.000000   0.000000  -0.000000   0.000000   0.000000
    10  O   -0.000000   0.000000   0.000000  -0.000000  -0.000000   0.000000
    11  C    0.000000  -0.000000  -0.000000  -0.000000   0.000000  -0.000000
    12  H    0.000000  -0.000000  -0.000000   0.000000  -0.000000  -0.000000
    13  H    0.000000  -0.000000   0.000000  -0.000000   0.000000   0.000000
    14  B   -0.000148  -0.000040   0.000006   0.000007   0.000018  -0.000035
    15  O    0.000054   0.000216   0.000017  -0.000025   0.000001   0.000047
    16  O    0.000050   0.000019   0.000001   0.000000  -0.000089   0.000047
    17  C   -0.000138   0.000117   0.000164   0.000045  -0.000017   0.000239
    18  C    0.000263  -0.000172  -0.000127   0.000010  -0.000044  -0.000089
    19  C   -0.000520   0.000056   0.000127  -0.000032   0.000000   0.000034
    20  C    0.000074  -0.000360  -0.000289   0.000031   0.000001  -0.000265
    21  C    0.000039  -0.000119  -0.000109   0.000004   0.000185  -0.000521
    22  C   -0.000255   0.000017   0.000040  -0.000001  -0.000002   0.000009
    23  H    0.000111  -0.000001  -0.000000   0.000001   0.000000   0.000001
    24  H   -0.000050   0.000001   0.000007  -0.000011  -0.000000  -0.000000
    25  H    0.000858  -0.000013  -0.000073   0.000011  -0.000000  -0.000014
    26  H   -0.000013   0.000202   0.000141  -0.000021  -0.000000   0.000138
    27  H   -0.000073   0.000141   0.000020  -0.000012   0.000001   0.000118
    28  H    0.000011  -0.000021  -0.000012  -0.000093  -0.000000  -0.000004
    29  H   -0.000000  -0.000000   0.000001  -0.000000  -0.000064  -0.000081
    30  H   -0.000014   0.000138   0.000118  -0.000004  -0.000081   0.001073
    31  H    0.000001  -0.000023  -0.000006   0.000001   0.000030   0.000033
    32  H   -0.000004   0.000000   0.000002  -0.000000  -0.000012   0.000013
    33  H    0.000148  -0.000003  -0.000012   0.000001   0.000003  -0.000016
    34  H    0.000116  -0.000011  -0.000046   0.000001   0.000009  -0.000049
    35  C   -0.000000   0.000000   0.000000  -0.000000  -0.000000   0.000000
    36  H    0.000000  -0.000000   0.000000  -0.000000   0.000000   0.000000
    37  H    0.000000  -0.000000  -0.000000   0.000000   0.000000  -0.000000
    38  H   -0.000000   0.000000  -0.000000   0.000000  -0.000000  -0.000000
              31         32         33         34         35         36
     1  C    0.000089   0.000001  -0.000034  -0.000000   0.000001   0.000000
     2  C   -0.000011  -0.000000   0.000001  -0.000000   0.000038  -0.000018
     3  H   -0.000001   0.000000  -0.000000  -0.000000   0.000017   0.000004
     4  C   -0.000005  -0.000000   0.000001  -0.000000  -0.000000  -0.000000
     5  H    0.000000  -0.000000   0.000002   0.000000  -0.000000  -0.000000
     6  H    0.000001   0.000000  -0.000004   0.000000   0.000000   0.000000
     7  H   -0.000000   0.000000  -0.000000  -0.000000   0.000000   0.000000
     8  C    0.000000  -0.000000   0.000000   0.000000  -0.000033  -0.000009
     9  O    0.000000   0.000000  -0.000000   0.000000  -0.000023   0.000004
    10  O    0.000000   0.000000  -0.000000   0.000000  -0.000412   0.000101
    11  C    0.000000  -0.000000   0.000000   0.000000   0.000894  -0.000013
    12  H   -0.000000  -0.000000   0.000000  -0.000000   0.000003  -0.000089
    13  H    0.000000   0.000000  -0.000000   0.000000  -0.000049   0.000032
    14  B   -0.000048   0.000015  -0.000142  -0.000050  -0.000000   0.000000
    15  O   -0.000084   0.000000   0.000022   0.000002  -0.000000   0.000000
    16  O    0.000001  -0.000023   0.000241   0.000022  -0.000000  -0.000000
    17  C    0.000003   0.000005  -0.000145  -0.000121  -0.000000  -0.000000
    18  C    0.000177   0.000065   0.000036   0.000108  -0.000000   0.000000
    19  C   -0.000006   0.000003  -0.000112  -0.000102  -0.000000  -0.000000
    20  C    0.000030  -0.000002   0.000021   0.000041   0.000000   0.000000
    21  C   -0.000005  -0.000035   0.000071   0.000126  -0.000000  -0.000000
    22  C   -0.000013   0.000009  -0.000265  -0.000276   0.000000  -0.000000
    23  H   -0.000000   0.000001  -0.000011   0.000006  -0.000000   0.000000
    24  H    0.000000  -0.000000   0.000000   0.000002  -0.000000   0.000000
    25  H    0.000001  -0.000004   0.000148   0.000116  -0.000000   0.000000
    26  H   -0.000023   0.000000  -0.000003  -0.000011   0.000000  -0.000000
    27  H   -0.000006   0.000002  -0.000012  -0.000046   0.000000   0.000000
    28  H    0.000001  -0.000000   0.000001   0.000001  -0.000000  -0.000000
    29  H    0.000030  -0.000012   0.000003   0.000009  -0.000000   0.000000
    30  H    0.000033   0.000013  -0.000016  -0.000049   0.000000   0.000000
    31  H   -0.000302   0.000001   0.000000   0.000003  -0.000000   0.000000
    32  H    0.000001  -0.000105  -0.000030   0.000009   0.000000   0.000000
    33  H    0.000000  -0.000030   0.000284   0.000092  -0.000000  -0.000000
    34  H    0.000003   0.000009   0.000092   0.000238  -0.000000   0.000000
    35  C   -0.000000   0.000000  -0.000000  -0.000000   0.000428  -0.000213
    36  H    0.000000   0.000000  -0.000000   0.000000  -0.000213   0.000515
    37  H    0.000000  -0.000000   0.000000   0.000000  -0.000116   0.000024
    38  H   -0.000000  -0.000000   0.000000  -0.000000  -0.000173  -0.000261
              37         38
     1  C   -0.000000   0.000000
     2  C   -0.000001  -0.000020
     3  H   -0.000001   0.000002
     4  C    0.000000   0.000000
     5  H    0.000000  -0.000000
     6  H   -0.000000  -0.000000
     7  H   -0.000000  -0.000000
     8  C   -0.000002  -0.000009
     9  O   -0.000001   0.000004
    10  O    0.000003   0.000109
    11  C    0.000166  -0.000063
    12  H    0.000003   0.000031
    13  H    0.000009  -0.000097
    14  B    0.000000  -0.000000
    15  O    0.000000  -0.000000
    16  O    0.000000   0.000000
    17  C    0.000000   0.000000
    18  C    0.000000  -0.000000
    19  C    0.000000   0.000000
    20  C   -0.000000  -0.000000
    21  C    0.000000   0.000000
    22  C   -0.000000   0.000000
    23  H    0.000000  -0.000000
    24  H    0.000000  -0.000000
    25  H    0.000000  -0.000000
    26  H   -0.000000   0.000000
    27  H   -0.000000  -0.000000
    28  H    0.000000   0.000000
    29  H    0.000000  -0.000000
    30  H   -0.000000  -0.000000
    31  H    0.000000  -0.000000
    32  H   -0.000000  -0.000000
    33  H    0.000000   0.000000
    34  H    0.000000  -0.000000
    35  C   -0.000116  -0.000173
    36  H    0.000024  -0.000261
    37  H   -0.000138   0.000002
    38  H    0.000002   0.000561
 Mulliken charges and spin densities:
               1          2
     1  C   -0.104135   0.816891
     2  C   -0.037404   0.805214
     3  H    0.032967   0.000296
     4  C    0.014531  -0.025797
     5  H    0.044591   0.044102
     6  H    0.029144   0.005971
     7  H    0.040680   0.038016
     8  C    0.247198  -0.021577
     9  O   -0.303371   0.156566
    10  O   -0.281347   0.038667
    11  C    0.110592  -0.002266
    12  H    0.030267   0.002212
    13  H    0.030016   0.002240
    14  B    0.124950   0.057902
    15  O   -0.227468   0.037861
    16  O   -0.230266   0.038320
    17  C   -0.084849  -0.001968
    18  C   -0.086783   0.000558
    19  C    0.066228   0.001788
    20  C    0.069496   0.000757
    21  C    0.065317   0.001808
    22  C    0.069132   0.000947
    23  H    0.027347  -0.000086
    24  H    0.022782  -0.000058
    25  H    0.025653   0.000497
    26  H    0.022420   0.000127
    27  H    0.031758  -0.000030
    28  H    0.022232  -0.000090
    29  H    0.022663  -0.000062
    30  H    0.026250   0.000672
    31  H    0.026913  -0.000136
    32  H    0.022148  -0.000087
    33  H    0.022838   0.000150
    34  H    0.031992   0.000120
    35  C   -0.023590   0.000360
    36  H    0.033239   0.000078
    37  H    0.032850  -0.000051
    38  H    0.033017   0.000087
 Sum of Mulliken charges =  -0.00000   2.00000
 Mulliken charges and spin densities with hydrogens summed into heavy atoms:
               1          2
     1  C   -0.104135   0.816891
     2  C   -0.004437   0.805510
     4  C    0.128946   0.062293
     8  C    0.247198  -0.021577
     9  O   -0.303371   0.156566
    10  O   -0.281347   0.038667
    11  C    0.170875   0.002185
    14  B    0.124950   0.057902
    15  O   -0.227468   0.037861
    16  O   -0.230266   0.038320
    17  C   -0.084849  -0.001968
    18  C   -0.086783   0.000558
    19  C    0.142011   0.002141
    20  C    0.145906   0.000764
    21  C    0.141143   0.002282
    22  C    0.146110   0.001129
    35  C    0.075516   0.000474
 Electronic spatial extent (au):  <R**2>=          10062.9071
 Charge=              0.0000 electrons
 Dipole moment (field-independent basis, Debye):
    X=             -1.1862    Y=             -0.9014    Z=             -1.7713  Tot=              2.3145
 Quadrupole moment (field-independent basis, Debye-Ang):
   XX=            -79.2307   YY=            -95.9010   ZZ=           -106.5655
   XY=              7.6520   XZ=              3.3609   YZ=             -5.6978
 Traceless Quadrupole moment (field-independent basis, Debye-Ang):
   XX=             14.6684   YY=             -2.0019   ZZ=            -12.6664
   XY=              7.6520   XZ=              3.3609   YZ=             -5.6978
 Octapole moment (field-independent basis, Debye-Ang**2):
  XXX=            655.3142  YYY=           -358.5979  ZZZ=            -80.2624  XYY=            297.1400
  XXY=           -156.8694  XXZ=            -26.3810  XZZ=            285.0585  YZZ=           -156.0630
  YYZ=            -53.1883  XYZ=              7.6358
 Hexadecapole moment (field-independent basis, Debye-Ang**3):
 XXXX=          -6989.8180 YYYY=          -3817.3335 ZZZZ=           -842.3491 XXXY=             74.1333
 XXXZ=            282.4204 YYYX=            146.1613 YYYZ=             60.8694 ZZZX=            316.9520
 ZZZY=            184.1208 XXYY=          -2084.9309 XXZZ=          -1506.5954 YYZZ=           -916.1820
 XXYZ=             59.9543 YYXZ=            139.2076 ZZXY=             27.7943
 N-N= 1.259610182284D+03 E-N=-4.375906750530D+03  KE= 7.903436518095D+02

 Atomic contributions to Alpha molecular orbitals:
 Alpha occ 47 OE=-0.401 is C35-p=0.1382 C11-p=0.1117
 Alpha occ 48 OE=-0.398 is C21-p=0.1771 C19-p=0.1219 H29-s=0.1149
 Alpha occ 49 OE=-0.397 is C19-p=0.1070
 Alpha occ 50 OE=-0.392 is C35-p=0.2644 H37-s=0.1996
 Alpha occ 51 OE=-0.385 is C35-p=0.1039
 Alpha occ 52 OE=-0.375 is C20-p=0.1692 C22-p=0.1406
 Alpha occ 53 OE=-0.370 is C19-p=0.1568 C21-p=0.1548 H24-s=0.1177 H29-s=0.1163
 Alpha occ 54 OE=-0.366 is C21-p=0.1245 C19-p=0.1236
 Alpha occ 55 OE=-0.362 is C35-p=0.2080 H36-s=0.1273 H38-s=0.1043 O9-p=0.1041
 Alpha occ 56 OE=-0.354 is C1-p=0.0559
 Alpha occ 57 OE=-0.352 is O10-p=0.1537 C11-p=0.1059
 Alpha occ 58 OE=-0.349 is O10-p=0.1032
 Alpha occ 59 OE=-0.341 is O16-p=0.1767 O15-p=0.1696 B14-p=0.1439
 Alpha occ 60 OE=-0.336 is O15-p=0.3660 O16-p=0.3524
 Alpha occ 61 OE=-0.313 is C18-p=0.1748 C17-p=0.1748 O16-p=0.1017
 Alpha occ 62 OE=-0.307 is O10-p=0.4433 O9-p=0.2731
 Alpha occ 63 OE=-0.281 is O9-p=0.7543 O10-p=0.1027
 Alpha occ 64 OE=-0.278 is O15-p=0.2925 O16-p=0.2867
 Alpha occ 65 OE=-0.233 is C2-p=0.6324 O9-p=0.1068
 Alpha occ 66 OE=-0.214 is C1-p=0.6308
 Alpha vir 67 OE=0.039 is C8-p=0.5170 O9-p=0.1687 C2-p=0.1050
 Alpha vir 68 OE=0.050 is H27-s=0.1535 H34-s=0.1531 H25-s=0.1019 H30-s=0.1004
 Alpha vir 69 OE=0.068 is B14-p=0.3075 H13-s=0.1334 H12-s=0.1184 H37-s=0.1172
 Alpha vir 70 OE=0.069 is B14-p=0.2248 H3-s=0.1645 H37-s=0.1054 H12-s=0.1046 H13-s=0.1041
 Alpha vir 71 OE=0.081 is H5-s=0.2986 H7-s=0.2493 H6-s=0.1433 C4-s=-0.1214
 Alpha vir 72 OE=0.088 is H34-s=0.1080 H27-s=0.1047
 Alpha vir 73 OE=0.095 is H29-s=0.2886 H32-s=0.2107 H24-s=0.2066 H28-s=0.1200
 Alpha vir 74 OE=0.102 is H26-s=0.2739 H31-s=0.2424 H32-s=0.1760
 Alpha vir 75 OE=0.102 is H23-s=0.2494 H33-s=0.2080 H28-s=0.2076
 Alpha vir 76 OE=0.110 is H38-s=0.1887 H36-s=0.1504 H12-s=0.1485 H13-s=0.1042
 Alpha vir 77 OE=0.113 is H3-s=0.4543 H13-s=0.1206 H12-s=0.1074
 Alpha vir 78 OE=0.117 is H13-s=0.2781 H36-s=0.2770 H12-s=0.1849 H38-s=0.1846
 Alpha vir 79 OE=0.121 is H34-s=0.1386 H29-s=0.1114
 Alpha vir 80 OE=0.125 is H30-s=0.2396 H25-s=0.2335
 Alpha vir 81 OE=0.128 is H37-s=0.4222 C11-p=0.1024
 Alpha vir 82 OE=0.134 is H28-s=0.1016
 Alpha vir 83 OE=0.138 is H7-s=0.3910 H5-s=0.3509
 Alpha vir 84 OE=0.143 is H6-s=0.3393 H26-s=0.1347 H37-s=0.1041
 Alpha vir 85 OE=0.147 is H37-s=0.1899 C11-p=0.1805 H23-s=0.1018
 Alpha vir 86 OE=0.152 is C11-p=0.1573 H33-s=0.1062

 Atomic contributions to Beta  molecular orbitals:
 Beta  occ 45 OE=-0.403 is C22-p=0.1908 C20-p=0.1582 H32-s=0.1259 H28-s=0.1096
 Beta  occ 46 OE=-0.401 is C20-p=0.1018
 Beta  occ 47 OE=-0.397 is C20-p=0.1365 C22-p=0.1054
 Beta  occ 48 OE=-0.396 is C4-p=0.1663 C19-p=0.1042
 Beta  occ 49 OE=-0.395 is C35-p=0.1885 C4-p=0.1326
 Beta  occ 50 OE=-0.391 is C35-p=0.2232 H37-s=0.1637 C4-p=0.1002
 Beta  occ 51 OE=-0.381 is C22-p=0.1355
 Beta  occ 52 OE=-0.373 is C20-p=0.1211
 Beta  occ 53 OE=-0.370 is C21-p=0.1567 C19-p=0.1561 H24-s=0.1180 H29-s=0.1168
 Beta  occ 54 OE=-0.365 is C19-p=0.1179 C21-p=0.1047
 Beta  occ 55 OE=-0.356 is C35-p=0.1875 H36-s=0.1284 C11-p=0.1263 O9-p=0.1152
 Beta  occ 56 OE=-0.352 is C20-p=0.0943
 Beta  occ 57 OE=-0.350 is O10-p=0.2781 C11-p=0.1683 C35-p=0.1242
 Beta  occ 58 OE=-0.340 is O16-p=0.1421 O15-p=0.1387 C1-p=0.1374 B14-p=0.1045
 Beta  occ 59 OE=-0.335 is O16-p=0.2038 O15-p=0.1868 B14-p=0.1374
 Beta  occ 60 OE=-0.333 is O15-p=0.2922 O16-p=0.2685
 Beta  occ 61 OE=-0.312 is C18-p=0.1771 C17-p=0.1766 O16-p=0.1011
 Beta  occ 62 OE=-0.294 is O10-p=0.4722 O9-p=0.3024
 Beta  occ 63 OE=-0.275 is O9-p=0.7508
 Beta  occ 64 OE=-0.273 is O15-p=0.3094 O16-p=0.3021
 Beta  vir 65 OE=-0.111 is C2-p=0.6035 O9-p=0.1478
 Beta  vir 66 OE=-0.091 is C1-p=0.5893 B14-p=0.1358
 Beta  vir 67 OE=0.049 is H34-s=0.1560 H27-s=0.1491 H30-s=0.1035
 Beta  vir 68 OE=0.062 is C8-p=0.3423 C2-p=0.1424 O9-p=0.1317
 Beta  vir 69 OE=0.069 is H13-s=0.2564 H37-s=0.2390 H12-s=0.2182 H36-s=0.1813 H38-s=0.1804 C35-s=-0.1312
 Beta  vir 70 OE=0.082 is H3-s=0.2533 B14-p=0.2487
 Beta  vir 71 OE=0.088 is H5-s=0.2688 B14-p=0.1242 H7-s=0.1114
 Beta  vir 72 OE=0.089 is H27-s=0.1212 H34-s=0.1178
 Beta  vir 73 OE=0.097 is H29-s=0.2331 H32-s=0.2080 H24-s=0.1792 H28-s=0.1444 H3-s=0.1010
 Beta  vir 74 OE=0.102 is H26-s=0.2525 H31-s=0.1533 H33-s=0.1343 H32-s=0.1317 H30-s=0.1300 H25-s=0.1066
 Beta  vir 75 OE=0.103 is H23-s=0.1916 H28-s=0.1719 H33-s=0.1385
 Beta  vir 76 OE=0.111 is H38-s=0.2760 H12-s=0.2748 H36-s=0.1917 H13-s=0.1614
 Beta  vir 77 OE=0.118 is H13-s=0.3108 H36-s=0.3091 H38-s=0.1670 H12-s=0.1460
 Beta  vir 78 OE=0.122 is H3-s=0.2430 B14-p=0.1165
 Beta  vir 79 OE=0.122 is H34-s=0.1268 H24-s=0.1082 H6-s=0.1006 H29-s=0.1005
 Beta  vir 80 OE=0.126 is H3-s=0.2255 H30-s=0.2002 H25-s=0.1969
 Beta  vir 81 OE=0.130 is H37-s=0.4605
 Beta  vir 82 OE=0.135 is H28-s=0.1090
 Beta  vir 83 OE=0.143 is H7-s=0.3091 H5-s=0.2307 H6-s=0.1505
 Beta  vir 84 OE=0.145 is H6-s=0.2686 H26-s=0.1592 H5-s=0.1273 H31-s=0.1022
 
                          Isotropic Fermi Contact Couplings
        Atom                 a.u.       MegaHertz       Gauss      10(-4) cm-1
     1  C(13)              0.07813      43.91383      15.66955      14.64808
     2  C(13)              0.07588      42.65309      15.21968      14.22754
     3  H(1)               0.00367       8.20737       2.92859       2.73768
     4  C(13)              0.01651       9.28071       3.31159       3.09571
     5  H(1)               0.02007      44.84839      16.00302      14.95981
     6  H(1)               0.00155       3.45908       1.23429       1.15383
     7  H(1)               0.01663      37.16808      13.26250      12.39794
     8  C(13)              0.00923       5.18738       1.85099       1.73032
     9  O(17)              0.03299      -9.99929      -3.56799      -3.33540
    10  O(17)              0.00663      -2.00873      -0.71676      -0.67004
    11  C(13)             -0.00131      -0.73870      -0.26359      -0.24640
    12  H(1)               0.00151       3.37465       1.20416       1.12566
    13  H(1)               0.00151       3.38160       1.20664       1.12798
    14  B(11)              0.01489      10.67994       3.81087       3.56244
    15  O(17)              0.00747      -2.26459      -0.80806      -0.75539
    16  O(17)              0.01610      -4.87927      -1.74104      -1.62755
    17  C(13)             -0.00156      -0.87736      -0.31307      -0.29266
    18  C(13)              0.00005       0.02979       0.01063       0.00994
    19  C(13)              0.00110       0.61831       0.22063       0.20625
    20  C(13)              0.00073       0.40828       0.14569       0.13619
    21  C(13)              0.00113       0.63597       0.22693       0.21214
    22  C(13)              0.00089       0.49967       0.17829       0.16667
    23  H(1)              -0.00003      -0.06390      -0.02280      -0.02132
    24  H(1)               0.00001       0.02107       0.00752       0.00703
    25  H(1)               0.00016       0.35492       0.12664       0.11839
    26  H(1)              -0.00002      -0.05494      -0.01961      -0.01833
    27  H(1)              -0.00004      -0.08664      -0.03091      -0.02890
    28  H(1)              -0.00003      -0.05665      -0.02021      -0.01890
    29  H(1)               0.00001       0.02947       0.01052       0.00983
    30  H(1)               0.00023       0.51756       0.18468       0.17264
    31  H(1)              -0.00002      -0.03589      -0.01281      -0.01197
    32  H(1)              -0.00003      -0.06268      -0.02237      -0.02091
    33  H(1)              -0.00001      -0.02851      -0.01017      -0.00951
    34  H(1)               0.00001       0.03150       0.01124       0.01051
    35  C(13)              0.00016       0.09245       0.03299       0.03084
    36  H(1)              -0.00001      -0.01620      -0.00578      -0.00540
    37  H(1)              -0.00003      -0.05835      -0.02082      -0.01946
    38  H(1)              -0.00000      -0.00676      -0.00241      -0.00225
 --------------------------------------------------------
       Center         ----  Spin Dipole Couplings  ----
                      3XX-RR        3YY-RR        3ZZ-RR
 --------------------------------------------------------
     1   Atom       -0.378741      0.239056      0.139685
     2   Atom        0.550104     -0.429836     -0.120268
     3   Atom        0.004558     -0.052875      0.048317
     4   Atom       -0.027784     -0.001515      0.029299
     5   Atom       -0.006616     -0.008915      0.015531
     6   Atom       -0.009415      0.004084      0.005331
     7   Atom        0.007334      0.000798     -0.008132
     8   Atom       -0.042388      0.063436     -0.021048
     9   Atom        0.342294     -0.288140     -0.054154
    10   Atom        0.093044     -0.068232     -0.024812
    11   Atom       -0.001997      0.006260     -0.004263
    12   Atom       -0.003390      0.006739     -0.003349
    13   Atom       -0.002365      0.005136     -0.002771
    14   Atom        0.039461     -0.017142     -0.022319
    15   Atom       -0.068690      0.057741      0.010948
    16   Atom       -0.050880      0.051468     -0.000588
    17   Atom        0.007313     -0.004397     -0.002917
    18   Atom        0.007403     -0.003513     -0.003890
    19   Atom        0.004859     -0.002224     -0.002634
    20   Atom        0.003799     -0.002663     -0.001136
    21   Atom        0.000628      0.001052     -0.001680
    22   Atom        0.003743     -0.001989     -0.001754
    23   Atom        0.005505     -0.002759     -0.002746
    24   Atom        0.004079     -0.001099     -0.002980
    25   Atom        0.003322     -0.001561     -0.001761
    26   Atom        0.002142     -0.001846     -0.000296
    27   Atom        0.002390     -0.001321     -0.001069
    28   Atom        0.002626     -0.001884     -0.000742
    29   Atom        0.000453      0.001931     -0.002384
    30   Atom        0.001654     -0.000246     -0.001407
    31   Atom        0.001120      0.000729     -0.001849
    32   Atom        0.001559     -0.000483     -0.001076
    33   Atom        0.002849     -0.001924     -0.000925
    34   Atom        0.002286     -0.001045     -0.001240
    35   Atom       -0.001533      0.002874     -0.001341
    36   Atom       -0.001749      0.001992     -0.000243
    37   Atom       -0.000983      0.002047     -0.001064
    38   Atom       -0.000142      0.001488     -0.001345
 --------------------------------------------------------
                        XY            XZ            YZ
 --------------------------------------------------------
     1   Atom       -0.233399     -0.215486      0.662149
     2   Atom       -0.162291      0.581791     -0.106267
     3   Atom       -0.016611     -0.032675      0.017503
     4   Atom       -0.027784      0.030216     -0.035160
     5   Atom        0.000804      0.015585     -0.003368
     6   Atom        0.000411      0.000857     -0.016763
     7   Atom       -0.015511      0.007106     -0.010386
     8   Atom        0.003443     -0.014748      0.028475
     9   Atom       -0.103733      0.401939     -0.066430
    10   Atom       -0.022982      0.115716     -0.029668
    11   Atom        0.002523      0.001090     -0.002265
    12   Atom       -0.000471     -0.000633     -0.001800
    13   Atom        0.004088      0.000139      0.001024
    14   Atom        0.014922      0.002983      0.027891
    15   Atom       -0.013109     -0.007836      0.117471
    16   Atom       -0.033338     -0.044839      0.112253
    17   Atom        0.000548      0.001187     -0.000276
    18   Atom        0.005688      0.001166      0.000150
    19   Atom       -0.002843     -0.001902      0.001619
    20   Atom        0.000529      0.003154      0.000057
    21   Atom        0.004148      0.001504      0.002841
    22   Atom        0.002232     -0.002446     -0.000845
    23   Atom       -0.002385     -0.002943      0.000920
    24   Atom       -0.002866      0.000356     -0.000195
    25   Atom       -0.000655     -0.000493      0.000100
    26   Atom        0.001402      0.002901      0.000892
    27   Atom        0.000518      0.001145      0.000106
    28   Atom       -0.000521      0.002458     -0.000389
    29   Atom        0.003246      0.000155      0.000150
    30   Atom        0.002054      0.000845      0.000580
    31   Atom        0.004346      0.002279      0.002429
    32   Atom        0.001998     -0.001467     -0.000948
    33   Atom        0.000791     -0.002448     -0.000273
    34   Atom        0.001030     -0.000555     -0.000194
    35   Atom        0.002253     -0.001140     -0.002200
    36   Atom        0.001173     -0.000785     -0.002609
    37   Atom        0.001154     -0.000363     -0.000957
    38   Atom        0.002543     -0.001197     -0.001529
 --------------------------------------------------------


 ---------------------------------------------------------------------------------
              Anisotropic Spin Dipole Couplings in Principal Axis System
 ---------------------------------------------------------------------------------

       Atom             a.u.   MegaHertz   Gauss  10(-4) cm-1        Axes

              Baa    -0.4747   -63.696   -22.728   -21.247 -0.0388 -0.6864  0.7262
     1 C(13)  Bbb    -0.4558   -61.162   -21.824   -20.402  0.9710  0.1456  0.1895
              Bcc     0.9305   124.859    44.553    41.648 -0.2358  0.7125  0.6609
 
              Baa    -0.4678   -62.779   -22.401   -20.941 -0.2544  0.7197  0.6460
     2 C(13)  Bbb    -0.4464   -59.907   -21.376   -19.983  0.4493  0.6795 -0.5801
              Bcc     0.9143   122.686    43.777    40.924  0.8564 -0.1426  0.4963
 
              Baa    -0.0582   -31.026   -11.071   -10.349  0.2077  0.9734 -0.0963
     3 H(1)   Bbb    -0.0120    -6.417    -2.290    -2.140  0.8549 -0.1328  0.5015
              Bcc     0.0702    37.443    13.361    12.490 -0.4753  0.1865  0.8598
 
              Baa    -0.0465    -6.233    -2.224    -2.079  0.8902  0.4280 -0.1564
     4 C(13)  Bbb    -0.0228    -3.061    -1.092    -1.021 -0.2412  0.7338  0.6350
              Bcc     0.0693     9.294     3.316     3.100  0.3866 -0.5276  0.7565
 
              Baa    -0.0155    -8.250    -2.944    -2.752  0.8270 -0.3341 -0.4522
     5 H(1)   Bbb    -0.0083    -4.442    -1.585    -1.482  0.3330  0.9391 -0.0850
              Bcc     0.0238    12.692     4.529     4.234  0.4530 -0.0803  0.8879
 
              Baa    -0.0123    -6.583    -2.349    -2.196 -0.2917  0.6868  0.6657
     6 H(1)   Bbb    -0.0091    -4.880    -1.741    -1.628  0.9564  0.2173  0.1950
              Bcc     0.0215    11.464     4.091     3.824  0.0107 -0.6936  0.7203
 
              Baa    -0.0156    -8.325    -2.970    -2.777  0.2324  0.6677  0.7072
     7 H(1)   Bbb    -0.0088    -4.712    -1.681    -1.572  0.6701  0.4171 -0.6140
              Bcc     0.0244    13.037     4.652     4.349  0.7050 -0.6166  0.3505
 
              Baa    -0.0525    -7.039    -2.512    -2.348  0.8325 -0.1554  0.5318
     8 C(13)  Bbb    -0.0197    -2.643    -0.943    -0.881 -0.5540 -0.2492  0.7944
              Bcc     0.0721     9.681     3.455     3.229 -0.0091  0.9559  0.2935
 
              Baa    -0.3063    22.161     7.907     7.392 -0.2237  0.7936  0.5658
     9 O(17)  Bbb    -0.3029    21.916     7.820     7.310 -0.4923 -0.5930  0.6372
              Bcc     0.6091   -44.077   -15.728   -14.702  0.8412 -0.1360  0.5234
 
              Baa    -0.1018     7.369     2.629     2.458 -0.4274  0.4162  0.8025
    10 O(17)  Bbb    -0.0673     4.873     1.739     1.625  0.3355  0.8974 -0.2867
              Bcc     0.1692   -12.241    -4.368    -4.083  0.8395 -0.1467  0.5232
 
              Baa    -0.0055    -0.742    -0.265    -0.247 -0.4499  0.2604  0.8543
    11 C(13)  Bbb    -0.0018    -0.236    -0.084    -0.079  0.8601 -0.1314  0.4930
              Bcc     0.0073     0.978     0.349     0.326  0.2406  0.9565 -0.1649
 
              Baa    -0.0042    -2.266    -0.808    -0.756  0.6397  0.1509  0.7536
    12 H(1)   Bbb    -0.0028    -1.503    -0.536    -0.501  0.7679 -0.0819 -0.6354
              Bcc     0.0071     3.768     1.345     1.257 -0.0342  0.9851 -0.1683
 
              Baa    -0.0042    -2.253    -0.804    -0.751  0.8885 -0.4106  0.2051
    13 H(1)   Bbb    -0.0028    -1.501    -0.535    -0.501 -0.2284 -0.0080  0.9735
              Bcc     0.0070     3.753     1.339     1.252  0.3981  0.9118  0.1009
 
              Baa    -0.0485    -8.298    -2.961    -2.768  0.0920 -0.6863  0.7215
    14 B(11)  Bbb     0.0037     0.631     0.225     0.210 -0.3321  0.6620  0.6719
              Bcc     0.0448     7.668     2.736     2.558  0.9387  0.3014  0.1670
 
              Baa    -0.0858     6.205     2.214     2.070 -0.1388 -0.6349  0.7600
    15 O(17)  Bbb    -0.0694     5.021     1.792     1.675  0.9880 -0.0366  0.1498
              Bcc     0.1551   -11.226    -4.006    -3.745 -0.0673  0.7717  0.6324
 
              Baa    -0.0961     6.951     2.480     2.319  0.3987 -0.4965  0.7710
    16 O(17)  Bbb    -0.0588     4.257     1.519     1.420  0.8810  0.4410 -0.1716
              Bcc     0.1549   -11.208    -3.999    -3.739 -0.2548  0.7477  0.6133
 
              Baa    -0.0045    -0.603    -0.215    -0.201 -0.0673  0.9731  0.2204
    17 C(13)  Bbb    -0.0030    -0.399    -0.142    -0.133 -0.0997 -0.2264  0.9689
              Bcc     0.0075     1.003     0.358     0.334  0.9927  0.0432  0.1123
 
              Baa    -0.0060    -0.804    -0.287    -0.268 -0.3976  0.9041  0.1565
    18 C(13)  Bbb    -0.0039    -0.528    -0.188    -0.176 -0.0129 -0.1760  0.9843
              Bcc     0.0099     1.331     0.475     0.444  0.9175  0.3894  0.0816
 
              Baa    -0.0041    -0.550    -0.196    -0.183  0.0820  0.7198 -0.6893
    19 C(13)  Bbb    -0.0024    -0.317    -0.113    -0.106  0.4167  0.6035  0.6798
              Bcc     0.0065     0.867     0.309     0.289  0.9054 -0.3430 -0.2504
 
              Baa    -0.0029    -0.384    -0.137    -0.128 -0.3401  0.7271  0.5965
    20 C(13)  Bbb    -0.0025    -0.336    -0.120    -0.112  0.2798  0.6838 -0.6739
              Bcc     0.0054     0.720     0.257     0.240  0.8978  0.0623  0.4360
 
              Baa    -0.0039    -0.529    -0.189    -0.177 -0.4371  0.6906 -0.5762
    21 C(13)  Bbb    -0.0023    -0.305    -0.109    -0.102 -0.6555  0.1941  0.7298
              Bcc     0.0062     0.834     0.298     0.278  0.6159  0.6967  0.3679
 
              Baa    -0.0028    -0.370    -0.132    -0.123 -0.3032  0.9509  0.0623
    22 C(13)  Bbb    -0.0027    -0.360    -0.129    -0.120  0.3409  0.0472  0.9389
              Bcc     0.0054     0.730     0.260     0.244  0.8899  0.3059 -0.3385
 
              Baa    -0.0038    -2.001    -0.714    -0.668  0.1871 -0.3874  0.9027
    23 H(1)   Bbb    -0.0034    -1.791    -0.639    -0.597  0.3417  0.8872  0.3099
              Bcc     0.0071     3.792     1.353     1.265  0.9210 -0.2505 -0.2984
 
              Baa    -0.0030    -1.601    -0.571    -0.534 -0.0228  0.0676  0.9975
    24 H(1)   Bbb    -0.0024    -1.265    -0.451    -0.422  0.4080  0.9115 -0.0524
              Bcc     0.0054     2.866     1.023     0.956  0.9127 -0.4058  0.0484
 
              Baa    -0.0018    -0.969    -0.346    -0.323  0.0666 -0.2110  0.9752
    25 H(1)   Bbb    -0.0016    -0.875    -0.312    -0.292  0.1477  0.9687  0.1995
              Bcc     0.0035     1.844     0.658     0.615  0.9868 -0.1308 -0.0957
 
              Baa    -0.0023    -1.224    -0.437    -0.408 -0.4182  0.8831  0.2128
    26 H(1)   Bbb    -0.0022    -1.179    -0.421    -0.393 -0.4181 -0.3951  0.8180
              Bcc     0.0045     2.403     0.858     0.802  0.8064  0.2531  0.5344
 
              Baa    -0.0014    -0.773    -0.276    -0.258 -0.3016  0.6032  0.7384
    27 H(1)   Bbb    -0.0014    -0.721    -0.257    -0.241  0.0782  0.7875 -0.6114
              Bcc     0.0028     1.495     0.533     0.499  0.9502  0.1267  0.2847
 
              Baa    -0.0021    -1.123    -0.401    -0.375 -0.3358  0.5522  0.7631
    28 H(1)   Bbb    -0.0019    -1.007    -0.359    -0.336  0.3398  0.8266 -0.4487
              Bcc     0.0040     2.130     0.760     0.710  0.8785 -0.1086  0.4652
 
              Baa    -0.0024    -1.277    -0.456    -0.426 -0.1030  0.0428  0.9938
    29 H(1)   Bbb    -0.0021    -1.139    -0.406    -0.380  0.7750 -0.6228  0.1071
              Bcc     0.0045     2.416     0.862     0.806  0.6235  0.7812  0.0310
 
              Baa    -0.0016    -0.879    -0.314    -0.293  0.0183 -0.4055  0.9139
    30 H(1)   Bbb    -0.0015    -0.826    -0.295    -0.275 -0.5698  0.7469  0.3428
              Bcc     0.0032     1.705     0.608     0.569  0.8216  0.5271  0.2174
 
              Baa    -0.0035    -1.872    -0.668    -0.624 -0.5109  0.7573 -0.4068
    31 H(1)   Bbb    -0.0031    -1.643    -0.586    -0.548 -0.5413  0.0842  0.8366
              Bcc     0.0066     3.514     1.254     1.172  0.6678  0.6476  0.3669
 
              Baa    -0.0018    -0.946    -0.337    -0.315 -0.0084  0.6007  0.7994
    32 H(1)   Bbb    -0.0017    -0.897    -0.320    -0.299 -0.6074  0.6320 -0.4813
              Bcc     0.0035     1.843     0.658     0.615  0.7944  0.4896 -0.3596
 
              Baa    -0.0022    -1.171    -0.418    -0.391  0.4347 -0.5388  0.7216
    33 H(1)   Bbb    -0.0020    -1.051    -0.375    -0.351  0.1371  0.8315  0.5383
              Bcc     0.0042     2.223     0.793     0.741  0.8901  0.1351 -0.4353
 
              Baa    -0.0014    -0.730    -0.260    -0.243 -0.1130  0.7509  0.6506
    34 H(1)   Bbb    -0.0013    -0.693    -0.247    -0.231  0.2882 -0.6019  0.7447
              Bcc     0.0027     1.423     0.508     0.475  0.9509  0.2717 -0.1484
 
              Baa    -0.0026    -0.350    -0.125    -0.117  0.8425 -0.1373  0.5210
    35 C(13)  Bbb    -0.0022    -0.296    -0.106    -0.099 -0.3924  0.5063  0.7679
              Bcc     0.0048     0.646     0.231     0.216  0.3692  0.8513 -0.3727
 
              Baa    -0.0021    -1.117    -0.398    -0.372  0.9691 -0.1567  0.1903
    36 H(1)   Bbb    -0.0020    -1.047    -0.374    -0.349 -0.0705  0.5637  0.8230
              Bcc     0.0041     2.164     0.772     0.722  0.2362  0.8110 -0.5353
 
              Baa    -0.0014    -0.745    -0.266    -0.249  0.8356 -0.1318  0.5333
    37 H(1)   Bbb    -0.0013    -0.703    -0.251    -0.234 -0.4529  0.3842  0.8045
              Bcc     0.0027     1.448     0.517     0.483  0.3110  0.9138 -0.2614
 
              Baa    -0.0021    -1.114    -0.397    -0.372  0.6225 -0.1114  0.7747
    38 H(1)   Bbb    -0.0020    -1.043    -0.372    -0.348 -0.5493  0.6429  0.5338
              Bcc     0.0040     2.157     0.770     0.719  0.5575  0.7578 -0.3390
 

 ---------------------------------------------------------------------------------

 No NMR shielding tensors so no spin-rotation constants.
 Leave Link  601 at Tue Aug 18 20:48:17 2026, MaxMem=  2684354560 cpu:              10.4 elap:               0.5
 (Enter /mnt/data/applications/G16/g16/l9999.exe)
 1\1\GINC-KIMIK2200\SP\UB3LYP\Gen\C12H21B1O4(3)\ASOLE\18-Aug-2026\0\\#p
  b3lyp/gen EmpiricalDispersion=GD3BJ pseudo=read scrf=(solvent=acetoni
 trile,pcm,read) nosymm pop=(Orbitals=20)\\Title Card Required\\0,3\C,0
 ,-1.28308,0.59828,0.6766\C,0,-0.61773,1.61222,-0.13327\H,0,-0.11423,1.
 35848,-1.0727\C,0,-0.48915,-0.09172,1.74772\H,0,-0.13495,0.64533,2.493
 99\H,0,-1.08769,-0.8544,2.26466\H,0,0.4188,-0.56644,1.33247\C,0,-0.630
 46,3.00635,0.27483\O,0,-1.18242,3.43149,1.28586\O,0,0.03867,3.79844,-0
 .59763\C,0,0.06882,5.20733,-0.27625\H,0,-0.96642,5.57679,-0.20151\H,0,
 0.53984,5.33672,0.71136\B,0,-2.78993,0.35096,0.49796\O,0,-3.55517,0.99
 27,-0.45074\O,0,-3.50966,-0.52309,1.28172\C,0,-4.95371,0.69943,-0.1393
 5\C,0,-4.84149,-0.63512,0.6856\C,0,-5.4712,1.87807,0.68776\C,0,-5.7288
 9,0.58295,-1.44413\C,0,-4.82306,-1.88733,-0.19293\C,0,-5.86198,-0.7835
 8,1.80531\H,0,-4.92275,1.97137,1.63666\H,0,-5.32413,2.80574,0.11536\H,
 0,-6.54318,1.7734,0.90995\H,0,-5.27218,-0.14816,-2.12344\H,0,-6.769,0.
 28013,-1.24821\H,0,-5.74842,1.55895,-1.95175\H,0,-4.53139,-2.75053,0.4
 2324\H,0,-5.81402,-2.08898,-0.62523\H,0,-4.09635,-1.78916,-1.01278\H,0
 ,-5.70447,-1.73987,2.32621\H,0,-5.77665,0.02628,2.54113\H,0,-6.88431,-
 0.78227,1.397\C,0,0.84473,5.90514,-1.37243\H,0,0.35932,5.76007,-2.3500
 9\H,0,0.8921,6.98536,-1.16546\H,0,1.87382,5.51799,-1.43245\\Version=AM
 64L-G16RevA.03\HF=-795.8192916\S2=2.0071\S2-1=0.\S2A=2.000028\RMSD=7.2
 08e-09\Dipole=-0.4666799,-0.3546473,-0.6968872\Quadrupole=10.9055781,-
 1.4883856,-9.4171925,5.6890501,2.4987743,-4.2361975\PG=C01 [X(C12H21B1
 O4)]\\@


 SIGN SEEN IN A RESTAURANT-
 WE RESERVE THE RIGHT TO SERVE REFUSE TO ANYONE.
 Job cpu time:       0 days  0 hours 50 minutes 55.8 seconds.
 Elapsed time:       0 days  0 hours  2 minutes 11.5 seconds.
 File lengths (MBytes):  RWF=    231 Int=      0 D2E=      0 Chk=     11 Scr=      1
 Normal termination of Gaussian 16 at Tue Aug 18 20:48:17 2026.
