 Entering Gaussian System, Link 0=g16
 Initial command:
 /mnt/data/applications/G16/g16/l1.exe "/scratch/Gau-7796.inp" -scrdir="/scratch/"
 Entering Link 1 = /mnt/data/applications/G16/g16/l1.exe PID=      7797.
  
 Copyright (c) 1988,1990,1992,1993,1995,1998,2003,2009,2016,
            Gaussian, Inc.  All Rights Reserved.
  
 This is part of the Gaussian(R) 16 program.  It is based on
 the Gaussian(R) 09 system (copyright 2009, Gaussian, Inc.),
 the Gaussian(R) 03 system (copyright 2003, Gaussian, Inc.),
 the Gaussian(R) 98 system (copyright 1998, Gaussian, Inc.),
 the Gaussian(R) 94 system (copyright 1995, Gaussian, Inc.),
 the Gaussian 92(TM) system (copyright 1992, Gaussian, Inc.),
 the Gaussian 90(TM) system (copyright 1990, Gaussian, Inc.),
 the Gaussian 88(TM) system (copyright 1988, Gaussian, Inc.),
 the Gaussian 86(TM) system (copyright 1986, Carnegie Mellon
 University), and the Gaussian 82(TM) system (copyright 1983,
 Carnegie Mellon University). Gaussian is a federally registered
 trademark of Gaussian, Inc.
  
 This software contains proprietary and confidential information,
 including trade secrets, belonging to Gaussian, Inc.
  
 This software is provided under written license and may be
 used, copied, transmitted, or stored only in accord with that
 written license.
  
 The following legend is applicable only to US Government
 contracts under FAR:
  
                    RESTRICTED RIGHTS LEGEND
  
 Use, reproduction and disclosure by the US Government is
 subject to restrictions as set forth in subparagraphs (a)
 and (c) of the Commercial Computer Software - Restricted
 Rights clause in FAR 52.227-19.
  
 Gaussian, Inc.
 340 Quinnipiac St., Bldg. 40, Wallingford CT 06492
  
  
 ---------------------------------------------------------------
 Warning -- This program may not be used in any manner that
 competes with the business of Gaussian, Inc. or will provide
 assistance to any competitor of Gaussian, Inc.  The licensee
 of this program is prohibited from giving any competitor of
 Gaussian, Inc. access to this program.  By using this program,
 the user acknowledges that Gaussian, Inc. is engaged in the
 business of creating and licensing software in the field of
 computational chemistry and represents and warrants to the
 licensee that it is not a competitor of Gaussian, Inc. and that
 it will not use this program in any manner prohibited above.
 ---------------------------------------------------------------
  

 Cite this work as:
 Gaussian 16, Revision A.03,
 M. J. Frisch, G. W. Trucks, H. B. Schlegel, G. E. Scuseria, 
 M. A. Robb, J. R. Cheeseman, G. Scalmani, V. Barone, 
 G. A. Petersson, H. Nakatsuji, X. Li, M. Caricato, A. V. Marenich, 
 J. Bloino, B. G. Janesko, R. Gomperts, B. Mennucci, H. P. Hratchian, 
 J. V. Ortiz, A. F. Izmaylov, J. L. Sonnenberg, D. Williams-Young, 
 F. Ding, F. Lipparini, F. Egidi, J. Goings, B. Peng, A. Petrone, 
 T. Henderson, D. Ranasinghe, V. G. Zakrzewski, J. Gao, N. Rega, 
 G. Zheng, W. Liang, M. Hada, M. Ehara, K. Toyota, R. Fukuda, 
 J. Hasegawa, M. Ishida, T. Nakajima, Y. Honda, O. Kitao, H. Nakai, 
 T. Vreven, K. Throssell, J. A. Montgomery, Jr., J. E. Peralta, 
 F. Ogliaro, M. J. Bearpark, J. J. Heyd, E. N. Brothers, K. N. Kudin, 
 V. N. Staroverov, T. A. Keith, R. Kobayashi, J. Normand, 
 K. Raghavachari, A. P. Rendell, J. C. Burant, S. S. Iyengar, 
 J. Tomasi, M. Cossi, J. M. Millam, M. Klene, C. Adamo, R. Cammi, 
 J. W. Ochterski, R. L. Martin, K. Morokuma, O. Farkas, 
 J. B. Foresman, and D. J. Fox, Gaussian, Inc., Wallingford CT, 2016.
 
 ******************************************
 Gaussian 16:  AM64L-G16RevA.03 25-Dec-2016
                18-Aug-2026 
 ******************************************
 %mem=20GB
 %chk=alkene.chk
 ----------------------------------------------------------------------
 #p opt freq b3lyp/gen EmpiricalDispersion=GD3BJ pseudo=read scrf=(solv
 ent=acetonitrile,pcm) nosymm pop=(Orbitals=20)
 ----------------------------------------------------------------------
 1/18=20,19=15,26=3,38=1/1,3;
 2/9=110,12=2,15=1,17=6,18=5,40=1/2;
 3/5=7,11=2,16=1,17=8,25=1,30=1,70=2201,71=1,72=2,74=-5,124=41/1,2,3;
 4//1;
 5/5=2,38=5,53=2/2;
 6/7=2,8=2,9=2,10=2,28=1,96=20/1;
 7/30=1/1,2,3,16;
 1/18=20,19=15,26=3/3(2);
 2/9=110,15=1/2;
 99//99;
 2/9=110,15=1/2;
 3/5=7,6=1,11=2,16=1,17=8,25=1,30=1,70=2205,71=1,72=2,74=-5,82=7,124=41/1,2,3;
 4/5=5,16=3,69=1/1;
 5/5=2,38=5,53=2/2;
 7/30=1/1,2,3,16;
 1/18=20,19=15,26=3/3(-5);
 2/9=110,15=1/2;
 6/7=2,8=2,9=2,10=2,19=2,28=1,96=20/1;
 99/9=1/99;
 Leave Link    1 at Tue Aug 18 12:15:31 2026, MaxMem=  2684354560 cpu:               0.0 elap:               0.1
 (Enter /mnt/data/applications/G16/g16/l101.exe)
 -------------------
 Title Card Required
 -------------------
 Symbolic Z-matrix:
 Charge =  0 Multiplicity = 1
 C                    -1.01812   0.37875   0.0131 
 C                    -0.2812    1.50594   0.02905 
 H                     0.81018   1.50169  -0.03712 
 C                    -0.38702  -0.98049  -0.10321 
 H                     0.71029  -0.93275  -0.16581 
 H                    -0.66798  -1.60789   0.76074 
 H                    -0.77251  -1.50391  -0.99558 
 C                    -0.95089   2.81339   0.13557 
 O                    -2.16379   2.96832   0.21011 
 O                    -0.07685   3.83391   0.14094 
 C                    -0.64363   5.16426   0.24187 
 H                    -1.3281    5.31961  -0.60651 
 H                    -1.23701   5.22395   1.16743 
 B                    -2.58891   0.42048   0.11713 
 O                    -3.40014   0.32186  -0.98412 
 O                    -3.25688   0.31948   1.31029 
 C                    -4.78248   0.42482  -0.50848 
 C                    -4.65266   0.00126   1.00394 
 C                    -5.20652   1.88178  -0.70064 
 C                    -5.64944  -0.49681  -1.35568 
 C                    -4.80966  -1.50312   1.23072 
 C                    -5.5439    0.78035   1.96158 
 H                    -4.56559   2.56038  -0.12325 
 H                    -5.10364   2.14102  -1.7652 
 H                    -6.25648   2.03311  -0.41023 
 H                    -5.26681  -1.52548  -1.36121 
 H                    -6.68324  -0.50777  -0.97721 
 H                    -5.67113  -0.13237  -2.39362 
 H                    -4.51067  -1.73995   2.26252 
 H                    -5.85143  -1.82597   1.08918 
 H                    -4.16779  -2.07915   0.54807 
 H                    -5.38002   0.42697   2.99066 
 H                    -5.3278    1.8558    1.9284 
 H                    -6.60517   0.62613   1.71284 
 C                     0.5069    6.14666   0.23556 
 H                     1.08944   6.0634   -0.69505 
 H                     0.11789   7.17373   0.31047 
 H                     1.18076   5.96794   1.08777 
 
 ITRead=  0  0  0  0  0  0  0  0  0  0  0  0  0  0  0  0  0  0  0  0
 ITRead=  0  0  0  0  0  0  0  0  0  0  0  0  0  0  0  0  0  0
 MicOpt= -1 -1 -1 -1 -1 -1 -1 -1 -1 -1 -1 -1 -1 -1 -1 -1 -1 -1 -1 -1
 MicOpt= -1 -1 -1 -1 -1 -1 -1 -1 -1 -1 -1 -1 -1 -1 -1 -1 -1 -1
 NAtoms=     38 NQM=       38 NQMF=       0 NMMI=      0 NMMIF=      0
                NMic=       0 NMicF=      0.
                    Isotopes and Nuclear Properties:
 (Nuclear quadrupole moments (NQMom) in fm**2, nuclear magnetic moments (NMagM)
  in nuclear magnetons)

  Atom         1           2           3           4           5           6           7           8           9          10
 IAtWgt=          12          12           1          12           1           1           1          12          16          16
 AtmWgt=  12.0000000  12.0000000   1.0078250  12.0000000   1.0078250   1.0078250   1.0078250  12.0000000  15.9949146  15.9949146
 NucSpn=           0           0           1           0           1           1           1           0           0           0
 AtZEff=  -0.0000000  -0.0000000  -0.0000000  -0.0000000  -0.0000000  -0.0000000  -0.0000000  -0.0000000  -0.0000000  -0.0000000
 NQMom=    0.0000000   0.0000000   0.0000000   0.0000000   0.0000000   0.0000000   0.0000000   0.0000000   0.0000000   0.0000000
 NMagM=    0.0000000   0.0000000   2.7928460   0.0000000   2.7928460   2.7928460   2.7928460   0.0000000   0.0000000   0.0000000
 AtZNuc=   6.0000000   6.0000000   1.0000000   6.0000000   1.0000000   1.0000000   1.0000000   6.0000000   8.0000000   8.0000000

  Atom        11          12          13          14          15          16          17          18          19          20
 IAtWgt=          12           1           1          11          16          16          12          12          12          12
 AtmWgt=  12.0000000   1.0078250   1.0078250  11.0093053  15.9949146  15.9949146  12.0000000  12.0000000  12.0000000  12.0000000
 NucSpn=           0           1           1           3           0           0           0           0           0           0
 AtZEff=  -0.0000000  -0.0000000  -0.0000000  -0.0000000  -0.0000000  -0.0000000  -0.0000000  -0.0000000  -0.0000000  -0.0000000
 NQMom=    0.0000000   0.0000000   0.0000000   4.0590000   0.0000000   0.0000000   0.0000000   0.0000000   0.0000000   0.0000000
 NMagM=    0.0000000   2.7928460   2.7928460   2.6886370   0.0000000   0.0000000   0.0000000   0.0000000   0.0000000   0.0000000
 AtZNuc=   6.0000000   1.0000000   1.0000000   5.0000000   8.0000000   8.0000000   6.0000000   6.0000000   6.0000000   6.0000000

  Atom        21          22          23          24          25          26          27          28          29          30
 IAtWgt=          12          12           1           1           1           1           1           1           1           1
 AtmWgt=  12.0000000  12.0000000   1.0078250   1.0078250   1.0078250   1.0078250   1.0078250   1.0078250   1.0078250   1.0078250
 NucSpn=           0           0           1           1           1           1           1           1           1           1
 AtZEff=  -0.0000000  -0.0000000  -0.0000000  -0.0000000  -0.0000000  -0.0000000  -0.0000000  -0.0000000  -0.0000000  -0.0000000
 NQMom=    0.0000000   0.0000000   0.0000000   0.0000000   0.0000000   0.0000000   0.0000000   0.0000000   0.0000000   0.0000000
 NMagM=    0.0000000   0.0000000   2.7928460   2.7928460   2.7928460   2.7928460   2.7928460   2.7928460   2.7928460   2.7928460
 AtZNuc=   6.0000000   6.0000000   1.0000000   1.0000000   1.0000000   1.0000000   1.0000000   1.0000000   1.0000000   1.0000000

  Atom        31          32          33          34          35          36          37          38
 IAtWgt=           1           1           1           1          12           1           1           1
 AtmWgt=   1.0078250   1.0078250   1.0078250   1.0078250  12.0000000   1.0078250   1.0078250   1.0078250
 NucSpn=           1           1           1           1           0           1           1           1
 AtZEff=  -0.0000000  -0.0000000  -0.0000000  -0.0000000  -0.0000000  -0.0000000  -0.0000000  -0.0000000
 NQMom=    0.0000000   0.0000000   0.0000000   0.0000000   0.0000000   0.0000000   0.0000000   0.0000000
 NMagM=    2.7928460   2.7928460   2.7928460   2.7928460   0.0000000   2.7928460   2.7928460   2.7928460
 AtZNuc=   1.0000000   1.0000000   1.0000000   1.0000000   6.0000000   1.0000000   1.0000000   1.0000000
 Leave Link  101 at Tue Aug 18 12:15:32 2026, MaxMem=  2684354560 cpu:               0.3 elap:               0.3
 (Enter /mnt/data/applications/G16/g16/l103.exe)

 GradGradGradGradGradGradGradGradGradGradGradGradGradGradGradGradGradGrad
 Berny optimization.
 Initialization pass.
                           ----------------------------
                           !    Initial Parameters    !
                           ! (Angstroms and Degrees)  !
 --------------------------                            --------------------------
 ! Name  Definition              Value          Derivative Info.                !
 --------------------------------------------------------------------------------
 ! R1    R(1,2)                  1.3468         estimate D2E/DX2                !
 ! R2    R(1,4)                  1.5031         estimate D2E/DX2                !
 ! R3    R(1,14)                 1.5748         estimate D2E/DX2                !
 ! R4    R(2,3)                  1.0934         estimate D2E/DX2                !
 ! R5    R(2,8)                  1.4728         estimate D2E/DX2                !
 ! R6    R(4,5)                  1.1001         estimate D2E/DX2                !
 ! R7    R(4,6)                  1.1041         estimate D2E/DX2                !
 ! R8    R(4,7)                  1.104          estimate D2E/DX2                !
 ! R9    R(8,9)                  1.225          estimate D2E/DX2                !
 ! R10   R(8,10)                 1.3437         estimate D2E/DX2                !
 ! R11   R(10,11)                1.4496         estimate D2E/DX2                !
 ! R12   R(11,12)                1.1011         estimate D2E/DX2                !
 ! R13   R(11,13)                1.1011         estimate D2E/DX2                !
 ! R14   R(11,35)                1.5129         estimate D2E/DX2                !
 ! R15   R(14,15)                1.3713         estimate D2E/DX2                !
 ! R16   R(14,16)                1.3711         estimate D2E/DX2                !
 ! R17   R(15,17)                1.4655         estimate D2E/DX2                !
 ! R18   R(16,18)                1.464          estimate D2E/DX2                !
 ! R19   R(17,18)                1.576          estimate D2E/DX2                !
 ! R20   R(17,19)                1.5295         estimate D2E/DX2                !
 ! R21   R(17,20)                1.5228         estimate D2E/DX2                !
 ! R22   R(18,21)                1.5295         estimate D2E/DX2                !
 ! R23   R(18,22)                1.5226         estimate D2E/DX2                !
 ! R24   R(19,23)                1.0976         estimate D2E/DX2                !
 ! R25   R(19,24)                1.1005         estimate D2E/DX2                !
 ! R26   R(19,25)                1.0998         estimate D2E/DX2                !
 ! R27   R(20,26)                1.0975         estimate D2E/DX2                !
 ! R28   R(20,27)                1.101          estimate D2E/DX2                !
 ! R29   R(20,28)                1.1003         estimate D2E/DX2                !
 ! R30   R(21,29)                1.1            estimate D2E/DX2                !
 ! R31   R(21,30)                1.0998         estimate D2E/DX2                !
 ! R32   R(21,31)                1.0999         estimate D2E/DX2                !
 ! R33   R(22,32)                1.1003         estimate D2E/DX2                !
 ! R34   R(22,33)                1.0974         estimate D2E/DX2                !
 ! R35   R(22,34)                1.1009         estimate D2E/DX2                !
 ! R36   R(35,36)                1.1011         estimate D2E/DX2                !
 ! R37   R(35,37)                1.1008         estimate D2E/DX2                !
 ! R38   R(35,38)                1.101          estimate D2E/DX2                !
 ! A1    A(2,1,4)              121.8714         estimate D2E/DX2                !
 ! A2    A(2,1,14)             121.5214         estimate D2E/DX2                !
 ! A3    A(4,1,14)             116.6072         estimate D2E/DX2                !
 ! A4    A(1,2,3)              122.8327         estimate D2E/DX2                !
 ! A5    A(1,2,8)              119.6713         estimate D2E/DX2                !
 ! A6    A(3,2,8)              117.4958         estimate D2E/DX2                !
 ! A7    A(1,4,5)              112.5784         estimate D2E/DX2                !
 ! A8    A(1,4,6)              110.2717         estimate D2E/DX2                !
 ! A9    A(1,4,7)              110.1611         estimate D2E/DX2                !
 ! A10   A(5,4,6)              108.845          estimate D2E/DX2                !
 ! A11   A(5,4,7)              108.8353         estimate D2E/DX2                !
 ! A12   A(6,4,7)              105.9158         estimate D2E/DX2                !
 ! A13   A(2,8,9)              124.5317         estimate D2E/DX2                !
 ! A14   A(2,8,10)             112.2553         estimate D2E/DX2                !
 ! A15   A(9,8,10)             123.213          estimate D2E/DX2                !
 ! A16   A(8,10,11)            116.2939         estimate D2E/DX2                !
 ! A17   A(10,11,12)           108.5961         estimate D2E/DX2                !
 ! A18   A(10,11,13)           108.6024         estimate D2E/DX2                !
 ! A19   A(10,11,35)           107.3559         estimate D2E/DX2                !
 ! A20   A(12,11,13)           107.7599         estimate D2E/DX2                !
 ! A21   A(12,11,35)           112.2043         estimate D2E/DX2                !
 ! A22   A(13,11,35)           112.2186         estimate D2E/DX2                !
 ! A23   A(1,14,15)            122.351          estimate D2E/DX2                !
 ! A24   A(1,14,16)            122.7833         estimate D2E/DX2                !
 ! A25   A(15,14,16)           113.9115         estimate D2E/DX2                !
 ! A26   A(14,15,17)           106.9959         estimate D2E/DX2                !
 ! A27   A(14,16,18)           107.3603         estimate D2E/DX2                !
 ! A28   A(15,17,18)           102.409          estimate D2E/DX2                !
 ! A29   A(15,17,19)           106.7173         estimate D2E/DX2                !
 ! A30   A(15,17,20)           108.2967         estimate D2E/DX2                !
 ! A31   A(18,17,19)           113.5416         estimate D2E/DX2                !
 ! A32   A(18,17,20)           114.7186         estimate D2E/DX2                !
 ! A33   A(19,17,20)           110.413          estimate D2E/DX2                !
 ! A34   A(16,18,17)           102.7639         estimate D2E/DX2                !
 ! A35   A(16,18,21)           106.2983         estimate D2E/DX2                !
 ! A36   A(16,18,22)           108.3745         estimate D2E/DX2                !
 ! A37   A(17,18,21)           113.4654         estimate D2E/DX2                !
 ! A38   A(17,18,22)           114.6987         estimate D2E/DX2                !
 ! A39   A(21,18,22)           110.4841         estimate D2E/DX2                !
 ! A40   A(17,19,23)           111.1589         estimate D2E/DX2                !
 ! A41   A(17,19,24)           108.6632         estimate D2E/DX2                !
 ! A42   A(17,19,25)           111.257          estimate D2E/DX2                !
 ! A43   A(23,19,24)           107.9778         estimate D2E/DX2                !
 ! A44   A(23,19,25)           109.4809         estimate D2E/DX2                !
 ! A45   A(24,19,25)           108.1954         estimate D2E/DX2                !
 ! A46   A(17,20,26)           111.813          estimate D2E/DX2                !
 ! A47   A(17,20,27)           110.4492         estimate D2E/DX2                !
 ! A48   A(17,20,28)           109.6086         estimate D2E/DX2                !
 ! A49   A(26,20,27)           108.6485         estimate D2E/DX2                !
 ! A50   A(26,20,28)           108.2136         estimate D2E/DX2                !
 ! A51   A(27,20,28)           108.0035         estimate D2E/DX2                !
 ! A52   A(18,21,29)           108.8407         estimate D2E/DX2                !
 ! A53   A(18,21,30)           111.5242         estimate D2E/DX2                !
 ! A54   A(18,21,31)           111.2961         estimate D2E/DX2                !
 ! A55   A(29,21,30)           108.3591         estimate D2E/DX2                !
 ! A56   A(29,21,31)           108.1059         estimate D2E/DX2                !
 ! A57   A(30,21,31)           108.6124         estimate D2E/DX2                !
 ! A58   A(18,22,32)           109.6764         estimate D2E/DX2                !
 ! A59   A(18,22,33)           111.5398         estimate D2E/DX2                !
 ! A60   A(18,22,34)           110.5169         estimate D2E/DX2                !
 ! A61   A(32,22,33)           108.2804         estimate D2E/DX2                !
 ! A62   A(32,22,34)           108.0532         estimate D2E/DX2                !
 ! A63   A(33,22,34)           108.6795         estimate D2E/DX2                !
 ! A64   A(11,35,36)           110.9021         estimate D2E/DX2                !
 ! A65   A(11,35,37)           109.6833         estimate D2E/DX2                !
 ! A66   A(11,35,38)           110.9038         estimate D2E/DX2                !
 ! A67   A(36,35,37)           108.3627         estimate D2E/DX2                !
 ! A68   A(36,35,38)           108.5486         estimate D2E/DX2                !
 ! A69   A(37,35,38)           108.3638         estimate D2E/DX2                !
 ! D1    D(4,1,2,3)             -0.235          estimate D2E/DX2                !
 ! D2    D(4,1,2,8)            179.5825         estimate D2E/DX2                !
 ! D3    D(14,1,2,3)           179.7072         estimate D2E/DX2                !
 ! D4    D(14,1,2,8)            -0.4753         estimate D2E/DX2                !
 ! D5    D(2,1,4,5)              0.2711         estimate D2E/DX2                !
 ! D6    D(2,1,4,6)            122.0406         estimate D2E/DX2                !
 ! D7    D(2,1,4,7)           -121.4066         estimate D2E/DX2                !
 ! D8    D(14,1,4,5)          -179.6738         estimate D2E/DX2                !
 ! D9    D(14,1,4,6)           -57.9043         estimate D2E/DX2                !
 ! D10   D(14,1,4,7)            58.6484         estimate D2E/DX2                !
 ! D11   D(2,1,14,15)           99.0777         estimate D2E/DX2                !
 ! D12   D(2,1,14,16)          -92.7847         estimate D2E/DX2                !
 ! D13   D(4,1,14,15)          -80.9772         estimate D2E/DX2                !
 ! D14   D(4,1,14,16)           87.1604         estimate D2E/DX2                !
 ! D15   D(1,2,8,9)             -0.1999         estimate D2E/DX2                !
 ! D16   D(1,2,8,10)           179.868          estimate D2E/DX2                !
 ! D17   D(3,2,8,9)            179.6273         estimate D2E/DX2                !
 ! D18   D(3,2,8,10)            -0.3048         estimate D2E/DX2                !
 ! D19   D(2,8,10,11)          179.9529         estimate D2E/DX2                !
 ! D20   D(9,8,10,11)            0.0197         estimate D2E/DX2                !
 ! D21   D(8,10,11,12)         -58.6919         estimate D2E/DX2                !
 ! D22   D(8,10,11,13)          58.2329         estimate D2E/DX2                !
 ! D23   D(8,10,11,35)         179.7808         estimate D2E/DX2                !
 ! D24   D(10,11,35,36)         60.3175         estimate D2E/DX2                !
 ! D25   D(10,11,35,37)        179.9719         estimate D2E/DX2                !
 ! D26   D(10,11,35,38)        -60.3712         estimate D2E/DX2                !
 ! D27   D(12,11,35,36)        -58.9205         estimate D2E/DX2                !
 ! D28   D(12,11,35,37)         60.7339         estimate D2E/DX2                !
 ! D29   D(12,11,35,38)       -179.6092         estimate D2E/DX2                !
 ! D30   D(13,11,35,36)        179.5716         estimate D2E/DX2                !
 ! D31   D(13,11,35,37)        -60.774          estimate D2E/DX2                !
 ! D32   D(13,11,35,38)         58.8829         estimate D2E/DX2                !
 ! D33   D(1,14,15,17)        -178.9318         estimate D2E/DX2                !
 ! D34   D(16,14,15,17)         11.9654         estimate D2E/DX2                !
 ! D35   D(1,14,16,18)        -163.6138         estimate D2E/DX2                !
 ! D36   D(15,14,16,18)          5.4358         estimate D2E/DX2                !
 ! D37   D(14,15,17,18)        -22.5014         estimate D2E/DX2                !
 ! D38   D(14,15,17,19)         97.0432         estimate D2E/DX2                !
 ! D39   D(14,15,17,20)       -144.0832         estimate D2E/DX2                !
 ! D40   D(14,16,18,17)        -18.8953         estimate D2E/DX2                !
 ! D41   D(14,16,18,21)        100.5515         estimate D2E/DX2                !
 ! D42   D(14,16,18,22)       -140.6778         estimate D2E/DX2                !
 ! D43   D(15,17,18,16)         24.9541         estimate D2E/DX2                !
 ! D44   D(15,17,18,21)        -89.3782         estimate D2E/DX2                !
 ! D45   D(15,17,18,22)        142.3377         estimate D2E/DX2                !
 ! D46   D(19,17,18,16)        -89.6995         estimate D2E/DX2                !
 ! D47   D(19,17,18,21)        155.9682         estimate D2E/DX2                !
 ! D48   D(19,17,18,22)         27.6841         estimate D2E/DX2                !
 ! D49   D(20,17,18,16)        142.0292         estimate D2E/DX2                !
 ! D50   D(20,17,18,21)         27.6969         estimate D2E/DX2                !
 ! D51   D(20,17,18,22)       -100.5871         estimate D2E/DX2                !
 ! D52   D(15,17,19,23)        -60.452          estimate D2E/DX2                !
 ! D53   D(15,17,19,24)         58.2375         estimate D2E/DX2                !
 ! D54   D(15,17,19,25)        177.2532         estimate D2E/DX2                !
 ! D55   D(18,17,19,23)         51.609          estimate D2E/DX2                !
 ! D56   D(18,17,19,24)        170.2985         estimate D2E/DX2                !
 ! D57   D(18,17,19,25)        -70.6858         estimate D2E/DX2                !
 ! D58   D(20,17,19,23)       -177.9378         estimate D2E/DX2                !
 ! D59   D(20,17,19,24)        -59.2483         estimate D2E/DX2                !
 ! D60   D(20,17,19,25)         59.7674         estimate D2E/DX2                !
 ! D61   D(15,17,20,26)         54.4116         estimate D2E/DX2                !
 ! D62   D(15,17,20,27)        175.531          estimate D2E/DX2                !
 ! D63   D(15,17,20,28)        -65.5869         estimate D2E/DX2                !
 ! D64   D(18,17,20,26)        -59.2525         estimate D2E/DX2                !
 ! D65   D(18,17,20,27)         61.8669         estimate D2E/DX2                !
 ! D66   D(18,17,20,28)       -179.251          estimate D2E/DX2                !
 ! D67   D(19,17,20,26)        170.9195         estimate D2E/DX2                !
 ! D68   D(19,17,20,27)        -67.961          estimate D2E/DX2                !
 ! D69   D(19,17,20,28)         50.9211         estimate D2E/DX2                !
 ! D70   D(16,18,21,29)         56.6613         estimate D2E/DX2                !
 ! D71   D(16,18,21,30)        176.155          estimate D2E/DX2                !
 ! D72   D(16,18,21,31)        -62.3803         estimate D2E/DX2                !
 ! D73   D(17,18,21,29)        168.8626         estimate D2E/DX2                !
 ! D74   D(17,18,21,30)        -71.6437         estimate D2E/DX2                !
 ! D75   D(17,18,21,31)         49.821          estimate D2E/DX2                !
 ! D76   D(22,18,21,29)        -60.7142         estimate D2E/DX2                !
 ! D77   D(22,18,21,30)         58.7795         estimate D2E/DX2                !
 ! D78   D(22,18,21,31)       -179.7558         estimate D2E/DX2                !
 ! D79   D(16,18,22,32)        -65.256          estimate D2E/DX2                !
 ! D80   D(16,18,22,33)         54.696          estimate D2E/DX2                !
 ! D81   D(16,18,22,34)        175.7168         estimate D2E/DX2                !
 ! D82   D(17,18,22,32)       -179.3988         estimate D2E/DX2                !
 ! D83   D(17,18,22,33)        -59.4469         estimate D2E/DX2                !
 ! D84   D(17,18,22,34)         61.574          estimate D2E/DX2                !
 ! D85   D(21,18,22,32)         50.8326         estimate D2E/DX2                !
 ! D86   D(21,18,22,33)        170.7846         estimate D2E/DX2                !
 ! D87   D(21,18,22,34)        -68.1946         estimate D2E/DX2                !
 --------------------------------------------------------------------------------
 Trust Radius=3.00D-01 FncErr=1.00D-07 GrdErr=1.00D-06 EigMax=2.50D+02 EigMin=1.00D-04
 Number of steps in this run=    204 maximum allowed number of steps=    228.
 GradGradGradGradGradGradGradGradGradGradGradGradGradGradGradGradGradGrad

 Leave Link  103 at Tue Aug 18 12:15:32 2026, MaxMem=  2684354560 cpu:               0.0 elap:               0.0
 (Enter /mnt/data/applications/G16/g16/l202.exe)
                          Input orientation:                          
 ---------------------------------------------------------------------
 Center     Atomic      Atomic             Coordinates (Angstroms)
 Number     Number       Type             X           Y           Z
 ---------------------------------------------------------------------
      1          6           0       -1.018120    0.378750    0.013100
      2          6           0       -0.281200    1.505940    0.029050
      3          1           0        0.810180    1.501690   -0.037120
      4          6           0       -0.387020   -0.980490   -0.103210
      5          1           0        0.710290   -0.932750   -0.165810
      6          1           0       -0.667980   -1.607890    0.760740
      7          1           0       -0.772510   -1.503910   -0.995580
      8          6           0       -0.950890    2.813390    0.135570
      9          8           0       -2.163790    2.968320    0.210110
     10          8           0       -0.076850    3.833910    0.140940
     11          6           0       -0.643630    5.164260    0.241870
     12          1           0       -1.328100    5.319610   -0.606510
     13          1           0       -1.237010    5.223950    1.167430
     14          5           0       -2.588910    0.420480    0.117130
     15          8           0       -3.400140    0.321860   -0.984120
     16          8           0       -3.256880    0.319480    1.310290
     17          6           0       -4.782480    0.424820   -0.508480
     18          6           0       -4.652660    0.001260    1.003940
     19          6           0       -5.206520    1.881780   -0.700640
     20          6           0       -5.649440   -0.496810   -1.355680
     21          6           0       -4.809660   -1.503120    1.230720
     22          6           0       -5.543900    0.780350    1.961580
     23          1           0       -4.565590    2.560380   -0.123250
     24          1           0       -5.103640    2.141020   -1.765200
     25          1           0       -6.256480    2.033110   -0.410230
     26          1           0       -5.266810   -1.525480   -1.361210
     27          1           0       -6.683240   -0.507770   -0.977210
     28          1           0       -5.671130   -0.132370   -2.393620
     29          1           0       -4.510670   -1.739950    2.262520
     30          1           0       -5.851430   -1.825970    1.089180
     31          1           0       -4.167790   -2.079150    0.548070
     32          1           0       -5.380020    0.426970    2.990660
     33          1           0       -5.327800    1.855800    1.928400
     34          1           0       -6.605170    0.626130    1.712840
     35          6           0        0.506900    6.146660    0.235560
     36          1           0        1.089440    6.063400   -0.695050
     37          1           0        0.117890    7.173730    0.310470
     38          1           0        1.180760    5.967940    1.087770
 ---------------------------------------------------------------------
                    Distance matrix (angstroms):
                    1          2          3          4          5
     1  C    0.000000
     2  C    1.346797   0.000000
     3  H    2.146205   1.093392   0.000000
     4  C    1.503113   2.492193   2.756605   0.000000
     5  H    2.177026   2.639741   2.439885   1.100130   0.000000
     6  H    2.151349   3.221941   3.534264   1.104074   1.792746
     7  H    2.149923   3.217211   3.529474   1.104036   1.792606
     8  C    2.438645   1.472840   2.202668   3.842979   4.109004
     9  O    2.838529   2.390708   3.325150   4.341449   4.860041
    10  O    3.583359   2.339599   2.501555   4.830555   4.840943
    11  C    4.805589   3.682384   3.950420   6.159779   6.258820
    12  H    4.989199   4.005498   4.412818   6.389852   6.590998
    13  H    4.985615   4.004133   4.415557   6.389999   6.593517
    14  B    1.574784   2.551765   3.570241   2.619081   3.577151
    15  O    2.582964   3.486595   4.473880   3.398678   4.374850
    16  O    2.588100   3.450208   4.444560   3.453115   4.414226
    17  C    3.800602   4.660395   5.714864   4.632409   5.668416
    18  C    3.786046   4.724842   5.760010   4.515008   5.567937
    19  C    4.506797   4.993243   6.065097   5.637117   6.573908
    20  C    4.908084   5.894615   6.889071   5.430994   6.484751
    21  C    4.404521   5.568250   6.497607   4.648898   5.722365
    22  C    4.943738   5.653067   6.699960   5.827292   6.824617
    23  H    4.166851   4.414865   5.479703   5.477099   6.327612
    24  H    4.791599   5.184456   6.194213   5.895128   6.768153
    25  H    5.509676   6.014553   7.096429   6.605044   7.575748
    26  H    4.854502   5.998219   6.917137   5.068721   6.124217
    27  H    5.818953   6.786288   7.814924   6.374145   7.450051
    28  H    5.263463   6.132270   7.087357   5.821263   6.806340
    29  H    4.663334   5.780364   6.641387   4.814348   5.814360
    30  H    5.420297   6.576698   7.531196   5.656537   6.740105
    31  H    4.030867   5.312987   6.159955   3.990669   5.061573
    32  H    5.281511   5.994437   6.974314   6.040118   6.993141
    33  H    4.942003   5.403527   6.454724   6.048412   6.972823
    34  H    5.845121   6.603167   7.669184   6.674178   7.712029
    35  C    5.970256   4.711691   4.662840   7.190975   7.093695
    36  H    6.103977   4.813877   4.617365   7.221260   7.026376
    37  H    6.895702   5.688788   5.724694   8.180304   8.142039
    38  H    6.101560   4.813279   4.620616   7.221984   7.029390
                    6          7          8          9         10
     6  H    0.000000
     7  H    1.762498   0.000000
     8  C    4.474214   4.466587   0.000000
     9  O    4.845858   4.836341   1.225025   0.000000
    10  O    5.508791   5.501631   1.343665   2.260387   0.000000
    11  C    6.792042   6.783243   2.373246   2.670964   1.449572
    12  H    7.091924   6.857148   2.640854   2.625607   2.081253
    13  H    6.867549   7.082265   2.637688   2.619780   2.081313
    14  B    2.866791   2.870664   2.899908   2.584736   4.238221
    15  O    3.772687   3.199689   3.668822   3.155709   4.964324
    16  O    3.274013   3.848881   3.594043   3.069462   4.881720
    17  C    4.761506   4.476285   4.560828   3.720659   5.846930
    18  C    4.304205   4.617270   4.729190   3.953237   6.030921
    19  C    5.908619   5.586621   4.435936   3.356820   5.552709
    20  C    5.525276   4.992832   5.937813   5.158351   7.214483
    21  C    4.169577   4.610314   5.892514   5.294908   7.216024
    22  C    5.560603   6.060429   5.344465   4.390900   6.521318
    23  H    5.774710   5.627332   3.632776   2.458900   4.673378
    24  H    6.333228   5.712838   4.616312   3.637168   5.636299
    25  H    6.771956   6.551875   5.390364   4.243766   6.460224
    26  H    5.065442   4.509200   6.300263   5.682607   7.610204
    27  H    6.357207   5.994111   6.717754   5.823947   7.984036
    28  H    6.095790   5.275615   6.111871   5.356783   7.311042
    29  H    4.127838   4.964350   6.158641   5.646950   7.431539
    30  H    5.198421   5.499580   6.815301   6.112010   8.141202
    31  H    3.537794   3.773815   5.869885   5.441249   7.201793
    32  H    5.596116   6.391209   5.784785   4.953186   6.917496
    33  H    5.922373   6.370869   4.825822   3.768445   5.889007
    34  H    6.414637   6.774403   6.264405   5.241174   7.441753
    35  C    7.860611   7.853905   3.639483   4.151515   2.387159
    36  H    8.003533   7.798805   3.926250   4.580648   2.651365
    37  H    8.828204   8.820432   4.492822   4.785563   3.349785
    38  H    7.804998   7.999010   3.924513   4.577556   2.651821
                   11         12         13         14         15
    11  C    0.000000
    12  H    1.101082   0.000000
    13  H    1.101056   1.778851   0.000000
    14  B    5.128657   5.110261   5.099420   0.000000
    15  O    5.705281   5.423416   5.773975   1.371339   0.000000
    16  O    5.607360   5.691715   5.306045   1.371137   2.298879
    17  C    6.336829   5.991771   6.197635   2.281043   1.465503
    18  C    6.581006   6.475422   6.242586   2.285004   2.371492
    19  C    5.699383   5.183597   5.515142   3.107415   2.403481
    20  C    7.723860   7.284640   7.652628   3.518158   2.422319
    21  C    7.923862   7.876949   7.617172   3.141982   3.197314
    22  C    6.796228   6.706186   6.239035   3.501923   3.671930
    23  H    4.721787   4.281148   4.454201   2.923049   2.666523
    24  H    5.749783   5.069586   5.749400   3.581521   2.611770
    25  H    6.460141   5.926933   6.153499   4.041009   3.378817
    26  H    8.288322   7.933364   8.257609   3.625382   2.653171
    27  H    8.374662   7.922960   8.192284   4.338521   3.386308
    28  H    7.763753   7.195815   7.812340   4.013675   2.711164
    29  H    8.167322   8.258176   7.772514   3.600461   4.003125
    30  H    8.757992   8.625265   8.426172   4.078659   3.862715
    31  H    8.061045   8.008654   7.893564   2.987762   2.949871
    32  H    7.240936   7.300385   6.595431   4.005935   4.441829
    33  H    5.977603   5.866971   5.353324   3.583624   3.814658
    34  H    7.635335   7.433412   7.089045   4.326537   4.199808
    35  C    1.512901   2.181815   2.181971   6.510545   7.119050
    36  H    2.165595   2.530921   3.096107   6.784721   7.294188
    37  H    2.150021   2.523787   2.524238   7.278086   7.810289
    38  H    2.165606   3.096013   2.530905   6.776936   7.560132
                   16         17         18         19         20
    16  O    0.000000
    17  C    2.376232   0.000000
    18  C    1.464007   1.575967   0.000000
    19  C    3.207135   1.529532   2.597828   0.000000
    20  C    3.673972   1.522751   2.609492   2.506581   0.000000
    21  C    2.395689   2.596634   1.529457   3.917295   2.899544
    22  C    2.422197   2.609091   1.522618   2.900757   3.556190
    23  H    2.964691   2.180839   2.797719   1.097574   3.469874
    24  H    4.023328   2.151239   3.528469   1.100490   2.724656
    25  H    3.859316   2.183787   2.949666   1.099843   2.768189
    26  H    3.818456   2.182978   2.881328   3.471226   1.097542
    27  H    4.202016   2.168483   2.882243   2.822613   1.100955
    28  H    4.444291   2.157293   3.549444   2.671862   1.100276
    29  H    2.592293   3.526833   2.153137   4.730904   3.991687
    30  H    3.373949   2.959937   2.187026   4.167346   2.790127
    31  H    2.676595   2.786397   2.184267   4.281028   2.885022
    32  H    2.709782   3.549794   2.158087   3.971432   4.451587
    33  H    2.651612   2.878100   2.179394   2.631964   4.052580
    34  H    3.386315   2.880449   2.169170   3.059046   3.404443
    35  C    7.019766   7.827553   8.060857   7.190886   9.196100
    36  H    7.476931   8.142962   8.521022   7.558114   9.427900
    37  H    7.705158   8.380459   8.641954   7.574722   9.740397
    38  H    7.186603   8.296651   8.344884   7.790537   9.716742
                   21         22         23         24         25
    21  C    0.000000
    22  C    2.507489   0.000000
    23  H    4.290086   2.910690   0.000000
    24  H    4.726703   3.991759   1.778021   0.000000
    25  H    4.158236   2.775367   1.794291   1.782310   0.000000
    26  H    2.632031   4.053957   4.326489   3.692297   3.814102
    27  H    3.062022   3.404972   3.824557   3.183104   2.638117
    28  H    3.969500   4.451630   3.691572   2.425955   2.994290
    29  H    1.100043   2.740445   4.918105   5.624595   4.942411
    30  H    1.099796   2.765603   4.729000   4.944055   4.159903
    31  H    1.099918   3.473965   4.704695   4.902741   4.710801
    32  H    2.673564   1.100336   3.861498   5.062861   3.861855
    33  H    3.469520   1.097448   2.299275   3.711372   2.522514
    34  H    2.826659   1.100886   3.357445   4.079981   2.570720
    35  C    9.368847   8.269741   6.222564   7.178186   7.942396
    36  H    9.785714   8.886478   6.676636   7.408409   8.383728
    37  H   10.020745   8.698123   6.588330   7.543272   8.220582
    38  H    9.577176   8.537897   6.789593   7.891669   8.546311
                   26         27         28         29         30
    26  H    0.000000
    27  H    1.785907   0.000000
    28  H    1.780478   1.780873   0.000000
    29  H    3.707987   4.090743   5.060694   0.000000
    30  H    2.537023   2.588344   3.876943   1.783750   0.000000
    31  H    2.271507   3.335147   3.834517   1.781000   1.786489
    32  H    4.771127   4.279733   5.421077   2.445710   2.985564
    33  H    4.717871   3.983246   4.769754   3.702534   3.812336
    34  H    3.983769   2.920307   4.279108   3.207400   2.640051
    35  C    9.733814   9.871695   9.192761   9.564685  10.233272
    36  H    9.921531  10.182065   9.326200  10.049912  10.658392
    37  H   10.366569  10.340161   9.705872  10.231704  10.827454
    38  H   10.184302  10.394299   9.812352   9.653185  10.497463
                   31         32         33         34         35
    31  H    0.000000
    32  H    3.703564   0.000000
    33  H    4.328368   1.781201   0.000000
    34  H    3.823094   1.781427   1.786121   0.000000
    35  C    9.466485   8.658017   7.437803   9.123604   0.000000
    36  H    9.771639   9.338507   8.109708   9.724652   1.101054
    37  H   10.199965   9.106547   7.781620   9.488796   1.100824
    38  H    9.677496   8.795861   7.744528   9.462893   1.101040
                   36         37         38
    36  H    0.000000
    37  H    1.785445   0.000000
    38  H    1.787708   1.785446   0.000000
 Symmetry turned off by external request.
 Stoichiometry    C12H21BO4
 Framework group  C1[X(C12H21BO4)]
 Deg. of freedom   108
 Full point group                 C1      NOp   1
 Rotational constants (GHZ):           0.7886102           0.2618504           0.2295270
 Leave Link  202 at Tue Aug 18 12:15:32 2026, MaxMem=  2684354560 cpu:               0.0 elap:               0.0
 (Enter /mnt/data/applications/G16/g16/l301.exe)
 General basis read from cards:  (5D, 7F)
 Centers:       1      2      4      8     11     17     18     19     20     21
 Centers:      22     35     14      9     10     15     16      3      5      6
 Centers:       7     12     13     23     24     25     26     27     28     29
 Centers:      30     31     32     33     34     36     37     38
 cc-pVDZ
 ****
 ======================================================================================================
                                       Pseudopotential Parameters
 ======================================================================================================
  Center     Atomic      Valence      Angular      Power
  Number     Number     Electrons     Momentum     of R      Exponent        Coefficient   SO-Coeffient
 ======================================================================================================
    1          6
                                   No pseudopotential on this center.
    2          6
                                   No pseudopotential on this center.
    3          1
                                   No pseudopotential on this center.
    4          6
                                   No pseudopotential on this center.
    5          1
                                   No pseudopotential on this center.
    6          1
                                   No pseudopotential on this center.
    7          1
                                   No pseudopotential on this center.
    8          6
                                   No pseudopotential on this center.
    9          8
                                   No pseudopotential on this center.
   10          8
                                   No pseudopotential on this center.
   11          6
                                   No pseudopotential on this center.
   12          1
                                   No pseudopotential on this center.
   13          1
                                   No pseudopotential on this center.
   14          5
                                   No pseudopotential on this center.
   15          8
                                   No pseudopotential on this center.
   16          8
                                   No pseudopotential on this center.
   17          6
                                   No pseudopotential on this center.
   18          6
                                   No pseudopotential on this center.
   19          6
                                   No pseudopotential on this center.
   20          6
                                   No pseudopotential on this center.
   21          6
                                   No pseudopotential on this center.
   22          6
                                   No pseudopotential on this center.
   23          1
                                   No pseudopotential on this center.
   24          1
                                   No pseudopotential on this center.
   25          1
                                   No pseudopotential on this center.
   26          1
                                   No pseudopotential on this center.
   27          1
                                   No pseudopotential on this center.
   28          1
                                   No pseudopotential on this center.
   29          1
                                   No pseudopotential on this center.
   30          1
                                   No pseudopotential on this center.
   31          1
                                   No pseudopotential on this center.
   32          1
                                   No pseudopotential on this center.
   33          1
                                   No pseudopotential on this center.
   34          1
                                   No pseudopotential on this center.
   35          6
                                   No pseudopotential on this center.
   36          1
                                   No pseudopotential on this center.
   37          1
                                   No pseudopotential on this center.
   38          1
                                   No pseudopotential on this center.
 ======================================================================================================
 Ernie: Thresh=  0.10000D-02 Tol=  0.10000D-05 Strict=F.
 Ernie:  34 primitive shells out of 479 were deleted.
   343 basis functions,   708 primitive gaussians,   360 cartesian basis functions
    65 alpha electrons       65 beta electrons
       nuclear repulsion energy      1291.6792614994 Hartrees.
 IExCor=  402 DFT=T Ex+Corr=B3LYP ExCW=0 ScaHFX=  0.200000
 ScaDFX=  0.800000  0.720000  1.000000  0.810000 ScalE2=  1.000000  1.000000
 IRadAn=      5 IRanWt=     -1 IRanGd=            0 ICorTp=0 IEmpDi=141
 NAtoms=   38 NActive=   38 NUniq=   38 SFac= 1.00D+00 NAtFMM=   60 NAOKFM=F Big=F
 Integral buffers will be    131072 words long.
 Raffenetti 2 integral format.
 Two-electron integral symmetry is turned off.
 R6Disp:  Grimme-D3(BJ) Dispersion energy=       -0.0669663793 Hartrees.
 Nuclear repulsion after empirical dispersion term =     1291.6122951202 Hartrees.
 ------------------------------------------------------------------------------
 Polarizable Continuum Model (PCM)
 =================================
 Model                : PCM.
 Atomic radii         : UFF (Universal Force Field).
 Polarization charges : Total charges.
 Charge compensation  : None.
 Solution method      : On-the-fly selection.
 Cavity type          : Scaled VdW (van der Waals Surface) (Alpha=1.100).
 Cavity algorithm     : GePol (No added spheres)
                        Default sphere list used, NSphG=   38.
                        Lebedev-Laikov grids with approx.  5.0 points / Ang**2.
                        Smoothing algorithm: York/Karplus (Gamma=1.0000).
                        Polarization charges: spherical gaussians, with
                                              point-specific exponents (IZeta= 3).
                        Self-potential: point-specific (ISelfS= 7).
                        Self-field    : sphere-specific E.n sum rule (ISelfD= 2).
 1st derivatives      : Analytical E(r).r(x)/FMM algorithm (CHGder, D1EAlg=3).
                        Cavity 1st derivative terms included.
 Solvent              : Acetonitrile, Eps=  35.688000 Eps(inf)=   1.806874
 ------------------------------------------------------------------------------
 GePol: Number of generator spheres                  =      38
 GePol: Total number of spheres                      =      38
 GePol: Number of exposed spheres                    =      38 (100.00%)
 GePol: Number of points                             =    2608
 GePol: Average weight of points                     =       0.13
 GePol: Minimum weight of points                     =   0.19D-09
 GePol: Maximum weight of points                     =    0.20577
 GePol: Number of points with low weight             =     173
 GePol: Fraction of low-weight points (<1% of avg)   =       6.63%
 GePol: Cavity surface area                          =    344.687 Ang**2
 GePol: Cavity volume                                =    369.435 Ang**3
 Leave Link  301 at Tue Aug 18 12:15:33 2026, MaxMem=  2684354560 cpu:               0.1 elap:               0.1
 (Enter /mnt/data/applications/G16/g16/l302.exe)
 NPDir=0 NMtPBC=     1 NCelOv=     1 NCel=       1 NClECP=     1 NCelD=      1
         NCelK=      1 NCelE2=     1 NClLst=     1 CellRange=     0.0.
 One-electron integrals computed using PRISM.
   1 Symmetry operations used in ECPInt.
 ECPInt:  NShTT=   13695 NPrTT=  100063 LenC2=   12592 LenP2D=   52306.
 LDataN:  DoStor=T MaxTD1= 4 Len=   56
 NBasis=   343 RedAO= T EigKep=  9.91D-04  NBF=   343
 NBsUse=   343 1.00D-06 EigRej= -1.00D+00 NBFU=   343
 Precomputing XC quadrature grid using
 IXCGrd= 4 IRadAn=           5 IRanWt=          -1 IRanGd=           0 AccXCQ= 0.00D+00.
 Generated NRdTot=       0 NPtTot=           0 NUsed=           0 NTot=          32
 NSgBfM=   358   358   358   358   358 MxSgAt=    38 MxSgA2=    38.
 Leave Link  302 at Tue Aug 18 12:15:36 2026, MaxMem=  2684354560 cpu:               3.0 elap:               3.0
 (Enter /mnt/data/applications/G16/g16/l303.exe)
 DipDrv:  MaxL=1.
 Leave Link  303 at Tue Aug 18 12:15:36 2026, MaxMem=  2684354560 cpu:               0.1 elap:               0.1
 (Enter /mnt/data/applications/G16/g16/l401.exe)
 ExpMin= 9.54D-02 ExpMax= 1.17D+04 ExpMxC= 4.01D+02 IAcc=3 IRadAn=         5 AccDes= 0.00D+00
 Harris functional with IExCor=  402 and IRadAn=       5 diagonalized for initial guess.
 HarFok:  IExCor=  402 AccDes= 0.00D+00 IRadAn=         5 IDoV= 1 UseB2=F ITyADJ=14
 ICtDFT=  3500011 ScaDFX=  1.000000  1.000000  1.000000  1.000000
 FoFCou: FMM=F IPFlag=           0 FMFlag=      100000 FMFlg1=           0
         NFxFlg=           0 DoJE=T BraDBF=F KetDBF=T FulRan=T
         wScrn=  0.000000 ICntrl=       500 IOpCl=  0 I1Cent=   200000004 NGrid=           0
         NMat0=    1 NMatS0=      1 NMatT0=    0 NMatD0=    1 NMtDS0=    0 NMtDT0=    0
 Symmetry not used in FoFCou.
 Harris En= -795.945574638951    
 JPrj=0 DoOrth=F DoCkMO=F.
 Leave Link  401 at Tue Aug 18 12:16:10 2026, MaxMem=  2684354560 cpu:              33.9 elap:              34.0
 (Enter /mnt/data/applications/G16/g16/l502.exe)
 Keep R1 ints in memory in canonical form, NReq=1763817827.
 FoFCou: FMM=F IPFlag=           0 FMFlag=           0 FMFlg1=           0
         NFxFlg=           0 DoJE=F BraDBF=F KetDBF=F FulRan=T
         wScrn=  0.000000 ICntrl=       600 IOpCl=  0 I1Cent=           0 NGrid=           0
         NMat0=    1 NMatS0=  58996 NMatT0=    0 NMatD0=    1 NMtDS0=    0 NMtDT0=    0
 Symmetry not used in FoFCou.
 Two-electron integral symmetry not used.
 Closed shell SCF:
 Using DIIS extrapolation, IDIIS=  1040.
 NGot=  2684354560 LenX=   943796544 LenY=   943666503
 Requested convergence on RMS density matrix=1.00D-08 within 128 cycles.
 Requested convergence on MAX density matrix=1.00D-06.
 Requested convergence on             energy=1.00D-06.
 No special actions if energy rises.

 Cycle   1  Pass 1  IDiag  1:
 Inv3:  Mode=1 IEnd=    20404992.
 Iteration    1 A*A^-1 deviation from unit magnitude is 2.22D-15 for    382.
 Iteration    1 A*A^-1 deviation from orthogonality  is 1.27D-15 for   2207   1005.
 Iteration    1 A^-1*A deviation from unit magnitude is 2.22D-15 for    382.
 Iteration    1 A^-1*A deviation from orthogonality  is 8.07D-13 for   2239   2199.
 E= -795.390244713517    
 DIIS: error= 3.31D-02 at cycle   1 NSaved=   1.
 NSaved= 1 IEnMin= 1 EnMin= -795.390244713517     IErMin= 1 ErrMin= 3.31D-02
 ErrMax= 3.31D-02  0.00D+00 EMaxC= 1.00D-01 BMatC= 5.28D-01 BMatP= 5.28D-01
 IDIUse=3 WtCom= 6.69D-01 WtEn= 3.31D-01
 Coeff-Com:  0.100D+01
 Coeff-En:   0.100D+01
 Coeff:      0.100D+01
 Gap=     0.216 Goal=   None    Shift=    0.000
 GapD=    0.216 DampG=1.000 DampE=0.500 DampFc=0.5000 IDamp=-1.
 Damping current iteration by 5.00D-01
 RMSDP=4.10D-03 MaxDP=1.82D-01              OVMax= 1.98D-01

 Cycle   2  Pass 1  IDiag  1:
 E= -795.600613185360     Delta-E=       -0.210368471842 Rises=F Damp=T
 DIIS: error= 1.03D-02 at cycle   2 NSaved=   2.
 NSaved= 2 IEnMin= 2 EnMin= -795.600613185360     IErMin= 2 ErrMin= 1.03D-02
 ErrMax= 1.03D-02  0.00D+00 EMaxC= 1.00D-01 BMatC= 3.42D-02 BMatP= 5.28D-01
 IDIUse=3 WtCom= 8.97D-01 WtEn= 1.03D-01
 Coeff-Com:  0.127D+00 0.873D+00
 Coeff-En:   0.190D+00 0.810D+00
 Coeff:      0.134D+00 0.866D+00
 Gap=     0.232 Goal=   None    Shift=    0.000
 RMSDP=9.51D-04 MaxDP=5.43D-02 DE=-2.10D-01 OVMax= 1.62D-01

 Cycle   3  Pass 1  IDiag  1:
 E= -795.873761545072     Delta-E=       -0.273148359713 Rises=F Damp=F
 DIIS: error= 1.59D-02 at cycle   3 NSaved=   3.
 NSaved= 3 IEnMin= 3 EnMin= -795.873761545072     IErMin= 2 ErrMin= 1.03D-02
 ErrMax= 1.59D-02  0.00D+00 EMaxC= 1.00D-01 BMatC= 3.77D-02 BMatP= 3.42D-02
 IDIUse=2 WtCom= 0.00D+00 WtEn= 1.00D+00
 Coeff-En:   0.000D+00 0.000D+00 0.100D+01
 Coeff:      0.000D+00 0.000D+00 0.100D+01
 Gap=     0.229 Goal=   None    Shift=    0.000
 RMSDP=1.33D-03 MaxDP=1.23D-01 DE=-2.73D-01 OVMax= 1.49D-01

 Cycle   4  Pass 1  IDiag  1:
 E= -795.759118780149     Delta-E=        0.114642764923 Rises=F Damp=F
 DIIS: error= 3.84D-02 at cycle   4 NSaved=   4.
 NSaved= 4 IEnMin= 3 EnMin= -795.873761545072     IErMin= 2 ErrMin= 1.03D-02
 ErrMax= 3.84D-02  0.00D+00 EMaxC= 1.00D-01 BMatC= 1.86D-01 BMatP= 3.42D-02
 IDIUse=2 WtCom= 0.00D+00 WtEn= 1.00D+00
 Coeff-En:   0.000D+00 0.000D+00 0.775D+00 0.225D+00
 Coeff:      0.000D+00 0.000D+00 0.775D+00 0.225D+00
 Gap=     0.218 Goal=   None    Shift=    0.000
 RMSDP=7.13D-04 MaxDP=6.68D-02 DE= 1.15D-01 OVMax= 8.46D-02

 Cycle   5  Pass 1  IDiag  1:
 E= -795.895831845542     Delta-E=       -0.136713065393 Rises=F Damp=F
 DIIS: error= 8.53D-03 at cycle   5 NSaved=   5.
 NSaved= 5 IEnMin= 5 EnMin= -795.895831845542     IErMin= 5 ErrMin= 8.53D-03
 ErrMax= 8.53D-03  0.00D+00 EMaxC= 1.00D-01 BMatC= 1.11D-02 BMatP= 3.42D-02
 IDIUse=3 WtCom= 9.15D-01 WtEn= 8.53D-02
 Coeff-Com:  0.260D-02 0.121D-01 0.348D+00-0.265D-02 0.640D+00
 Coeff-En:   0.000D+00 0.000D+00 0.269D+00 0.000D+00 0.731D+00
 Coeff:      0.238D-02 0.110D-01 0.341D+00-0.242D-02 0.648D+00
 Gap=     0.227 Goal=   None    Shift=    0.000
 RMSDP=2.37D-04 MaxDP=1.91D-02 DE=-1.37D-01 OVMax= 2.44D-02

 Cycle   6  Pass 1  IDiag  1:
 E= -795.904756902625     Delta-E=       -0.008925057084 Rises=F Damp=F
 DIIS: error= 4.40D-04 at cycle   6 NSaved=   6.
 NSaved= 6 IEnMin= 6 EnMin= -795.904756902625     IErMin= 6 ErrMin= 4.40D-04
 ErrMax= 4.40D-04  0.00D+00 EMaxC= 1.00D-01 BMatC= 9.78D-05 BMatP= 1.11D-02
 IDIUse=3 WtCom= 9.96D-01 WtEn= 4.40D-03
 Coeff-Com: -0.173D-02 0.144D-02 0.124D+00-0.317D-01 0.373D+00 0.535D+00
 Coeff-En:   0.000D+00 0.000D+00 0.000D+00 0.000D+00 0.000D+00 0.100D+01
 Coeff:     -0.172D-02 0.143D-02 0.123D+00-0.316D-01 0.371D+00 0.537D+00
 Gap=     0.222 Goal=   None    Shift=    0.000
 RMSDP=2.69D-05 MaxDP=1.80D-03 DE=-8.93D-03 OVMax= 3.81D-03

 Cycle   7  Pass 1  IDiag  1:
 E= -795.904835902932     Delta-E=       -0.000079000306 Rises=F Damp=F
 DIIS: error= 1.02D-04 at cycle   7 NSaved=   7.
 NSaved= 7 IEnMin= 7 EnMin= -795.904835902932     IErMin= 7 ErrMin= 1.02D-04
 ErrMax= 1.02D-04  0.00D+00 EMaxC= 1.00D-01 BMatC= 4.57D-06 BMatP= 9.78D-05
 IDIUse=3 WtCom= 9.99D-01 WtEn= 1.02D-03
 Coeff-Com: -0.111D-02 0.108D-02 0.458D-01-0.194D-01 0.167D+00 0.283D+00
 Coeff-Com:  0.524D+00
 Coeff-En:   0.000D+00 0.000D+00 0.000D+00 0.000D+00 0.000D+00 0.000D+00
 Coeff-En:   0.100D+01
 Coeff:     -0.111D-02 0.108D-02 0.458D-01-0.194D-01 0.167D+00 0.282D+00
 Coeff:      0.525D+00
 Gap=     0.222 Goal=   None    Shift=    0.000
 RMSDP=6.21D-06 MaxDP=4.68D-04 DE=-7.90D-05 OVMax= 8.85D-04

 Cycle   8  Pass 1  IDiag  1:
 E= -795.904840039406     Delta-E=       -0.000004136474 Rises=F Damp=F
 DIIS: error= 3.39D-05 at cycle   8 NSaved=   8.
 NSaved= 8 IEnMin= 8 EnMin= -795.904840039406     IErMin= 8 ErrMin= 3.39D-05
 ErrMax= 3.39D-05  0.00D+00 EMaxC= 1.00D-01 BMatC= 3.70D-07 BMatP= 4.57D-06
 IDIUse=1 WtCom= 1.00D+00 WtEn= 0.00D+00
 Coeff-Com: -0.421D-03 0.509D-03 0.165D-01-0.818D-02 0.631D-01 0.110D+00
 Coeff-Com:  0.271D+00 0.547D+00
 Coeff:     -0.421D-03 0.509D-03 0.165D-01-0.818D-02 0.631D-01 0.110D+00
 Coeff:      0.271D+00 0.547D+00
 Gap=     0.222 Goal=   None    Shift=    0.000
 RMSDP=1.87D-06 MaxDP=1.43D-04 DE=-4.14D-06 OVMax= 3.23D-04

 Cycle   9  Pass 1  IDiag  1:
 E= -795.904840346609     Delta-E=       -0.000000307203 Rises=F Damp=F
 DIIS: error= 9.41D-06 at cycle   9 NSaved=   9.
 NSaved= 9 IEnMin= 9 EnMin= -795.904840346609     IErMin= 9 ErrMin= 9.41D-06
 ErrMax= 9.41D-06  0.00D+00 EMaxC= 1.00D-01 BMatC= 3.78D-08 BMatP= 3.70D-07
 IDIUse=1 WtCom= 1.00D+00 WtEn= 0.00D+00
 Coeff-Com: -0.322D-04-0.175D-04 0.138D-02-0.109D-02 0.574D-02 0.993D-02
 Coeff-Com:  0.411D-01 0.258D+00 0.685D+00
 Coeff:     -0.322D-04-0.175D-04 0.138D-02-0.109D-02 0.574D-02 0.993D-02
 Coeff:      0.411D-01 0.258D+00 0.685D+00
 Gap=     0.222 Goal=   None    Shift=    0.000
 RMSDP=5.40D-07 MaxDP=3.34D-05 DE=-3.07D-07 OVMax= 6.94D-05

 Cycle  10  Pass 1  IDiag  1:
 E= -795.904840380180     Delta-E=       -0.000000033571 Rises=F Damp=F
 DIIS: error= 1.54D-06 at cycle  10 NSaved=  10.
 NSaved=10 IEnMin=10 EnMin= -795.904840380180     IErMin=10 ErrMin= 1.54D-06
 ErrMax= 1.54D-06  0.00D+00 EMaxC= 1.00D-01 BMatC= 2.32D-09 BMatP= 3.78D-08
 IDIUse=1 WtCom= 1.00D+00 WtEn= 0.00D+00
 Coeff-Com:  0.154D-06-0.278D-04 0.130D-03-0.252D-03 0.669D-03 0.117D-02
 Coeff-Com:  0.929D-02 0.114D+00 0.350D+00 0.525D+00
 Coeff:      0.154D-06-0.278D-04 0.130D-03-0.252D-03 0.669D-03 0.117D-02
 Coeff:      0.929D-02 0.114D+00 0.350D+00 0.525D+00
 Gap=     0.222 Goal=   None    Shift=    0.000
 RMSDP=1.50D-07 MaxDP=8.26D-06 DE=-3.36D-08 OVMax= 1.85D-05

 Cycle  11  Pass 1  IDiag  1:
 E= -795.904840382174     Delta-E=       -0.000000001994 Rises=F Damp=F
 DIIS: error= 6.32D-07 at cycle  11 NSaved=  11.
 NSaved=11 IEnMin=11 EnMin= -795.904840382174     IErMin=11 ErrMin= 6.32D-07
 ErrMax= 6.32D-07  0.00D+00 EMaxC= 1.00D-01 BMatC= 2.55D-10 BMatP= 2.32D-09
 IDIUse=1 WtCom= 1.00D+00 WtEn= 0.00D+00
 Coeff-Com:  0.423D-05-0.135D-04-0.164D-03 0.464D-04-0.577D-03-0.816D-03
 Coeff-Com: -0.232D-02 0.214D-01 0.682D-01 0.262D+00 0.652D+00
 Coeff:      0.423D-05-0.135D-04-0.164D-03 0.464D-04-0.577D-03-0.816D-03
 Coeff:     -0.232D-02 0.214D-01 0.682D-01 0.262D+00 0.652D+00
 Gap=     0.222 Goal=   None    Shift=    0.000
 RMSDP=4.11D-08 MaxDP=2.42D-06 DE=-1.99D-09 OVMax= 3.81D-06

 Cycle  12  Pass 1  IDiag  1:
 E= -795.904840382378     Delta-E=       -0.000000000204 Rises=F Damp=F
 DIIS: error= 3.00D-07 at cycle  12 NSaved=  12.
 NSaved=12 IEnMin=12 EnMin= -795.904840382378     IErMin=12 ErrMin= 3.00D-07
 ErrMax= 3.00D-07  0.00D+00 EMaxC= 1.00D-01 BMatC= 2.54D-11 BMatP= 2.55D-10
 IDIUse=1 WtCom= 1.00D+00 WtEn= 0.00D+00
 Coeff-Com:  0.140D-05-0.465D-05-0.895D-04 0.326D-04-0.303D-03-0.367D-03
 Coeff-Com: -0.168D-02 0.643D-02 0.153D-01 0.114D+00 0.337D+00 0.530D+00
 Coeff:      0.140D-05-0.465D-05-0.895D-04 0.326D-04-0.303D-03-0.367D-03
 Coeff:     -0.168D-02 0.643D-02 0.153D-01 0.114D+00 0.337D+00 0.530D+00
 Gap=     0.222 Goal=   None    Shift=    0.000
 RMSDP=1.30D-08 MaxDP=7.56D-07 DE=-2.04D-10 OVMax= 8.14D-07

 Cycle  13  Pass 1  IDiag  1:
 E= -795.904840382394     Delta-E=       -0.000000000016 Rises=F Damp=F
 DIIS: error= 1.07D-07 at cycle  13 NSaved=  13.
 NSaved=13 IEnMin=13 EnMin= -795.904840382394     IErMin=13 ErrMin= 1.07D-07
 ErrMax= 1.07D-07  0.00D+00 EMaxC= 1.00D-01 BMatC= 2.80D-12 BMatP= 2.54D-11
 IDIUse=1 WtCom= 1.00D+00 WtEn= 0.00D+00
 Coeff-Com: -0.165D-06 0.305D-06-0.190D-04 0.875D-05-0.559D-04-0.170D-04
 Coeff-Com: -0.474D-03 0.211D-03-0.443D-02 0.124D-01 0.437D-01 0.229D+00
 Coeff-Com:  0.720D+00
 Coeff:     -0.165D-06 0.305D-06-0.190D-04 0.875D-05-0.559D-04-0.170D-04
 Coeff:     -0.474D-03 0.211D-03-0.443D-02 0.124D-01 0.437D-01 0.229D+00
 Coeff:      0.720D+00
 Gap=     0.222 Goal=   None    Shift=    0.000
 RMSDP=4.54D-09 MaxDP=2.03D-07 DE=-1.59D-11 OVMax= 3.58D-07

 Error on total polarization charges =  0.01354
 SCF Done:  E(RB3LYP) =  -795.904840382     A.U. after   13 cycles
            NFock= 13  Conv=0.45D-08     -V/T= 2.0070
 KE= 7.903970259322D+02 PE=-4.440300561055D+03 EE= 1.562386399621D+03
 Leave Link  502 at Tue Aug 18 12:31:07 2026, MaxMem=  2684354560 cpu:             894.9 elap:             896.5
 (Enter /mnt/data/applications/G16/g16/l601.exe)
 Copying SCF densities to generalized density rwf, IOpCl= 0 IROHF=0.

 **********************************************************************

            Population analysis using the SCF density.

 **********************************************************************

 Alpha  occ. eigenvalues --  -19.18638 -19.14186 -19.14089 -19.13213 -10.31584
 Alpha  occ. eigenvalues --  -10.24779 -10.24712 -10.24416 -10.19824 -10.19501
 Alpha  occ. eigenvalues --  -10.19253 -10.18621 -10.18044 -10.18044 -10.17955
 Alpha  occ. eigenvalues --  -10.17438  -6.78565  -1.10645  -1.05992  -1.01719
 Alpha  occ. eigenvalues --   -0.99298  -0.81522  -0.80318  -0.77539  -0.75120
 Alpha  occ. eigenvalues --   -0.71467  -0.70515  -0.67702  -0.64773  -0.62068
 Alpha  occ. eigenvalues --   -0.58515  -0.55630  -0.55398  -0.53242  -0.51006
 Alpha  occ. eigenvalues --   -0.49207  -0.47810  -0.46705  -0.46442  -0.44864
 Alpha  occ. eigenvalues --   -0.43591  -0.42968  -0.42631  -0.41676  -0.41346
 Alpha  occ. eigenvalues --   -0.40179  -0.39686  -0.39667  -0.39355  -0.39227
 Alpha  occ. eigenvalues --   -0.37771  -0.37654  -0.36733  -0.36541  -0.36109
 Alpha  occ. eigenvalues --   -0.35243  -0.34791  -0.33517  -0.33367  -0.32898
 Alpha  occ. eigenvalues --   -0.30986  -0.30503  -0.28011  -0.27270  -0.26881
 Alpha virt. eigenvalues --   -0.04720   0.04718   0.05627   0.06891   0.07738
 Alpha virt. eigenvalues --    0.07950   0.08771   0.09590   0.10015   0.10379
 Alpha virt. eigenvalues --    0.11164   0.11487   0.11675   0.12001   0.12670
 Alpha virt. eigenvalues --    0.13563   0.13754   0.14007   0.14440   0.15314
 Alpha virt. eigenvalues --    0.15896   0.16036   0.16277   0.16448   0.17697
 Alpha virt. eigenvalues --    0.18840   0.20463   0.20922   0.21844   0.22121
 Alpha virt. eigenvalues --    0.22699   0.23624   0.24148   0.26411   0.26836
 Alpha virt. eigenvalues --    0.27480   0.29166   0.31285   0.31482   0.33942
 Alpha virt. eigenvalues --    0.37698   0.39493   0.39791   0.41018   0.41846
 Alpha virt. eigenvalues --    0.42387   0.42598   0.43490   0.44502   0.45908
 Alpha virt. eigenvalues --    0.46784   0.48199   0.48884   0.49031   0.49373
 Alpha virt. eigenvalues --    0.50301   0.50461   0.53158   0.53443   0.55081
 Alpha virt. eigenvalues --    0.55656   0.56075   0.56811   0.57933   0.58418
 Alpha virt. eigenvalues --    0.58956   0.59452   0.59768   0.61409   0.61460
 Alpha virt. eigenvalues --    0.62068   0.62422   0.62586   0.62938   0.63917
 Alpha virt. eigenvalues --    0.64268   0.64766   0.64922   0.65420   0.65613
 Alpha virt. eigenvalues --    0.65907   0.66329   0.66610   0.67597   0.67802
 Alpha virt. eigenvalues --    0.68303   0.68710   0.68996   0.70596   0.71029
 Alpha virt. eigenvalues --    0.71988   0.72521   0.73397   0.74271   0.75754
 Alpha virt. eigenvalues --    0.76350   0.78099   0.78883   0.79185   0.81872
 Alpha virt. eigenvalues --    0.82728   0.84160   0.85861   0.88836   0.89463
 Alpha virt. eigenvalues --    0.90436   0.91472   0.91887   0.93635   0.97120
 Alpha virt. eigenvalues --    0.97626   1.00259   1.00512   1.02839   1.04830
 Alpha virt. eigenvalues --    1.05301   1.07217   1.10198   1.11682   1.13787
 Alpha virt. eigenvalues --    1.14456   1.15506   1.16432   1.18617   1.20019
 Alpha virt. eigenvalues --    1.20378   1.21098   1.22537   1.24642   1.26516
 Alpha virt. eigenvalues --    1.27230   1.28721   1.29374   1.29977   1.31486
 Alpha virt. eigenvalues --    1.32336   1.33832   1.34780   1.35404   1.36136
 Alpha virt. eigenvalues --    1.37761   1.39147   1.40522   1.41086   1.41511
 Alpha virt. eigenvalues --    1.41577   1.43115   1.43913   1.44810   1.45587
 Alpha virt. eigenvalues --    1.46277   1.48428   1.49559   1.51539   1.52869
 Alpha virt. eigenvalues --    1.53594   1.55175   1.56108   1.56727   1.57579
 Alpha virt. eigenvalues --    1.59205   1.59566   1.60507   1.60947   1.61162
 Alpha virt. eigenvalues --    1.61982   1.63195   1.63481   1.63638   1.64069
 Alpha virt. eigenvalues --    1.64640   1.64945   1.65593   1.67211   1.68396
 Alpha virt. eigenvalues --    1.69332   1.69459   1.69679   1.71419   1.72072
 Alpha virt. eigenvalues --    1.72803   1.73118   1.74773   1.75381   1.76380
 Alpha virt. eigenvalues --    1.76579   1.77699   1.77921   1.79296   1.80304
 Alpha virt. eigenvalues --    1.80841   1.81981   1.82727   1.83407   1.84367
 Alpha virt. eigenvalues --    1.85798   1.87493   1.87948   1.88314   1.90272
 Alpha virt. eigenvalues --    1.92601   1.93897   1.94270   1.94875   1.99332
 Alpha virt. eigenvalues --    1.99935   2.00043   2.00655   2.02472   2.03006
 Alpha virt. eigenvalues --    2.03688   2.05980   2.08581   2.08880   2.10590
 Alpha virt. eigenvalues --    2.11611   2.14049   2.15053   2.16082   2.18009
 Alpha virt. eigenvalues --    2.18281   2.19912   2.20434   2.23934   2.24499
 Alpha virt. eigenvalues --    2.25402   2.26350   2.28819   2.29921   2.31985
 Alpha virt. eigenvalues --    2.32653   2.34357   2.36202   2.36976   2.39709
 Alpha virt. eigenvalues --    2.40776   2.40970   2.42192   2.42662   2.43664
 Alpha virt. eigenvalues --    2.44310   2.45681   2.46660   2.47393   2.48544
 Alpha virt. eigenvalues --    2.48986   2.49593   2.49810   2.51161   2.53789
 Alpha virt. eigenvalues --    2.54006   2.55827   2.56130   2.56564   2.57564
 Alpha virt. eigenvalues --    2.60111   2.64307   2.65013   2.73606   2.75800
 Alpha virt. eigenvalues --    2.87332   2.88889   2.90910   2.91699   2.97074
 Alpha virt. eigenvalues --    2.98323   3.00962   3.06072   3.15858   3.17322
 Alpha virt. eigenvalues --    3.19091   3.22869   3.35537   3.39570   3.40834
 Alpha virt. eigenvalues --    3.44272   3.54378   3.58191
          Condensed to atoms (all electrons):
               1          2          3          4          5          6
     1  C    4.821371   0.599353  -0.030642   0.437634  -0.010294  -0.011023
     2  C    0.599353   4.959476   0.366616  -0.045429  -0.013539   0.001061
     3  H   -0.030642   0.366616   0.710073  -0.017483   0.007584   0.000146
     4  C    0.437634  -0.045429  -0.017483   4.544603   0.377508   0.370899
     5  H   -0.010294  -0.013539   0.007584   0.377508   0.664431  -0.027425
     6  H   -0.011023   0.001061   0.000146   0.370899  -0.027425   0.643853
     7  H   -0.011048   0.000433   0.000123   0.372309  -0.027261  -0.027916
     8  C   -0.031549   0.362686  -0.043856   0.008240   0.000333  -0.000231
     9  O   -0.007609  -0.068083   0.003848   0.000430  -0.000009   0.000024
    10  O    0.001228  -0.050289   0.007529  -0.000050  -0.000009   0.000003
    11  C   -0.000170   0.007745  -0.000851   0.000002   0.000002  -0.000000
    12  H    0.000064   0.001033   0.000030   0.000000  -0.000000   0.000000
    13  H    0.000059   0.001076   0.000031   0.000000  -0.000000  -0.000000
    14  B    0.347928  -0.042637   0.011976  -0.053786   0.003686  -0.000143
    15  O   -0.015343   0.000210  -0.000051  -0.000004  -0.000009  -0.000325
    16  O   -0.014054   0.000159  -0.000052  -0.000894  -0.000024   0.001489
    17  C    0.001909   0.000156   0.000008  -0.000348   0.000010  -0.000074
    18  C    0.002052  -0.000150   0.000010  -0.000075   0.000014  -0.000163
    19  C    0.000011  -0.000102   0.000002   0.000014  -0.000000  -0.000003
    20  C    0.000133  -0.000001  -0.000000   0.000009  -0.000001   0.000006
    21  C   -0.000257  -0.000010  -0.000000   0.000074  -0.000002   0.000119
    22  C    0.000098  -0.000018  -0.000000   0.000004  -0.000000   0.000006
    23  H    0.000087   0.000307  -0.000023   0.000004  -0.000000  -0.000001
    24  H   -0.000237   0.000027   0.000000  -0.000004  -0.000000   0.000000
    25  H   -0.000001  -0.000002   0.000000   0.000000  -0.000000   0.000000
    26  H   -0.000041  -0.000002  -0.000000   0.000001   0.000000  -0.000011
    27  H    0.000004   0.000000   0.000000  -0.000000   0.000000  -0.000000
    28  H   -0.000063   0.000001   0.000000  -0.000003  -0.000000   0.000000
    29  H   -0.000228   0.000001   0.000000  -0.000033  -0.000001   0.000103
    30  H    0.000009   0.000001   0.000000  -0.000006   0.000000   0.000004
    31  H   -0.000029  -0.000019  -0.000001   0.000329  -0.000003   0.000305
    32  H   -0.000063   0.000003   0.000000  -0.000002  -0.000000   0.000000
    33  H   -0.000017  -0.000007   0.000000   0.000002  -0.000000  -0.000000
    34  H    0.000004   0.000000   0.000000  -0.000000   0.000000  -0.000001
    35  C    0.000006  -0.000002  -0.000123  -0.000000   0.000000  -0.000000
    36  H    0.000002  -0.000030   0.000051  -0.000000  -0.000000  -0.000000
    37  H   -0.000000   0.000021   0.000003   0.000000  -0.000000  -0.000000
    38  H    0.000002  -0.000030   0.000050  -0.000000  -0.000000   0.000000
               7          8          9         10         11         12
     1  C   -0.011048  -0.031549  -0.007609   0.001228  -0.000170   0.000064
     2  C    0.000433   0.362686  -0.068083  -0.050289   0.007745   0.001033
     3  H    0.000123  -0.043856   0.003848   0.007529  -0.000851   0.000030
     4  C    0.372309   0.008240   0.000430  -0.000050   0.000002   0.000000
     5  H   -0.027261   0.000333  -0.000009  -0.000009   0.000002  -0.000000
     6  H   -0.027916  -0.000231   0.000024   0.000003  -0.000000   0.000000
     7  H    0.643264  -0.000214   0.000022   0.000003  -0.000000  -0.000000
     8  C   -0.000214   4.485831   0.648802   0.401488  -0.049662  -0.001360
     9  O    0.000022   0.648802   7.686980  -0.054895   0.000359   0.007754
    10  O    0.000003   0.401488  -0.054895   7.762892   0.287372  -0.029397
    11  C   -0.000000  -0.049662   0.000359   0.287372   4.485215   0.381121
    12  H   -0.000000  -0.001360   0.007754  -0.029397   0.381121   0.683463
    13  H    0.000000  -0.001365   0.008017  -0.029444   0.381010  -0.047622
    14  B   -0.000920  -0.045890   0.059552   0.000896  -0.000288   0.000043
    15  O    0.001626  -0.000532  -0.002203  -0.000001   0.000001  -0.000001
    16  O   -0.000366   0.000027  -0.003276  -0.000001   0.000002   0.000001
    17  C   -0.000014  -0.000124  -0.002132  -0.000001   0.000001  -0.000002
    18  C   -0.000133  -0.000116  -0.000546  -0.000000  -0.000000   0.000000
    19  C    0.000015   0.000042  -0.004040  -0.000001  -0.000012   0.000001
    20  C   -0.000001  -0.000000  -0.000008  -0.000000   0.000000  -0.000000
    21  C    0.000009   0.000001   0.000000   0.000000   0.000000   0.000000
    22  C   -0.000002   0.000018  -0.000006  -0.000000   0.000000   0.000000
    23  H    0.000001   0.000051   0.017938   0.000003   0.000068   0.000080
    24  H   -0.000001  -0.000026   0.000015  -0.000000  -0.000002   0.000005
    25  H   -0.000000  -0.000005   0.000072   0.000000   0.000000   0.000000
    26  H    0.000064   0.000001   0.000001   0.000000  -0.000000  -0.000000
    27  H   -0.000000   0.000000   0.000000   0.000000  -0.000000   0.000000
    28  H   -0.000001  -0.000001  -0.000002  -0.000000  -0.000000  -0.000000
    29  H   -0.000010  -0.000002  -0.000000   0.000000  -0.000000   0.000000
    30  H   -0.000005  -0.000000   0.000000   0.000000  -0.000000  -0.000000
    31  H    0.000111   0.000005   0.000003   0.000000  -0.000000   0.000000
    32  H    0.000000  -0.000003  -0.000001  -0.000000  -0.000000   0.000000
    33  H    0.000000   0.000019  -0.000029  -0.000000  -0.000001  -0.000002
    34  H    0.000000  -0.000001  -0.000002  -0.000000   0.000000  -0.000000
    35  C   -0.000000   0.002380   0.001129  -0.033018   0.452205  -0.026230
    36  H    0.000000   0.000259  -0.000020   0.002689  -0.019475  -0.010382
    37  H   -0.000000  -0.000007   0.000037   0.002896  -0.011436  -0.001302
    38  H   -0.000000   0.000257  -0.000020   0.002703  -0.019590   0.008800
              13         14         15         16         17         18
     1  C    0.000059   0.347928  -0.015343  -0.014054   0.001909   0.002052
     2  C    0.001076  -0.042637   0.000210   0.000159   0.000156  -0.000150
     3  H    0.000031   0.011976  -0.000051  -0.000052   0.000008   0.000010
     4  C    0.000000  -0.053786  -0.000004  -0.000894  -0.000348  -0.000075
     5  H   -0.000000   0.003686  -0.000009  -0.000024   0.000010   0.000014
     6  H   -0.000000  -0.000143  -0.000325   0.001489  -0.000074  -0.000163
     7  H    0.000000  -0.000920   0.001626  -0.000366  -0.000014  -0.000133
     8  C   -0.001365  -0.045890  -0.000532   0.000027  -0.000124  -0.000116
     9  O    0.008017   0.059552  -0.002203  -0.003276  -0.002132  -0.000546
    10  O   -0.029444   0.000896  -0.000001  -0.000001  -0.000001  -0.000000
    11  C    0.381010  -0.000288   0.000001   0.000002   0.000001  -0.000000
    12  H   -0.047622   0.000043  -0.000001   0.000001  -0.000002   0.000000
    13  H    0.683644   0.000050   0.000001  -0.000002   0.000001  -0.000001
    14  B    0.000050   3.689209   0.534150   0.530183  -0.113009  -0.114634
    15  O    0.000001   0.534150   7.593325  -0.021854   0.262736  -0.058304
    16  O   -0.000002   0.530183  -0.021854   7.597157  -0.055182   0.259116
    17  C    0.000001  -0.113009   0.262736  -0.055182   4.988809   0.298885
    18  C   -0.000001  -0.114634  -0.058304   0.259116   0.298885   4.995965
    19  C   -0.000006   0.008406  -0.038894   0.000977   0.423769  -0.055978
    20  C    0.000000   0.000488  -0.032251   0.003022   0.446079  -0.050858
    21  C   -0.000000   0.008421   0.000556  -0.039142  -0.054640   0.422871
    22  C   -0.000000   0.000941   0.002883  -0.031671  -0.051287   0.445655
    23  H    0.000039   0.002783  -0.003796   0.001169  -0.002399  -0.008089
    24  H   -0.000001  -0.000324   0.001998  -0.000195  -0.011396   0.007990
    25  H   -0.000001  -0.001065   0.004258  -0.000114  -0.010419  -0.007633
    26  H   -0.000000   0.002258   0.000841  -0.000048   0.000074  -0.014603
    27  H   -0.000000   0.000683   0.003563   0.000020  -0.012326  -0.002074
    28  H    0.000000  -0.001136   0.000132  -0.000138  -0.009624   0.007956
    29  H   -0.000000  -0.001006  -0.000209   0.002417   0.007887  -0.011089
    30  H   -0.000000  -0.001045  -0.000096   0.004295  -0.006826  -0.009558
    31  H   -0.000000   0.007390   0.001992  -0.003407  -0.008650  -0.005790
    32  H    0.000000  -0.001100  -0.000141   0.000136   0.007893  -0.010131
    33  H    0.000005   0.001974  -0.000019   0.000613  -0.014045   0.000199
    34  H    0.000000   0.000565   0.000018   0.003606  -0.002351  -0.012655
    35  C   -0.026297  -0.000012   0.000000   0.000000   0.000000  -0.000000
    36  H    0.008792   0.000001   0.000000  -0.000000   0.000000  -0.000000
    37  H   -0.001313  -0.000000   0.000000   0.000000   0.000000   0.000000
    38  H   -0.010407   0.000001  -0.000000   0.000000  -0.000000   0.000000
              19         20         21         22         23         24
     1  C    0.000011   0.000133  -0.000257   0.000098   0.000087  -0.000237
     2  C   -0.000102  -0.000001  -0.000010  -0.000018   0.000307   0.000027
     3  H    0.000002  -0.000000  -0.000000  -0.000000  -0.000023   0.000000
     4  C    0.000014   0.000009   0.000074   0.000004   0.000004  -0.000004
     5  H   -0.000000  -0.000001  -0.000002  -0.000000  -0.000000  -0.000000
     6  H   -0.000003   0.000006   0.000119   0.000006  -0.000001   0.000000
     7  H    0.000015  -0.000001   0.000009  -0.000002   0.000001  -0.000001
     8  C    0.000042  -0.000000   0.000001   0.000018   0.000051  -0.000026
     9  O   -0.004040  -0.000008   0.000000  -0.000006   0.017938   0.000015
    10  O   -0.000001  -0.000000   0.000000  -0.000000   0.000003  -0.000000
    11  C   -0.000012   0.000000   0.000000   0.000000   0.000068  -0.000002
    12  H    0.000001  -0.000000   0.000000   0.000000   0.000080   0.000005
    13  H   -0.000006   0.000000  -0.000000  -0.000000   0.000039  -0.000001
    14  B    0.008406   0.000488   0.008421   0.000941   0.002783  -0.000324
    15  O   -0.038894  -0.032251   0.000556   0.002883  -0.003796   0.001998
    16  O    0.000977   0.003022  -0.039142  -0.031671   0.001169  -0.000195
    17  C    0.423769   0.446079  -0.054640  -0.051287  -0.002399  -0.011396
    18  C   -0.055978  -0.050858   0.422871   0.445655  -0.008089   0.007990
    19  C    4.555261  -0.059627   0.007190  -0.002973   0.367939   0.366525
    20  C   -0.059627   4.516036  -0.001642   0.003390   0.006612  -0.008617
    21  C    0.007190  -0.001642   4.533548  -0.058752   0.000042  -0.000324
    22  C   -0.002973   0.003390  -0.058752   4.511402  -0.000594   0.000242
    23  H    0.367939   0.006612   0.000042  -0.000594   0.634839  -0.025754
    24  H    0.366525  -0.008617  -0.000324   0.000242  -0.025754   0.674719
    25  H    0.364568  -0.001345  -0.000262   0.007244  -0.027612  -0.025190
    26  H    0.007821   0.363053   0.009565  -0.000187  -0.000508   0.000029
    27  H   -0.000101   0.369163  -0.000748  -0.000312   0.000044  -0.000369
    28  H   -0.008251   0.369523  -0.000100  -0.000286   0.000132   0.005236
    29  H   -0.000331   0.000250   0.367518  -0.008044  -0.000026   0.000017
    30  H   -0.000248   0.006532   0.365549  -0.001133  -0.000001   0.000006
    31  H    0.000136  -0.000792   0.374703   0.007242   0.000046  -0.000030
    32  H   -0.000091  -0.000298  -0.008045   0.369535  -0.000042  -0.000021
    33  H    0.010877  -0.000064   0.007512   0.364385   0.000992  -0.000087
    34  H   -0.000572  -0.000348  -0.000158   0.369464   0.000107   0.000006
    35  C   -0.000000   0.000000  -0.000000  -0.000000   0.000002  -0.000000
    36  H    0.000000   0.000000  -0.000000  -0.000000  -0.000000  -0.000000
    37  H    0.000000   0.000000   0.000000   0.000000   0.000000  -0.000000
    38  H    0.000000  -0.000000   0.000000   0.000000  -0.000000   0.000000
              25         26         27         28         29         30
     1  C   -0.000001  -0.000041   0.000004  -0.000063  -0.000228   0.000009
     2  C   -0.000002  -0.000002   0.000000   0.000001   0.000001   0.000001
     3  H    0.000000  -0.000000   0.000000   0.000000   0.000000   0.000000
     4  C    0.000000   0.000001  -0.000000  -0.000003  -0.000033  -0.000006
     5  H   -0.000000   0.000000   0.000000  -0.000000  -0.000001   0.000000
     6  H    0.000000  -0.000011  -0.000000   0.000000   0.000103   0.000004
     7  H   -0.000000   0.000064  -0.000000  -0.000001  -0.000010  -0.000005
     8  C   -0.000005   0.000001   0.000000  -0.000001  -0.000002  -0.000000
     9  O    0.000072   0.000001   0.000000  -0.000002  -0.000000   0.000000
    10  O    0.000000   0.000000   0.000000  -0.000000   0.000000   0.000000
    11  C    0.000000  -0.000000  -0.000000  -0.000000  -0.000000  -0.000000
    12  H    0.000000  -0.000000   0.000000  -0.000000   0.000000  -0.000000
    13  H   -0.000001  -0.000000  -0.000000   0.000000  -0.000000  -0.000000
    14  B   -0.001065   0.002258   0.000683  -0.001136  -0.001006  -0.001045
    15  O    0.004258   0.000841   0.003563   0.000132  -0.000209  -0.000096
    16  O   -0.000114  -0.000048   0.000020  -0.000138   0.002417   0.004295
    17  C   -0.010419   0.000074  -0.012326  -0.009624   0.007887  -0.006826
    18  C   -0.007633  -0.014603  -0.002074   0.007956  -0.011089  -0.009558
    19  C    0.364568   0.007821  -0.000101  -0.008251  -0.000331  -0.000248
    20  C   -0.001345   0.363053   0.369163   0.369523   0.000250   0.006532
    21  C   -0.000262   0.009565  -0.000748  -0.000100   0.367518   0.365549
    22  C    0.007244  -0.000187  -0.000312  -0.000286  -0.008044  -0.001133
    23  H   -0.027612  -0.000508   0.000044   0.000132  -0.000026  -0.000001
    24  H   -0.025190   0.000029  -0.000369   0.005236   0.000017   0.000006
    25  H    0.676864  -0.000021   0.001803  -0.000291   0.000005  -0.000023
    26  H   -0.000021   0.664520  -0.025896  -0.027799  -0.000066  -0.000394
    27  H    0.001803  -0.025896   0.659900  -0.025679   0.000002   0.000203
    28  H   -0.000291  -0.027799  -0.025679   0.669472  -0.000020   0.000166
    29  H    0.000005  -0.000066   0.000002  -0.000020   0.668463  -0.024073
    30  H   -0.000023  -0.000394   0.000203   0.000166  -0.024073   0.669980
    31  H   -0.000006   0.001183   0.000148  -0.000090  -0.027449  -0.028940
    32  H    0.000171  -0.000004  -0.000107   0.000023   0.005151  -0.000232
    33  H   -0.000628  -0.000022  -0.000080  -0.000004  -0.000000  -0.000031
    34  H    0.000069  -0.000065   0.001464  -0.000108  -0.000370   0.001684
    35  C    0.000000  -0.000000  -0.000000  -0.000000  -0.000000  -0.000000
    36  H   -0.000000   0.000000  -0.000000   0.000000  -0.000000   0.000000
    37  H   -0.000000  -0.000000  -0.000000   0.000000  -0.000000  -0.000000
    38  H    0.000000  -0.000000   0.000000  -0.000000   0.000000   0.000000
              31         32         33         34         35         36
     1  C   -0.000029  -0.000063  -0.000017   0.000004   0.000006   0.000002
     2  C   -0.000019   0.000003  -0.000007   0.000000  -0.000002  -0.000030
     3  H   -0.000001   0.000000   0.000000   0.000000  -0.000123   0.000051
     4  C    0.000329  -0.000002   0.000002  -0.000000  -0.000000  -0.000000
     5  H   -0.000003  -0.000000  -0.000000   0.000000   0.000000  -0.000000
     6  H    0.000305   0.000000  -0.000000  -0.000001  -0.000000  -0.000000
     7  H    0.000111   0.000000   0.000000   0.000000  -0.000000   0.000000
     8  C    0.000005  -0.000003   0.000019  -0.000001   0.002380   0.000259
     9  O    0.000003  -0.000001  -0.000029  -0.000002   0.001129  -0.000020
    10  O    0.000000  -0.000000  -0.000000  -0.000000  -0.033018   0.002689
    11  C   -0.000000  -0.000000  -0.000001   0.000000   0.452205  -0.019475
    12  H    0.000000   0.000000  -0.000002  -0.000000  -0.026230  -0.010382
    13  H   -0.000000   0.000000   0.000005   0.000000  -0.026297   0.008792
    14  B    0.007390  -0.001100   0.001974   0.000565  -0.000012   0.000001
    15  O    0.001992  -0.000141  -0.000019   0.000018   0.000000   0.000000
    16  O   -0.003407   0.000136   0.000613   0.003606   0.000000  -0.000000
    17  C   -0.008650   0.007893  -0.014045  -0.002351   0.000000   0.000000
    18  C   -0.005790  -0.010131   0.000199  -0.012655  -0.000000  -0.000000
    19  C    0.000136  -0.000091   0.010877  -0.000572  -0.000000   0.000000
    20  C   -0.000792  -0.000298  -0.000064  -0.000348   0.000000   0.000000
    21  C    0.374703  -0.008045   0.007512  -0.000158  -0.000000  -0.000000
    22  C    0.007242   0.369535   0.364385   0.369464  -0.000000  -0.000000
    23  H    0.000046  -0.000042   0.000992   0.000107   0.000002  -0.000000
    24  H   -0.000030  -0.000021  -0.000087   0.000006  -0.000000  -0.000000
    25  H   -0.000006   0.000171  -0.000628   0.000069   0.000000  -0.000000
    26  H    0.001183  -0.000004  -0.000022  -0.000065  -0.000000   0.000000
    27  H    0.000148  -0.000107  -0.000080   0.001464  -0.000000  -0.000000
    28  H   -0.000090   0.000023  -0.000004  -0.000108  -0.000000   0.000000
    29  H   -0.027449   0.005151  -0.000000  -0.000370  -0.000000  -0.000000
    30  H   -0.028940  -0.000232  -0.000031   0.001684  -0.000000   0.000000
    31  H    0.655531   0.000086  -0.000517   0.000016  -0.000000   0.000000
    32  H    0.000086   0.670273  -0.027446  -0.025857  -0.000000  -0.000000
    33  H   -0.000517  -0.027446   0.661030  -0.025796  -0.000000   0.000000
    34  H    0.000016  -0.025857  -0.025796   0.660785   0.000000   0.000000
    35  C   -0.000000  -0.000000  -0.000000   0.000000   4.514688   0.382337
    36  H    0.000000  -0.000000   0.000000   0.000000   0.382337   0.657145
    37  H   -0.000000   0.000000   0.000000   0.000000   0.373991  -0.023846
    38  H    0.000000  -0.000000  -0.000000  -0.000000   0.382453  -0.031896
              37         38
     1  C   -0.000000   0.000002
     2  C    0.000021  -0.000030
     3  H    0.000003   0.000050
     4  C    0.000000  -0.000000
     5  H   -0.000000  -0.000000
     6  H   -0.000000   0.000000
     7  H   -0.000000  -0.000000
     8  C   -0.000007   0.000257
     9  O    0.000037  -0.000020
    10  O    0.002896   0.002703
    11  C   -0.011436  -0.019590
    12  H   -0.001302   0.008800
    13  H   -0.001313  -0.010407
    14  B   -0.000000   0.000001
    15  O    0.000000  -0.000000
    16  O    0.000000   0.000000
    17  C    0.000000  -0.000000
    18  C    0.000000   0.000000
    19  C    0.000000   0.000000
    20  C    0.000000  -0.000000
    21  C    0.000000   0.000000
    22  C    0.000000   0.000000
    23  H    0.000000  -0.000000
    24  H   -0.000000   0.000000
    25  H   -0.000000   0.000000
    26  H   -0.000000  -0.000000
    27  H   -0.000000   0.000000
    28  H    0.000000  -0.000000
    29  H   -0.000000   0.000000
    30  H   -0.000000   0.000000
    31  H   -0.000000   0.000000
    32  H    0.000000  -0.000000
    33  H    0.000000  -0.000000
    34  H    0.000000  -0.000000
    35  C    0.373991   0.382453
    36  H   -0.023846  -0.031896
    37  H    0.650560  -0.023835
    38  H   -0.023835   0.657121
 Mulliken charges:
               1
     1  C   -0.079284
     2  C   -0.080014
     3  H   -0.014994
     4  C    0.006054
     5  H    0.025011
     6  H    0.049298
     7  H    0.049914
     8  C    0.264506
     9  O   -0.292101
    10  O   -0.272592
    11  C    0.106384
    12  H    0.033903
    13  H    0.033734
    14  B    0.165414
    15  O   -0.234257
    16  O   -0.233968
    17  C   -0.083368
    18  C   -0.078133
    19  C    0.057677
    20  C    0.071557
    21  C    0.066403
    22  C    0.072760
    23  H    0.035560
    24  H    0.015762
    25  H    0.019562
    26  H    0.020255
    27  H    0.030695
    28  H    0.020954
    29  H    0.021142
    30  H    0.024184
    31  H    0.026498
    32  H    0.020313
    33  H    0.021189
    34  H    0.030494
    35  C   -0.023507
    36  H    0.034373
    37  H    0.034232
    38  H    0.034390
 Sum of Mulliken charges =  -0.00000
 Mulliken charges with hydrogens summed into heavy atoms:
               1
     1  C   -0.079284
     2  C   -0.095009
     4  C    0.130277
     8  C    0.264506
     9  O   -0.292101
    10  O   -0.272592
    11  C    0.174021
    14  B    0.165414
    15  O   -0.234257
    16  O   -0.233968
    17  C   -0.083368
    18  C   -0.078133
    19  C    0.128561
    20  C    0.143462
    21  C    0.138228
    22  C    0.144756
    35  C    0.079488
 Electronic spatial extent (au):  <R**2>=           9504.5142
 Charge=             -0.0000 electrons
 Dipole moment (field-independent basis, Debye):
    X=             -0.6000    Y=             -0.2041    Z=              0.0894  Tot=              0.6401
 Quadrupole moment (field-independent basis, Debye-Ang):
   XX=            -86.5410   YY=            -87.6746   ZZ=           -105.3590
   XY=              5.5758   XZ=             -1.2069   YZ=             -0.0067
 Traceless Quadrupole moment (field-independent basis, Debye-Ang):
   XX=              6.6505   YY=              5.5170   ZZ=            -12.1675
   XY=              5.5758   XZ=             -1.2069   YZ=             -0.0067
 Octapole moment (field-independent basis, Debye-Ang**2):
  XXX=            699.3896  YYY=           -322.7693  ZZZ=            -55.3001  XYY=            279.1099
  XXY=           -164.3041  XXZ=             -9.6544  XZZ=            282.8517  YZZ=           -143.5798
  YYZ=            -13.8337  XYZ=              3.0906
 Hexadecapole moment (field-independent basis, Debye-Ang**3):
 XXXX=          -6784.7940 YYYY=          -3587.5450 ZZZZ=           -640.5165 XXXY=            363.1996
 XXXZ=            128.7829 YYYX=            290.7715 YYYZ=            -25.6700 ZZZX=            183.4577
 ZZZY=            -65.9230 XXYY=          -2048.2728 XXZZ=          -1388.5374 YYZZ=           -813.8151
 XXYZ=            -33.9803 YYXZ=             62.3814 ZZXY=            110.2007
 N-N= 1.291612295120D+03 E-N=-4.440300544281D+03  KE= 7.903970259322D+02

 Atomic contributions to Alpha molecular orbitals:
 Alpha occ 46 OE=-0.402 is C20-p=0.2238 C22-p=0.2126 H28-s=0.1511 H32-s=0.1452
 Alpha occ 47 OE=-0.397 is C22-p=0.1586 C20-p=0.1415 H34-s=0.1223 H27-s=0.1098
 Alpha occ 48 OE=-0.397 is C21-p=0.2253 C19-p=0.1943 H29-s=0.1480 H24-s=0.1088
 Alpha occ 49 OE=-0.394 is C35-p=0.3587 H37-s=0.2658
 Alpha occ 50 OE=-0.392 is C21-p=0.1312 C19-p=0.1157
 Alpha occ 51 OE=-0.378 is C4-p=0.2024 C35-p=0.1422 C11-p=0.1170
 Alpha occ 52 OE=-0.377 is C20-p=0.1829 C22-p=0.1705 H27-s=0.1012
 Alpha occ 53 OE=-0.367 is C19-p=0.1736 C21-p=0.1378 H24-s=0.1288 H29-s=0.1030
 Alpha occ 54 OE=-0.365 is C21-p=0.1160 C19-p=0.1069
 Alpha occ 55 OE=-0.361 is C35-p=0.2031 H36-s=0.1313 H38-s=0.1060 O9-p=0.1059 C11-p=0.1036
 Alpha occ 56 OE=-0.352 is O10-p=0.2636 C11-p=0.1372
 Alpha occ 57 OE=-0.348 is C19-p=0.1084 O15-p=0.1006
 Alpha occ 58 OE=-0.335 is O16-p=0.3020 O15-p=0.2937
 Alpha occ 59 OE=-0.334 is O15-p=0.2445 O16-p=0.2359 B14-p=0.1033
 Alpha occ 60 OE=-0.329 is C1-p=0.1947 B14-p=0.1467
 Alpha occ 61 OE=-0.310 is C18-p=0.1706 C17-p=0.1697
 Alpha occ 62 OE=-0.305 is O10-p=0.4463 O9-p=0.2649
 Alpha occ 63 OE=-0.280 is O9-p=0.6526
 Alpha occ 64 OE=-0.273 is O16-p=0.3164 O15-p=0.2660
 Alpha occ 65 OE=-0.269 is C2-p=0.4464 C1-p=0.2893 O9-p=0.1001
 Alpha vir 66 OE=-0.047 is C1-p=0.3574 C8-p=0.2010 C2-p=0.1427 O9-p=0.1156
 Alpha vir 67 OE=0.047 is B14-p=0.2154 H31-s=0.1192
 Alpha vir 68 OE=0.056 is B14-p=0.2767 H27-s=0.1166
 Alpha vir 69 OE=0.069 is H37-s=0.2205 H12-s=0.2168 H13-s=0.2160 H36-s=0.1715 H38-s=0.1707 C35-s=-0.1228
 Alpha vir 70 OE=0.077 is C8-p=0.3544 C2-p=0.2617 O9-p=0.1196
 Alpha vir 71 OE=0.080 is H7-s=0.1954 H6-s=0.1853 H3-s=0.1510
 Alpha vir 72 OE=0.088 is C17-p=0.0940
 Alpha vir 73 OE=0.096 is H29-s=0.2974 H24-s=0.2208 H32-s=0.1940 H28-s=0.1516
 Alpha vir 74 OE=0.100 is H3-s=0.3567 H26-s=0.1705 H31-s=0.1450 H5-s=0.1440
 Alpha vir 75 OE=0.104 is H33-s=0.1817 H23-s=0.1363 H38-s=0.1315 H36-s=0.1310 H28-s=0.1006
 Alpha vir 76 OE=0.112 is H6-s=0.1402 H24-s=0.1229 H26-s=0.1181
 Alpha vir 77 OE=0.115 is H12-s=0.1464 H38-s=0.1275 H30-s=0.1097
 Alpha vir 78 OE=0.117 is H36-s=0.2949 H13-s=0.2860 H12-s=0.1608 H38-s=0.1514
 Alpha vir 79 OE=0.120 is H6-s=0.1345 H7-s=0.1291 H30-s=0.1062
 Alpha vir 80 OE=0.127 is H37-s=0.3336 C11-p=0.1606
 Alpha vir 81 OE=0.136 is H7-s=0.2494 H25-s=0.1112
 Alpha vir 82 OE=0.138 is H6-s=0.1717 H30-s=0.1098 H33-s=0.1026 C17-p=0.1003
 Alpha vir 83 OE=0.140 is H32-s=0.1377 H6-s=0.1018
 Alpha vir 84 OE=0.144 is H37-s=0.3752 C11-p=0.3648
 Alpha vir 85 OE=0.153 is H31-s=0.1928 H26-s=0.1636 H23-s=0.1508
 
 No NMR shielding tensors so no spin-rotation constants.
 Leave Link  601 at Tue Aug 18 12:31:08 2026, MaxMem=  2684354560 cpu:               0.4 elap:               0.4
 (Enter /mnt/data/applications/G16/g16/l701.exe)
 ... and contract with generalized density number  0.
 Compute integral first derivatives.
 R6Disp: Adding Grimme-D3(BJ) dispersion energy 1st derivatives to the gradient.
   1 Symmetry operations used in ECPInt.
 ECPInt:  NShTT=   13695 NPrTT=  100063 LenC2=   12592 LenP2D=   52306.
 LDataN:  DoStor=T MaxTD1= 5 Len=  102
 D1PCM: PCM CHGder 1st derivatives, ID1Alg=3 FixD1E=F DoIter=F DoCFld=F I1PDM=0.
 GePol: Maximum number of non-zero 1st derivatives   =     222
 Leave Link  701 at Tue Aug 18 12:31:34 2026, MaxMem=  2684354560 cpu:              25.2 elap:              25.2
 (Enter /mnt/data/applications/G16/g16/l702.exe)
 L702 exits ... SP integral derivatives will be done elsewhere.
 Leave Link  702 at Tue Aug 18 12:31:34 2026, MaxMem=  2684354560 cpu:               0.0 elap:               0.0
 (Enter /mnt/data/applications/G16/g16/l703.exe)
 Integral derivatives from FoFJK, PRISM(SPDF).
 Compute integral first derivatives, UseDBF=F ICtDFT=           0.
 Calling FoFJK, ICntrl=      2127 FMM=F ISym2X=0 I1Cent= 0 IOpClX= 0 NMat=1 NMatS=1 NMatT=0.
 FoFJK:  IHMeth= 1 ICntrl=    2127 DoSepK=F KAlg= 0 I1Cent=           0 FoldK=F
 IRaf=         0 NMat=       1 IRICut=       1 DoRegI=T DoRafI=F ISym2E= 0 IDoP0=0 IntGTp=1.
 FoFCou: FMM=F IPFlag=           0 FMFlag=      100000 FMFlg1=         800
         NFxFlg=           0 DoJE=F BraDBF=F KetDBF=F FulRan=T
         wScrn=  0.000000 ICntrl=      2127 IOpCl=  0 I1Cent=           0 NGrid=           0
         NMat0=    1 NMatS0=      1 NMatT0=    0 NMatD0=    1 NMtDS0=    0 NMtDT0=    0
 Symmetry not used in FoFCou.
 Leave Link  703 at Tue Aug 18 12:35:29 2026, MaxMem=  2684354560 cpu:             235.0 elap:             235.3
 (Enter /mnt/data/applications/G16/g16/l716.exe)
 Dipole        =-2.36062078D-01-8.03129630D-02 3.51698761D-02
 -------------------------------------------------------------------
 Center     Atomic                   Forces (Hartrees/Bohr)
 Number     Number              X              Y              Z
 -------------------------------------------------------------------
      1        6           0.000004539   -0.000010168   -0.000006480
      2        6           0.000003206    0.000009403    0.000000775
      3        1          -0.000004597   -0.000001613   -0.000001048
      4        6          -0.000001448    0.000002132    0.000005714
      5        1          -0.000002083   -0.000001189   -0.000000365
      6        1          -0.000001597    0.000000749   -0.000004046
      7        1          -0.000002469   -0.000001020    0.000000440
      8        6           0.000025658    0.000002889   -0.000004054
      9        8          -0.000009408    0.000001697   -0.000000964
     10        8          -0.000013479   -0.000015031    0.000004498
     11        6           0.000001481    0.000005892   -0.000000400
     12        1          -0.000000617   -0.000001331   -0.000001633
     13        1           0.000002282   -0.000000686   -0.000000497
     14        5          -0.000001604   -0.000003443    0.000013297
     15        8          -0.000000343    0.000001695   -0.000001065
     16        8           0.000005787    0.000004974   -0.000000071
     17        6           0.000007454    0.000000421   -0.000000072
     18        6          -0.000012845    0.000000943   -0.000005488
     19        6          -0.000000894   -0.000001688   -0.000003784
     20        6          -0.000005381    0.000003916   -0.000004091
     21        6           0.000003489    0.000000964    0.000002247
     22        6           0.000004224    0.000000570   -0.000001275
     23        1           0.000001919    0.000001270    0.000001880
     24        1          -0.000000008   -0.000000684    0.000002433
     25        1           0.000000041    0.000001503    0.000001036
     26        1          -0.000000114   -0.000002036    0.000001375
     27        1           0.000000520    0.000000523    0.000000425
     28        1          -0.000000130   -0.000000248    0.000003202
     29        1          -0.000001642    0.000000896    0.000000095
     30        1          -0.000002665    0.000000537    0.000000379
     31        1          -0.000001082   -0.000000558    0.000000207
     32        1          -0.000000200   -0.000000404    0.000002948
     33        1          -0.000000310    0.000001381   -0.000000925
     34        1          -0.000002497    0.000001171   -0.000000582
     35        6           0.000001948   -0.000001770   -0.000006430
     36        1          -0.000000721   -0.000000881    0.000002708
     37        1           0.000001359    0.000000222   -0.000000527
     38        1           0.000002225   -0.000000999    0.000000139
 -------------------------------------------------------------------
 Cartesian Forces:  Max     0.000025658 RMS     0.000004558
 Leave Link  716 at Tue Aug 18 12:35:30 2026, MaxMem=  2684354560 cpu:               0.0 elap:               0.0
 (Enter /mnt/data/applications/G16/g16/l103.exe)

 GradGradGradGradGradGradGradGradGradGradGradGradGradGradGradGradGradGrad
 Berny optimization.
 FormGI is forming the generalized inverse of G from B-inverse, IUseBI=4.
 Internal  Forces:  Max     0.000015897 RMS     0.000002591
 Search for a local minimum.
 Step number   1 out of a maximum of  204
 All quantities printed in internal units (Hartrees-Bohrs-Radians)
 RMS Force = .25911D-05 SwitMx=.10000D-02 MixMth= 2
 Mixed Optimization -- En-DIIS/RFO-DIIS
 Second derivative matrix not updated -- first step.
 ITU=  0
     Eigenvalues ---    0.00306   0.00375   0.00376   0.00465   0.00467
     Eigenvalues ---    0.00595   0.00600   0.00725   0.01036   0.01125
     Eigenvalues ---    0.01242   0.01368   0.01554   0.02004   0.02173
     Eigenvalues ---    0.02437   0.02793   0.03814   0.04073   0.05389
     Eigenvalues ---    0.05451   0.05461   0.05534   0.05562   0.05603
     Eigenvalues ---    0.05652   0.05694   0.05764   0.05770   0.05777
     Eigenvalues ---    0.05821   0.05840   0.06126   0.06981   0.07424
     Eigenvalues ---    0.07447   0.11098   0.11256   0.12614   0.13575
     Eigenvalues ---    0.14641   0.16000   0.16000   0.16000   0.16000
     Eigenvalues ---    0.16000   0.16000   0.16000   0.16000   0.16000
     Eigenvalues ---    0.16000   0.16000   0.16000   0.16000   0.16000
     Eigenvalues ---    0.16000   0.16000   0.16000   0.16000   0.16000
     Eigenvalues ---    0.17565   0.21721   0.21923   0.22000   0.24668
     Eigenvalues ---    0.24993   0.25000   0.25000   0.25000   0.25000
     Eigenvalues ---    0.25000   0.25647   0.29467   0.29474   0.30103
     Eigenvalues ---    0.30116   0.31061   0.32053   0.33236   0.33240
     Eigenvalues ---    0.33563   0.33566   0.33566   0.33567   0.33577
     Eigenvalues ---    0.33584   0.33591   0.33628   0.33645   0.33652
     Eigenvalues ---    0.33668   0.33677   0.33691   0.33699   0.33705
     Eigenvalues ---    0.33952   0.33955   0.33966   0.34414   0.34424
     Eigenvalues ---    0.35402   0.35617   0.38301   0.44950   0.49611
     Eigenvalues ---    0.55708   0.56391   0.93191
 RFO step:  Lambda= 0.00000000D+00 EMin= 3.05998256D-03
 Linear search not attempted -- first point.
 Iteration  1 RMS(Cart)=  0.00049526 RMS(Int)=  0.00000003
 Iteration  2 RMS(Cart)=  0.00000008 RMS(Int)=  0.00000000
 ITry= 1 IFail=0 DXMaxC= 1.77D-03 DCOld= 1.00D+10 DXMaxT= 3.00D-01 DXLimC= 3.00D+00 Rises=F
 Variable       Old X    -DE/DX   Delta X   Delta X   Delta X     New X
                                 (Linear)    (Quad)   (Total)
    R1        2.54508   0.00000   0.00000   0.00001   0.00001   2.54509
    R2        2.84047  -0.00001   0.00000  -0.00002  -0.00002   2.84046
    R3        2.97591   0.00000   0.00000   0.00000   0.00000   2.97591
    R4        2.06621  -0.00000   0.00000  -0.00001  -0.00001   2.06620
    R5        2.78326  -0.00000   0.00000  -0.00001  -0.00001   2.78325
    R6        2.07895  -0.00000   0.00000  -0.00000  -0.00000   2.07894
    R7        2.08640  -0.00000   0.00000  -0.00001  -0.00001   2.08639
    R8        2.08633   0.00000   0.00000   0.00000   0.00000   2.08633
    R9        2.31496   0.00001   0.00000   0.00001   0.00001   2.31497
   R10        2.53916  -0.00002   0.00000  -0.00003  -0.00003   2.53913
   R11        2.73929   0.00001   0.00000   0.00001   0.00001   2.73931
   R12        2.08074   0.00000   0.00000   0.00000   0.00000   2.08075
   R13        2.08069  -0.00000   0.00000  -0.00000  -0.00000   2.08069
   R14        2.85897  -0.00000   0.00000  -0.00000  -0.00000   2.85897
   R15        2.59146   0.00000   0.00000   0.00000   0.00000   2.59146
   R16        2.59107  -0.00000   0.00000  -0.00000  -0.00000   2.59107
   R17        2.76940  -0.00000   0.00000  -0.00001  -0.00001   2.76939
   R18        2.76657   0.00001   0.00000   0.00002   0.00002   2.76660
   R19        2.97815  -0.00000   0.00000  -0.00001  -0.00001   2.97813
   R20        2.89040  -0.00000   0.00000  -0.00001  -0.00001   2.89039
   R21        2.87758   0.00000   0.00000   0.00001   0.00001   2.87759
   R22        2.89025   0.00000   0.00000   0.00000   0.00000   2.89026
   R23        2.87733  -0.00000   0.00000  -0.00001  -0.00001   2.87732
   R24        2.07411   0.00000   0.00000   0.00001   0.00001   2.07412
   R25        2.07962  -0.00000   0.00000  -0.00001  -0.00001   2.07962
   R26        2.07840   0.00000   0.00000   0.00000   0.00000   2.07840
   R27        2.07405   0.00000   0.00000   0.00001   0.00001   2.07406
   R28        2.08050  -0.00000   0.00000  -0.00000  -0.00000   2.08050
   R29        2.07922  -0.00000   0.00000  -0.00001  -0.00001   2.07921
   R30        2.07878  -0.00000   0.00000  -0.00000  -0.00000   2.07878
   R31        2.07831   0.00000   0.00000   0.00001   0.00001   2.07832
   R32        2.07854   0.00000   0.00000   0.00000   0.00000   2.07854
   R33        2.07933   0.00000   0.00000   0.00001   0.00001   2.07934
   R34        2.07388   0.00000   0.00000   0.00000   0.00000   2.07388
   R35        2.08037   0.00000   0.00000   0.00001   0.00001   2.08038
   R36        2.08069  -0.00000   0.00000  -0.00001  -0.00001   2.08068
   R37        2.08026   0.00000   0.00000   0.00000   0.00000   2.08026
   R38        2.08066   0.00000   0.00000   0.00000   0.00000   2.08067
    A1        2.12706   0.00001   0.00000   0.00004   0.00004   2.12710
    A2        2.12095  -0.00001   0.00000  -0.00003  -0.00003   2.12091
    A3        2.03518  -0.00000   0.00000  -0.00001  -0.00001   2.03517
    A4        2.14384   0.00000   0.00000   0.00001   0.00001   2.14385
    A5        2.08866  -0.00001   0.00000  -0.00003  -0.00003   2.08863
    A6        2.05069   0.00000   0.00000   0.00002   0.00002   2.05071
    A7        1.96486   0.00000   0.00000   0.00001   0.00001   1.96488
    A8        1.92460   0.00000   0.00000   0.00000   0.00000   1.92461
    A9        1.92267  -0.00000   0.00000  -0.00002  -0.00002   1.92266
   A10        1.89970   0.00000   0.00000   0.00002   0.00002   1.89972
   A11        1.89954   0.00000   0.00000   0.00000   0.00000   1.89954
   A12        1.84858  -0.00000   0.00000  -0.00002  -0.00002   1.84856
   A13        2.17349  -0.00000   0.00000  -0.00001  -0.00001   2.17348
   A14        1.95922   0.00001   0.00000   0.00003   0.00003   1.95925
   A15        2.15047  -0.00000   0.00000  -0.00002  -0.00002   2.15046
   A16        2.02971   0.00000   0.00000   0.00001   0.00001   2.02972
   A17        1.89536  -0.00000   0.00000  -0.00001  -0.00001   1.89535
   A18        1.89547  -0.00000   0.00000  -0.00001  -0.00001   1.89546
   A19        1.87371   0.00000   0.00000   0.00001   0.00001   1.87372
   A20        1.88077   0.00000   0.00000   0.00000   0.00000   1.88077
   A21        1.95833  -0.00000   0.00000   0.00000   0.00000   1.95834
   A22        1.95858   0.00000   0.00000   0.00000   0.00000   1.95859
   A23        2.13543  -0.00001   0.00000  -0.00003  -0.00003   2.13540
   A24        2.14297   0.00001   0.00000   0.00005   0.00005   2.14302
   A25        1.98813   0.00000   0.00000   0.00001   0.00001   1.98814
   A26        1.86743   0.00000   0.00000  -0.00001  -0.00001   1.86742
   A27        1.87379  -0.00000   0.00000  -0.00002  -0.00002   1.87377
   A28        1.78737   0.00000   0.00000  -0.00000  -0.00000   1.78737
   A29        1.86257  -0.00000   0.00000  -0.00001  -0.00001   1.86256
   A30        1.89013   0.00000   0.00000   0.00002   0.00002   1.89016
   A31        1.98167  -0.00000   0.00000  -0.00002  -0.00002   1.98165
   A32        2.00222   0.00000   0.00000   0.00001   0.00001   2.00222
   A33        1.92707   0.00000   0.00000   0.00000   0.00000   1.92707
   A34        1.79357  -0.00000   0.00000  -0.00002  -0.00002   1.79355
   A35        1.85526   0.00000   0.00000  -0.00000  -0.00000   1.85525
   A36        1.89149  -0.00000   0.00000  -0.00000  -0.00000   1.89149
   A37        1.98035   0.00000   0.00000   0.00001   0.00001   1.98036
   A38        2.00187   0.00000   0.00000   0.00000   0.00000   2.00187
   A39        1.92831  -0.00000   0.00000   0.00000   0.00000   1.92831
   A40        1.94009  -0.00000   0.00000  -0.00001  -0.00001   1.94008
   A41        1.89653  -0.00000   0.00000   0.00000   0.00000   1.89653
   A42        1.94180   0.00000   0.00000   0.00001   0.00001   1.94181
   A43        1.88457   0.00000   0.00000   0.00000   0.00000   1.88457
   A44        1.91080  -0.00000   0.00000  -0.00001  -0.00001   1.91080
   A45        1.88837   0.00000   0.00000   0.00001   0.00001   1.88837
   A46        1.95151  -0.00000   0.00000  -0.00000  -0.00000   1.95150
   A47        1.92770  -0.00000   0.00000  -0.00000  -0.00000   1.92770
   A48        1.91303  -0.00000   0.00000  -0.00000  -0.00000   1.91303
   A49        1.89627  -0.00000   0.00000  -0.00000  -0.00000   1.89627
   A50        1.88868   0.00000   0.00000   0.00001   0.00001   1.88869
   A51        1.88502   0.00000   0.00000   0.00000   0.00000   1.88502
   A52        1.89963   0.00000   0.00000   0.00000   0.00000   1.89963
   A53        1.94646  -0.00000   0.00000  -0.00001  -0.00001   1.94646
   A54        1.94248   0.00000   0.00000   0.00001   0.00001   1.94249
   A55        1.89122  -0.00000   0.00000  -0.00001  -0.00001   1.89122
   A56        1.88680  -0.00000   0.00000   0.00000   0.00000   1.88681
   A57        1.89564  -0.00000   0.00000  -0.00000  -0.00000   1.89564
   A58        1.91421   0.00000   0.00000   0.00000   0.00000   1.91422
   A59        1.94674  -0.00000   0.00000  -0.00000  -0.00000   1.94673
   A60        1.92888  -0.00000   0.00000  -0.00000  -0.00000   1.92888
   A61        1.88985   0.00000   0.00000   0.00001   0.00001   1.88986
   A62        1.88588  -0.00000   0.00000  -0.00000  -0.00000   1.88588
   A63        1.89681  -0.00000   0.00000  -0.00001  -0.00001   1.89681
   A64        1.93561   0.00000   0.00000   0.00000   0.00000   1.93561
   A65        1.91433   0.00000   0.00000   0.00000   0.00000   1.91434
   A66        1.93564   0.00000   0.00000   0.00000   0.00000   1.93564
   A67        1.89129  -0.00000   0.00000   0.00000   0.00000   1.89129
   A68        1.89453  -0.00000   0.00000  -0.00000  -0.00000   1.89453
   A69        1.89131  -0.00000   0.00000  -0.00000  -0.00000   1.89130
    D1       -0.00410  -0.00000   0.00000  -0.00003  -0.00003  -0.00413
    D2        3.13431  -0.00000   0.00000  -0.00010  -0.00010   3.13421
    D3        3.13648  -0.00000   0.00000   0.00002   0.00002   3.13650
    D4       -0.00830  -0.00000   0.00000  -0.00005  -0.00005  -0.00834
    D5        0.00473  -0.00000   0.00000   0.00003   0.00003   0.00476
    D6        2.13001   0.00000   0.00000   0.00006   0.00006   2.13007
    D7       -2.11895  -0.00000   0.00000   0.00003   0.00003  -2.11891
    D8       -3.13590  -0.00000   0.00000  -0.00002  -0.00002  -3.13591
    D9       -1.01062   0.00000   0.00000   0.00001   0.00001  -1.01061
   D10        1.02361  -0.00000   0.00000  -0.00002  -0.00002   1.02359
   D11        1.72923  -0.00000   0.00000  -0.00041  -0.00041   1.72882
   D12       -1.61940   0.00000   0.00000  -0.00026  -0.00026  -1.61966
   D13       -1.41332  -0.00000   0.00000  -0.00036  -0.00036  -1.41368
   D14        1.52124   0.00000   0.00000  -0.00021  -0.00021   1.52103
   D15       -0.00349  -0.00000   0.00000  -0.00007  -0.00007  -0.00356
   D16        3.13929   0.00000   0.00000  -0.00000  -0.00000   3.13929
   D17        3.13509  -0.00000   0.00000  -0.00014  -0.00014   3.13495
   D18       -0.00532  -0.00000   0.00000  -0.00007  -0.00007  -0.00539
   D19        3.14077  -0.00000   0.00000  -0.00007  -0.00007   3.14070
   D20        0.00034  -0.00000   0.00000   0.00001   0.00001   0.00035
   D21       -1.02437   0.00000   0.00000   0.00020   0.00020  -1.02417
   D22        1.01636   0.00000   0.00000   0.00020   0.00020   1.01655
   D23        3.13777   0.00000   0.00000   0.00020   0.00020   3.13797
   D24        1.05274  -0.00000   0.00000   0.00001   0.00001   1.05275
   D25        3.14110   0.00000   0.00000   0.00001   0.00001   3.14111
   D26       -1.05368   0.00000   0.00000   0.00001   0.00001  -1.05367
   D27       -1.02836   0.00000   0.00000   0.00001   0.00001  -1.02835
   D28        1.06001   0.00000   0.00000   0.00001   0.00001   1.06002
   D29       -3.13477   0.00000   0.00000   0.00001   0.00001  -3.13476
   D30        3.13412  -0.00000   0.00000   0.00000   0.00000   3.13412
   D31       -1.06071  -0.00000   0.00000   0.00001   0.00001  -1.06070
   D32        1.02770  -0.00000   0.00000   0.00001   0.00001   1.02771
   D33       -3.12295   0.00000   0.00000   0.00014   0.00014  -3.12281
   D34        0.20883  -0.00000   0.00000  -0.00001  -0.00001   0.20883
   D35       -2.85560  -0.00000   0.00000  -0.00007  -0.00007  -2.85567
   D36        0.09487   0.00000   0.00000   0.00007   0.00007   0.09494
   D37       -0.39272  -0.00000   0.00000  -0.00005  -0.00005  -0.39277
   D38        1.69372  -0.00000   0.00000  -0.00008  -0.00008   1.69365
   D39       -2.51473  -0.00000   0.00000  -0.00007  -0.00007  -2.51479
   D40       -0.32979  -0.00000   0.00000  -0.00009  -0.00009  -0.32987
   D41        1.75495   0.00000   0.00000  -0.00008  -0.00008   1.75487
   D42       -2.45529  -0.00000   0.00000  -0.00008  -0.00008  -2.45537
   D43        0.43553   0.00000   0.00000   0.00009   0.00009   0.43562
   D44       -1.55994  -0.00000   0.00000   0.00009   0.00009  -1.55985
   D45        2.48426  -0.00000   0.00000   0.00007   0.00007   2.48434
   D46       -1.56555   0.00000   0.00000   0.00010   0.00010  -1.56545
   D47        2.72216   0.00000   0.00000   0.00011   0.00011   2.72227
   D48        0.48318   0.00000   0.00000   0.00009   0.00009   0.48327
   D49        2.47888   0.00000   0.00000   0.00011   0.00011   2.47899
   D50        0.48340   0.00000   0.00000   0.00012   0.00012   0.48352
   D51       -1.75558   0.00000   0.00000   0.00010   0.00010  -1.75547
   D52       -1.05509   0.00000   0.00000   0.00005   0.00005  -1.05504
   D53        1.01644   0.00000   0.00000   0.00004   0.00004   1.01648
   D54        3.09365   0.00000   0.00000   0.00006   0.00006   3.09371
   D55        0.90075   0.00000   0.00000   0.00003   0.00003   0.90078
   D56        2.97227   0.00000   0.00000   0.00003   0.00003   2.97230
   D57       -1.23370   0.00000   0.00000   0.00004   0.00004  -1.23366
   D58       -3.10560  -0.00000   0.00000   0.00002   0.00002  -3.10558
   D59       -1.03408  -0.00000   0.00000   0.00002   0.00002  -1.03406
   D60        1.04314   0.00000   0.00000   0.00003   0.00003   1.04317
   D61        0.94966   0.00000   0.00000   0.00002   0.00002   0.94968
   D62        3.06359   0.00000   0.00000   0.00001   0.00001   3.06361
   D63       -1.14471   0.00000   0.00000   0.00002   0.00002  -1.14469
   D64       -1.03415  -0.00000   0.00000   0.00001   0.00001  -1.03414
   D65        1.07978  -0.00000   0.00000  -0.00000  -0.00000   1.07978
   D66       -3.12852  -0.00000   0.00000   0.00000   0.00000  -3.12852
   D67        2.98311   0.00000   0.00000   0.00003   0.00003   2.98314
   D68       -1.18614   0.00000   0.00000   0.00002   0.00002  -1.18612
   D69        0.88874   0.00000   0.00000   0.00002   0.00002   0.88876
   D70        0.98893   0.00000   0.00000   0.00002   0.00002   0.98895
   D71        3.07449  -0.00000   0.00000   0.00001   0.00001   3.07450
   D72       -1.08874  -0.00000   0.00000   0.00001   0.00001  -1.08873
   D73        2.94721   0.00000   0.00000   0.00001   0.00001   2.94722
   D74       -1.25042  -0.00000   0.00000   0.00000   0.00000  -1.25042
   D75        0.86954  -0.00000   0.00000   0.00000   0.00000   0.86954
   D76       -1.05966   0.00000   0.00000   0.00003   0.00003  -1.05964
   D77        1.02590   0.00000   0.00000   0.00002   0.00002   1.02591
   D78       -3.13733   0.00000   0.00000   0.00002   0.00002  -3.13731
   D79       -1.13893  -0.00000   0.00000  -0.00001  -0.00001  -1.13894
   D80        0.95463   0.00000   0.00000  -0.00000  -0.00000   0.95462
   D81        3.06684  -0.00000   0.00000  -0.00001  -0.00001   3.06683
   D82       -3.13110   0.00000   0.00000   0.00001   0.00001  -3.13109
   D83       -1.03754   0.00000   0.00000   0.00002   0.00002  -1.03752
   D84        1.07467   0.00000   0.00000   0.00001   0.00001   1.07468
   D85        0.88720  -0.00000   0.00000  -0.00002  -0.00002   0.88718
   D86        2.98075   0.00000   0.00000  -0.00000  -0.00000   2.98075
   D87       -1.19022  -0.00000   0.00000  -0.00001  -0.00001  -1.19023
         Item               Value     Threshold  Converged?
 Maximum Force            0.000016     0.000450     YES
 RMS     Force            0.000003     0.000300     YES
 Maximum Displacement     0.001771     0.001800     YES
 RMS     Displacement     0.000495     0.001200     YES
 Predicted change in Energy=-4.578397D-09
 Optimization completed.
    -- Stationary point found.
                           ----------------------------
                           !   Optimized Parameters   !
                           ! (Angstroms and Degrees)  !
 --------------------------                            --------------------------
 ! Name  Definition              Value          Derivative Info.                !
 --------------------------------------------------------------------------------
 ! R1    R(1,2)                  1.3468         -DE/DX =    0.0                 !
 ! R2    R(1,4)                  1.5031         -DE/DX =    0.0                 !
 ! R3    R(1,14)                 1.5748         -DE/DX =    0.0                 !
 ! R4    R(2,3)                  1.0934         -DE/DX =    0.0                 !
 ! R5    R(2,8)                  1.4728         -DE/DX =    0.0                 !
 ! R6    R(4,5)                  1.1001         -DE/DX =    0.0                 !
 ! R7    R(4,6)                  1.1041         -DE/DX =    0.0                 !
 ! R8    R(4,7)                  1.104          -DE/DX =    0.0                 !
 ! R9    R(8,9)                  1.225          -DE/DX =    0.0                 !
 ! R10   R(8,10)                 1.3437         -DE/DX =    0.0                 !
 ! R11   R(10,11)                1.4496         -DE/DX =    0.0                 !
 ! R12   R(11,12)                1.1011         -DE/DX =    0.0                 !
 ! R13   R(11,13)                1.1011         -DE/DX =    0.0                 !
 ! R14   R(11,35)                1.5129         -DE/DX =    0.0                 !
 ! R15   R(14,15)                1.3713         -DE/DX =    0.0                 !
 ! R16   R(14,16)                1.3711         -DE/DX =    0.0                 !
 ! R17   R(15,17)                1.4655         -DE/DX =    0.0                 !
 ! R18   R(16,18)                1.464          -DE/DX =    0.0                 !
 ! R19   R(17,18)                1.576          -DE/DX =    0.0                 !
 ! R20   R(17,19)                1.5295         -DE/DX =    0.0                 !
 ! R21   R(17,20)                1.5228         -DE/DX =    0.0                 !
 ! R22   R(18,21)                1.5295         -DE/DX =    0.0                 !
 ! R23   R(18,22)                1.5226         -DE/DX =    0.0                 !
 ! R24   R(19,23)                1.0976         -DE/DX =    0.0                 !
 ! R25   R(19,24)                1.1005         -DE/DX =    0.0                 !
 ! R26   R(19,25)                1.0998         -DE/DX =    0.0                 !
 ! R27   R(20,26)                1.0975         -DE/DX =    0.0                 !
 ! R28   R(20,27)                1.101          -DE/DX =    0.0                 !
 ! R29   R(20,28)                1.1003         -DE/DX =    0.0                 !
 ! R30   R(21,29)                1.1            -DE/DX =    0.0                 !
 ! R31   R(21,30)                1.0998         -DE/DX =    0.0                 !
 ! R32   R(21,31)                1.0999         -DE/DX =    0.0                 !
 ! R33   R(22,32)                1.1003         -DE/DX =    0.0                 !
 ! R34   R(22,33)                1.0974         -DE/DX =    0.0                 !
 ! R35   R(22,34)                1.1009         -DE/DX =    0.0                 !
 ! R36   R(35,36)                1.1011         -DE/DX =    0.0                 !
 ! R37   R(35,37)                1.1008         -DE/DX =    0.0                 !
 ! R38   R(35,38)                1.101          -DE/DX =    0.0                 !
 ! A1    A(2,1,4)              121.8714         -DE/DX =    0.0                 !
 ! A2    A(2,1,14)             121.5214         -DE/DX =    0.0                 !
 ! A3    A(4,1,14)             116.6072         -DE/DX =    0.0                 !
 ! A4    A(1,2,3)              122.8327         -DE/DX =    0.0                 !
 ! A5    A(1,2,8)              119.6713         -DE/DX =    0.0                 !
 ! A6    A(3,2,8)              117.4958         -DE/DX =    0.0                 !
 ! A7    A(1,4,5)              112.5784         -DE/DX =    0.0                 !
 ! A8    A(1,4,6)              110.2717         -DE/DX =    0.0                 !
 ! A9    A(1,4,7)              110.1611         -DE/DX =    0.0                 !
 ! A10   A(5,4,6)              108.845          -DE/DX =    0.0                 !
 ! A11   A(5,4,7)              108.8353         -DE/DX =    0.0                 !
 ! A12   A(6,4,7)              105.9158         -DE/DX =    0.0                 !
 ! A13   A(2,8,9)              124.5317         -DE/DX =    0.0                 !
 ! A14   A(2,8,10)             112.2553         -DE/DX =    0.0                 !
 ! A15   A(9,8,10)             123.213          -DE/DX =    0.0                 !
 ! A16   A(8,10,11)            116.2939         -DE/DX =    0.0                 !
 ! A17   A(10,11,12)           108.5961         -DE/DX =    0.0                 !
 ! A18   A(10,11,13)           108.6024         -DE/DX =    0.0                 !
 ! A19   A(10,11,35)           107.3559         -DE/DX =    0.0                 !
 ! A20   A(12,11,13)           107.7599         -DE/DX =    0.0                 !
 ! A21   A(12,11,35)           112.2043         -DE/DX =    0.0                 !
 ! A22   A(13,11,35)           112.2186         -DE/DX =    0.0                 !
 ! A23   A(1,14,15)            122.351          -DE/DX =    0.0                 !
 ! A24   A(1,14,16)            122.7833         -DE/DX =    0.0                 !
 ! A25   A(15,14,16)           113.9115         -DE/DX =    0.0                 !
 ! A26   A(14,15,17)           106.9959         -DE/DX =    0.0                 !
 ! A27   A(14,16,18)           107.3603         -DE/DX =    0.0                 !
 ! A28   A(15,17,18)           102.409          -DE/DX =    0.0                 !
 ! A29   A(15,17,19)           106.7173         -DE/DX =    0.0                 !
 ! A30   A(15,17,20)           108.2967         -DE/DX =    0.0                 !
 ! A31   A(18,17,19)           113.5416         -DE/DX =    0.0                 !
 ! A32   A(18,17,20)           114.7186         -DE/DX =    0.0                 !
 ! A33   A(19,17,20)           110.413          -DE/DX =    0.0                 !
 ! A34   A(16,18,17)           102.7639         -DE/DX =    0.0                 !
 ! A35   A(16,18,21)           106.2983         -DE/DX =    0.0                 !
 ! A36   A(16,18,22)           108.3745         -DE/DX =    0.0                 !
 ! A37   A(17,18,21)           113.4654         -DE/DX =    0.0                 !
 ! A38   A(17,18,22)           114.6987         -DE/DX =    0.0                 !
 ! A39   A(21,18,22)           110.4841         -DE/DX =    0.0                 !
 ! A40   A(17,19,23)           111.1589         -DE/DX =    0.0                 !
 ! A41   A(17,19,24)           108.6632         -DE/DX =    0.0                 !
 ! A42   A(17,19,25)           111.257          -DE/DX =    0.0                 !
 ! A43   A(23,19,24)           107.9778         -DE/DX =    0.0                 !
 ! A44   A(23,19,25)           109.4809         -DE/DX =    0.0                 !
 ! A45   A(24,19,25)           108.1954         -DE/DX =    0.0                 !
 ! A46   A(17,20,26)           111.813          -DE/DX =    0.0                 !
 ! A47   A(17,20,27)           110.4492         -DE/DX =    0.0                 !
 ! A48   A(17,20,28)           109.6086         -DE/DX =    0.0                 !
 ! A49   A(26,20,27)           108.6485         -DE/DX =    0.0                 !
 ! A50   A(26,20,28)           108.2136         -DE/DX =    0.0                 !
 ! A51   A(27,20,28)           108.0035         -DE/DX =    0.0                 !
 ! A52   A(18,21,29)           108.8407         -DE/DX =    0.0                 !
 ! A53   A(18,21,30)           111.5242         -DE/DX =    0.0                 !
 ! A54   A(18,21,31)           111.2961         -DE/DX =    0.0                 !
 ! A55   A(29,21,30)           108.3591         -DE/DX =    0.0                 !
 ! A56   A(29,21,31)           108.1059         -DE/DX =    0.0                 !
 ! A57   A(30,21,31)           108.6124         -DE/DX =    0.0                 !
 ! A58   A(18,22,32)           109.6764         -DE/DX =    0.0                 !
 ! A59   A(18,22,33)           111.5398         -DE/DX =    0.0                 !
 ! A60   A(18,22,34)           110.5169         -DE/DX =    0.0                 !
 ! A61   A(32,22,33)           108.2804         -DE/DX =    0.0                 !
 ! A62   A(32,22,34)           108.0532         -DE/DX =    0.0                 !
 ! A63   A(33,22,34)           108.6795         -DE/DX =    0.0                 !
 ! A64   A(11,35,36)           110.9021         -DE/DX =    0.0                 !
 ! A65   A(11,35,37)           109.6833         -DE/DX =    0.0                 !
 ! A66   A(11,35,38)           110.9038         -DE/DX =    0.0                 !
 ! A67   A(36,35,37)           108.3627         -DE/DX =    0.0                 !
 ! A68   A(36,35,38)           108.5486         -DE/DX =    0.0                 !
 ! A69   A(37,35,38)           108.3638         -DE/DX =    0.0                 !
 ! D1    D(4,1,2,3)             -0.235          -DE/DX =    0.0                 !
 ! D2    D(4,1,2,8)            179.5825         -DE/DX =    0.0                 !
 ! D3    D(14,1,2,3)           179.7072         -DE/DX =    0.0                 !
 ! D4    D(14,1,2,8)            -0.4753         -DE/DX =    0.0                 !
 ! D5    D(2,1,4,5)              0.2711         -DE/DX =    0.0                 !
 ! D6    D(2,1,4,6)            122.0406         -DE/DX =    0.0                 !
 ! D7    D(2,1,4,7)           -121.4066         -DE/DX =    0.0                 !
 ! D8    D(14,1,4,5)          -179.6738         -DE/DX =    0.0                 !
 ! D9    D(14,1,4,6)           -57.9043         -DE/DX =    0.0                 !
 ! D10   D(14,1,4,7)            58.6484         -DE/DX =    0.0                 !
 ! D11   D(2,1,14,15)           99.0777         -DE/DX =    0.0                 !
 ! D12   D(2,1,14,16)          -92.7847         -DE/DX =    0.0                 !
 ! D13   D(4,1,14,15)          -80.9772         -DE/DX =    0.0                 !
 ! D14   D(4,1,14,16)           87.1604         -DE/DX =    0.0                 !
 ! D15   D(1,2,8,9)             -0.1999         -DE/DX =    0.0                 !
 ! D16   D(1,2,8,10)           179.868          -DE/DX =    0.0                 !
 ! D17   D(3,2,8,9)            179.6273         -DE/DX =    0.0                 !
 ! D18   D(3,2,8,10)            -0.3048         -DE/DX =    0.0                 !
 ! D19   D(2,8,10,11)          179.9529         -DE/DX =    0.0                 !
 ! D20   D(9,8,10,11)            0.0197         -DE/DX =    0.0                 !
 ! D21   D(8,10,11,12)         -58.6919         -DE/DX =    0.0                 !
 ! D22   D(8,10,11,13)          58.2329         -DE/DX =    0.0                 !
 ! D23   D(8,10,11,35)         179.7808         -DE/DX =    0.0                 !
 ! D24   D(10,11,35,36)         60.3175         -DE/DX =    0.0                 !
 ! D25   D(10,11,35,37)        179.9719         -DE/DX =    0.0                 !
 ! D26   D(10,11,35,38)        -60.3712         -DE/DX =    0.0                 !
 ! D27   D(12,11,35,36)        -58.9205         -DE/DX =    0.0                 !
 ! D28   D(12,11,35,37)         60.7339         -DE/DX =    0.0                 !
 ! D29   D(12,11,35,38)       -179.6092         -DE/DX =    0.0                 !
 ! D30   D(13,11,35,36)        179.5716         -DE/DX =    0.0                 !
 ! D31   D(13,11,35,37)        -60.774          -DE/DX =    0.0                 !
 ! D32   D(13,11,35,38)         58.8829         -DE/DX =    0.0                 !
 ! D33   D(1,14,15,17)        -178.9318         -DE/DX =    0.0                 !
 ! D34   D(16,14,15,17)         11.9654         -DE/DX =    0.0                 !
 ! D35   D(1,14,16,18)        -163.6138         -DE/DX =    0.0                 !
 ! D36   D(15,14,16,18)          5.4358         -DE/DX =    0.0                 !
 ! D37   D(14,15,17,18)        -22.5014         -DE/DX =    0.0                 !
 ! D38   D(14,15,17,19)         97.0432         -DE/DX =    0.0                 !
 ! D39   D(14,15,17,20)       -144.0832         -DE/DX =    0.0                 !
 ! D40   D(14,16,18,17)        -18.8953         -DE/DX =    0.0                 !
 ! D41   D(14,16,18,21)        100.5515         -DE/DX =    0.0                 !
 ! D42   D(14,16,18,22)       -140.6778         -DE/DX =    0.0                 !
 ! D43   D(15,17,18,16)         24.9541         -DE/DX =    0.0                 !
 ! D44   D(15,17,18,21)        -89.3782         -DE/DX =    0.0                 !
 ! D45   D(15,17,18,22)        142.3377         -DE/DX =    0.0                 !
 ! D46   D(19,17,18,16)        -89.6995         -DE/DX =    0.0                 !
 ! D47   D(19,17,18,21)        155.9682         -DE/DX =    0.0                 !
 ! D48   D(19,17,18,22)         27.6841         -DE/DX =    0.0                 !
 ! D49   D(20,17,18,16)        142.0292         -DE/DX =    0.0                 !
 ! D50   D(20,17,18,21)         27.6969         -DE/DX =    0.0                 !
 ! D51   D(20,17,18,22)       -100.5871         -DE/DX =    0.0                 !
 ! D52   D(15,17,19,23)        -60.452          -DE/DX =    0.0                 !
 ! D53   D(15,17,19,24)         58.2375         -DE/DX =    0.0                 !
 ! D54   D(15,17,19,25)        177.2532         -DE/DX =    0.0                 !
 ! D55   D(18,17,19,23)         51.609          -DE/DX =    0.0                 !
 ! D56   D(18,17,19,24)        170.2985         -DE/DX =    0.0                 !
 ! D57   D(18,17,19,25)        -70.6858         -DE/DX =    0.0                 !
 ! D58   D(20,17,19,23)       -177.9378         -DE/DX =    0.0                 !
 ! D59   D(20,17,19,24)        -59.2483         -DE/DX =    0.0                 !
 ! D60   D(20,17,19,25)         59.7674         -DE/DX =    0.0                 !
 ! D61   D(15,17,20,26)         54.4116         -DE/DX =    0.0                 !
 ! D62   D(15,17,20,27)        175.531          -DE/DX =    0.0                 !
 ! D63   D(15,17,20,28)        -65.5869         -DE/DX =    0.0                 !
 ! D64   D(18,17,20,26)        -59.2525         -DE/DX =    0.0                 !
 ! D65   D(18,17,20,27)         61.8669         -DE/DX =    0.0                 !
 ! D66   D(18,17,20,28)       -179.251          -DE/DX =    0.0                 !
 ! D67   D(19,17,20,26)        170.9195         -DE/DX =    0.0                 !
 ! D68   D(19,17,20,27)        -67.961          -DE/DX =    0.0                 !
 ! D69   D(19,17,20,28)         50.9211         -DE/DX =    0.0                 !
 ! D70   D(16,18,21,29)         56.6613         -DE/DX =    0.0                 !
 ! D71   D(16,18,21,30)        176.155          -DE/DX =    0.0                 !
 ! D72   D(16,18,21,31)        -62.3803         -DE/DX =    0.0                 !
 ! D73   D(17,18,21,29)        168.8626         -DE/DX =    0.0                 !
 ! D74   D(17,18,21,30)        -71.6437         -DE/DX =    0.0                 !
 ! D75   D(17,18,21,31)         49.821          -DE/DX =    0.0                 !
 ! D76   D(22,18,21,29)        -60.7142         -DE/DX =    0.0                 !
 ! D77   D(22,18,21,30)         58.7795         -DE/DX =    0.0                 !
 ! D78   D(22,18,21,31)       -179.7558         -DE/DX =    0.0                 !
 ! D79   D(16,18,22,32)        -65.256          -DE/DX =    0.0                 !
 ! D80   D(16,18,22,33)         54.696          -DE/DX =    0.0                 !
 ! D81   D(16,18,22,34)        175.7168         -DE/DX =    0.0                 !
 ! D82   D(17,18,22,32)       -179.3988         -DE/DX =    0.0                 !
 ! D83   D(17,18,22,33)        -59.4469         -DE/DX =    0.0                 !
 ! D84   D(17,18,22,34)         61.574          -DE/DX =    0.0                 !
 ! D85   D(21,18,22,32)         50.8326         -DE/DX =    0.0                 !
 ! D86   D(21,18,22,33)        170.7846         -DE/DX =    0.0                 !
 ! D87   D(21,18,22,34)        -68.1946         -DE/DX =    0.0                 !
 --------------------------------------------------------------------------------
 Lowest energy point so far.  Saving SCF results.
 Largest change from initial coordinates is atom    0       0.000 Angstoms.
 GradGradGradGradGradGradGradGradGradGradGradGradGradGradGradGradGradGrad

 Leave Link  103 at Tue Aug 18 12:35:30 2026, MaxMem=  2684354560 cpu:               0.1 elap:               0.1
 (Enter /mnt/data/applications/G16/g16/l202.exe)
                          Input orientation:                          
 ---------------------------------------------------------------------
 Center     Atomic      Atomic             Coordinates (Angstroms)
 Number     Number       Type             X           Y           Z
 ---------------------------------------------------------------------
      1          6           0       -1.018120    0.378750    0.013100
      2          6           0       -0.281200    1.505940    0.029050
      3          1           0        0.810180    1.501690   -0.037120
      4          6           0       -0.387020   -0.980490   -0.103210
      5          1           0        0.710290   -0.932750   -0.165810
      6          1           0       -0.667980   -1.607890    0.760740
      7          1           0       -0.772510   -1.503910   -0.995580
      8          6           0       -0.950890    2.813390    0.135570
      9          8           0       -2.163790    2.968320    0.210110
     10          8           0       -0.076850    3.833910    0.140940
     11          6           0       -0.643630    5.164260    0.241870
     12          1           0       -1.328100    5.319610   -0.606510
     13          1           0       -1.237010    5.223950    1.167430
     14          5           0       -2.588910    0.420480    0.117130
     15          8           0       -3.400140    0.321860   -0.984120
     16          8           0       -3.256880    0.319480    1.310290
     17          6           0       -4.782480    0.424820   -0.508480
     18          6           0       -4.652660    0.001260    1.003940
     19          6           0       -5.206520    1.881780   -0.700640
     20          6           0       -5.649440   -0.496810   -1.355680
     21          6           0       -4.809660   -1.503120    1.230720
     22          6           0       -5.543900    0.780350    1.961580
     23          1           0       -4.565590    2.560380   -0.123250
     24          1           0       -5.103640    2.141020   -1.765200
     25          1           0       -6.256480    2.033110   -0.410230
     26          1           0       -5.266810   -1.525480   -1.361210
     27          1           0       -6.683240   -0.507770   -0.977210
     28          1           0       -5.671130   -0.132370   -2.393620
     29          1           0       -4.510670   -1.739950    2.262520
     30          1           0       -5.851430   -1.825970    1.089180
     31          1           0       -4.167790   -2.079150    0.548070
     32          1           0       -5.380020    0.426970    2.990660
     33          1           0       -5.327800    1.855800    1.928400
     34          1           0       -6.605170    0.626130    1.712840
     35          6           0        0.506900    6.146660    0.235560
     36          1           0        1.089440    6.063400   -0.695050
     37          1           0        0.117890    7.173730    0.310470
     38          1           0        1.180760    5.967940    1.087770
 ---------------------------------------------------------------------
                    Distance matrix (angstroms):
                    1          2          3          4          5
     1  C    0.000000
     2  C    1.346797   0.000000
     3  H    2.146205   1.093392   0.000000
     4  C    1.503113   2.492193   2.756605   0.000000
     5  H    2.177026   2.639741   2.439885   1.100130   0.000000
     6  H    2.151349   3.221941   3.534264   1.104074   1.792746
     7  H    2.149923   3.217211   3.529474   1.104036   1.792606
     8  C    2.438645   1.472840   2.202668   3.842979   4.109004
     9  O    2.838529   2.390708   3.325150   4.341449   4.860041
    10  O    3.583359   2.339599   2.501555   4.830555   4.840943
    11  C    4.805589   3.682384   3.950420   6.159779   6.258820
    12  H    4.989199   4.005498   4.412818   6.389852   6.590998
    13  H    4.985615   4.004133   4.415557   6.389999   6.593517
    14  B    1.574784   2.551765   3.570241   2.619081   3.577151
    15  O    2.582964   3.486595   4.473880   3.398678   4.374850
    16  O    2.588100   3.450208   4.444560   3.453115   4.414226
    17  C    3.800602   4.660395   5.714864   4.632409   5.668416
    18  C    3.786046   4.724842   5.760010   4.515008   5.567937
    19  C    4.506797   4.993243   6.065097   5.637117   6.573908
    20  C    4.908084   5.894615   6.889071   5.430994   6.484751
    21  C    4.404521   5.568250   6.497607   4.648898   5.722365
    22  C    4.943738   5.653067   6.699960   5.827292   6.824617
    23  H    4.166851   4.414865   5.479703   5.477099   6.327612
    24  H    4.791599   5.184456   6.194213   5.895128   6.768153
    25  H    5.509676   6.014553   7.096429   6.605044   7.575748
    26  H    4.854502   5.998219   6.917137   5.068721   6.124217
    27  H    5.818953   6.786288   7.814924   6.374145   7.450051
    28  H    5.263463   6.132270   7.087357   5.821263   6.806340
    29  H    4.663334   5.780364   6.641387   4.814348   5.814360
    30  H    5.420297   6.576698   7.531196   5.656537   6.740105
    31  H    4.030867   5.312987   6.159955   3.990669   5.061573
    32  H    5.281511   5.994437   6.974314   6.040118   6.993141
    33  H    4.942003   5.403527   6.454724   6.048412   6.972823
    34  H    5.845121   6.603167   7.669184   6.674178   7.712029
    35  C    5.970256   4.711691   4.662840   7.190975   7.093695
    36  H    6.103977   4.813877   4.617365   7.221260   7.026376
    37  H    6.895702   5.688788   5.724694   8.180304   8.142039
    38  H    6.101560   4.813279   4.620616   7.221984   7.029390
                    6          7          8          9         10
     6  H    0.000000
     7  H    1.762498   0.000000
     8  C    4.474214   4.466587   0.000000
     9  O    4.845858   4.836341   1.225025   0.000000
    10  O    5.508791   5.501631   1.343665   2.260387   0.000000
    11  C    6.792042   6.783243   2.373246   2.670964   1.449572
    12  H    7.091924   6.857148   2.640854   2.625607   2.081253
    13  H    6.867549   7.082265   2.637688   2.619780   2.081313
    14  B    2.866791   2.870664   2.899908   2.584736   4.238221
    15  O    3.772687   3.199689   3.668822   3.155709   4.964324
    16  O    3.274013   3.848881   3.594043   3.069462   4.881720
    17  C    4.761506   4.476285   4.560828   3.720659   5.846930
    18  C    4.304205   4.617270   4.729190   3.953237   6.030921
    19  C    5.908619   5.586621   4.435936   3.356820   5.552709
    20  C    5.525276   4.992832   5.937813   5.158351   7.214483
    21  C    4.169577   4.610314   5.892514   5.294908   7.216024
    22  C    5.560603   6.060429   5.344465   4.390900   6.521318
    23  H    5.774710   5.627332   3.632776   2.458900   4.673378
    24  H    6.333228   5.712838   4.616312   3.637168   5.636299
    25  H    6.771956   6.551875   5.390364   4.243766   6.460224
    26  H    5.065442   4.509200   6.300263   5.682607   7.610204
    27  H    6.357207   5.994111   6.717754   5.823947   7.984036
    28  H    6.095790   5.275615   6.111871   5.356783   7.311042
    29  H    4.127838   4.964350   6.158641   5.646950   7.431539
    30  H    5.198421   5.499580   6.815301   6.112010   8.141202
    31  H    3.537794   3.773815   5.869885   5.441249   7.201793
    32  H    5.596116   6.391209   5.784785   4.953186   6.917496
    33  H    5.922373   6.370869   4.825822   3.768445   5.889007
    34  H    6.414637   6.774403   6.264405   5.241174   7.441753
    35  C    7.860611   7.853905   3.639483   4.151515   2.387159
    36  H    8.003533   7.798805   3.926250   4.580648   2.651365
    37  H    8.828204   8.820432   4.492822   4.785563   3.349785
    38  H    7.804998   7.999010   3.924513   4.577556   2.651821
                   11         12         13         14         15
    11  C    0.000000
    12  H    1.101082   0.000000
    13  H    1.101056   1.778851   0.000000
    14  B    5.128657   5.110261   5.099420   0.000000
    15  O    5.705281   5.423416   5.773975   1.371339   0.000000
    16  O    5.607360   5.691715   5.306045   1.371137   2.298879
    17  C    6.336829   5.991771   6.197635   2.281043   1.465503
    18  C    6.581006   6.475422   6.242586   2.285004   2.371492
    19  C    5.699383   5.183597   5.515142   3.107415   2.403481
    20  C    7.723860   7.284640   7.652628   3.518158   2.422319
    21  C    7.923862   7.876949   7.617172   3.141982   3.197314
    22  C    6.796228   6.706186   6.239035   3.501923   3.671930
    23  H    4.721787   4.281148   4.454201   2.923049   2.666523
    24  H    5.749783   5.069586   5.749400   3.581521   2.611770
    25  H    6.460141   5.926933   6.153499   4.041009   3.378817
    26  H    8.288322   7.933364   8.257609   3.625382   2.653171
    27  H    8.374662   7.922960   8.192284   4.338521   3.386308
    28  H    7.763753   7.195815   7.812340   4.013675   2.711164
    29  H    8.167322   8.258176   7.772514   3.600461   4.003125
    30  H    8.757992   8.625265   8.426172   4.078659   3.862715
    31  H    8.061045   8.008654   7.893564   2.987762   2.949871
    32  H    7.240936   7.300385   6.595431   4.005935   4.441829
    33  H    5.977603   5.866971   5.353324   3.583624   3.814658
    34  H    7.635335   7.433412   7.089045   4.326537   4.199808
    35  C    1.512901   2.181815   2.181971   6.510545   7.119050
    36  H    2.165595   2.530921   3.096107   6.784721   7.294188
    37  H    2.150021   2.523787   2.524238   7.278086   7.810289
    38  H    2.165606   3.096013   2.530905   6.776936   7.560132
                   16         17         18         19         20
    16  O    0.000000
    17  C    2.376232   0.000000
    18  C    1.464007   1.575967   0.000000
    19  C    3.207135   1.529532   2.597828   0.000000
    20  C    3.673972   1.522751   2.609492   2.506581   0.000000
    21  C    2.395689   2.596634   1.529457   3.917295   2.899544
    22  C    2.422197   2.609091   1.522618   2.900757   3.556190
    23  H    2.964691   2.180839   2.797719   1.097574   3.469874
    24  H    4.023328   2.151239   3.528469   1.100490   2.724656
    25  H    3.859316   2.183787   2.949666   1.099843   2.768189
    26  H    3.818456   2.182978   2.881328   3.471226   1.097542
    27  H    4.202016   2.168483   2.882243   2.822613   1.100955
    28  H    4.444291   2.157293   3.549444   2.671862   1.100276
    29  H    2.592293   3.526833   2.153137   4.730904   3.991687
    30  H    3.373949   2.959937   2.187026   4.167346   2.790127
    31  H    2.676595   2.786397   2.184267   4.281028   2.885022
    32  H    2.709782   3.549794   2.158087   3.971432   4.451587
    33  H    2.651612   2.878100   2.179394   2.631964   4.052580
    34  H    3.386315   2.880449   2.169170   3.059046   3.404443
    35  C    7.019766   7.827553   8.060857   7.190886   9.196100
    36  H    7.476931   8.142962   8.521022   7.558114   9.427900
    37  H    7.705158   8.380459   8.641954   7.574722   9.740397
    38  H    7.186603   8.296651   8.344884   7.790537   9.716742
                   21         22         23         24         25
    21  C    0.000000
    22  C    2.507489   0.000000
    23  H    4.290086   2.910690   0.000000
    24  H    4.726703   3.991759   1.778021   0.000000
    25  H    4.158236   2.775367   1.794291   1.782310   0.000000
    26  H    2.632031   4.053957   4.326489   3.692297   3.814102
    27  H    3.062022   3.404972   3.824557   3.183104   2.638117
    28  H    3.969500   4.451630   3.691572   2.425955   2.994290
    29  H    1.100043   2.740445   4.918105   5.624595   4.942411
    30  H    1.099796   2.765603   4.729000   4.944055   4.159903
    31  H    1.099918   3.473965   4.704695   4.902741   4.710801
    32  H    2.673564   1.100336   3.861498   5.062861   3.861855
    33  H    3.469520   1.097448   2.299275   3.711372   2.522514
    34  H    2.826659   1.100886   3.357445   4.079981   2.570720
    35  C    9.368847   8.269741   6.222564   7.178186   7.942396
    36  H    9.785714   8.886478   6.676636   7.408409   8.383728
    37  H   10.020745   8.698123   6.588330   7.543272   8.220582
    38  H    9.577176   8.537897   6.789593   7.891669   8.546311
                   26         27         28         29         30
    26  H    0.000000
    27  H    1.785907   0.000000
    28  H    1.780478   1.780873   0.000000
    29  H    3.707987   4.090743   5.060694   0.000000
    30  H    2.537023   2.588344   3.876943   1.783750   0.000000
    31  H    2.271507   3.335147   3.834517   1.781000   1.786489
    32  H    4.771127   4.279733   5.421077   2.445710   2.985564
    33  H    4.717871   3.983246   4.769754   3.702534   3.812336
    34  H    3.983769   2.920307   4.279108   3.207400   2.640051
    35  C    9.733814   9.871695   9.192761   9.564685  10.233272
    36  H    9.921531  10.182065   9.326200  10.049912  10.658392
    37  H   10.366569  10.340161   9.705872  10.231704  10.827454
    38  H   10.184302  10.394299   9.812352   9.653185  10.497463
                   31         32         33         34         35
    31  H    0.000000
    32  H    3.703564   0.000000
    33  H    4.328368   1.781201   0.000000
    34  H    3.823094   1.781427   1.786121   0.000000
    35  C    9.466485   8.658017   7.437803   9.123604   0.000000
    36  H    9.771639   9.338507   8.109708   9.724652   1.101054
    37  H   10.199965   9.106547   7.781620   9.488796   1.100824
    38  H    9.677496   8.795861   7.744528   9.462893   1.101040
                   36         37         38
    36  H    0.000000
    37  H    1.785445   0.000000
    38  H    1.787708   1.785446   0.000000
 Symmetry turned off by external request.
 Stoichiometry    C12H21BO4
 Framework group  C1[X(C12H21BO4)]
 Deg. of freedom   108
 Full point group                 C1      NOp   1
 Rotational constants (GHZ):           0.7886102           0.2618504           0.2295270
 Leave Link  202 at Tue Aug 18 12:35:30 2026, MaxMem=  2684354560 cpu:               0.0 elap:               0.0
 (Enter /mnt/data/applications/G16/g16/l9999.exe)
 1\1\GINC-KIMIK2196\FOpt\RB3LYP\Gen\C12H21B1O4\ASOLE\18-Aug-2026\0\\#p 
 opt freq b3lyp/gen EmpiricalDispersion=GD3BJ pseudo=read scrf=(solvent
 =acetonitrile,pcm) nosymm pop=(Orbitals=20)\\Title Card Required\\0,1\
 C,-1.01812,0.37875,0.0131\C,-0.2812,1.50594,0.02905\H,0.81018,1.50169,
 -0.03712\C,-0.38702,-0.98049,-0.10321\H,0.71029,-0.93275,-0.16581\H,-0
 .66798,-1.60789,0.76074\H,-0.77251,-1.50391,-0.99558\C,-0.95089,2.8133
 9,0.13557\O,-2.16379,2.96832,0.21011\O,-0.07685,3.83391,0.14094\C,-0.6
 4363,5.16426,0.24187\H,-1.3281,5.31961,-0.60651\H,-1.23701,5.22395,1.1
 6743\B,-2.58891,0.42048,0.11713\O,-3.40014,0.32186,-0.98412\O,-3.25688
 ,0.31948,1.31029\C,-4.78248,0.42482,-0.50848\C,-4.65266,0.00126,1.0039
 4\C,-5.20652,1.88178,-0.70064\C,-5.64944,-0.49681,-1.35568\C,-4.80966,
 -1.50312,1.23072\C,-5.5439,0.78035,1.96158\H,-4.56559,2.56038,-0.12325
 \H,-5.10364,2.14102,-1.7652\H,-6.25648,2.03311,-0.41023\H,-5.26681,-1.
 52548,-1.36121\H,-6.68324,-0.50777,-0.97721\H,-5.67113,-0.13237,-2.393
 62\H,-4.51067,-1.73995,2.26252\H,-5.85143,-1.82597,1.08918\H,-4.16779,
 -2.07915,0.54807\H,-5.38002,0.42697,2.99066\H,-5.3278,1.8558,1.9284\H,
 -6.60517,0.62613,1.71284\C,0.5069,6.14666,0.23556\H,1.08944,6.0634,-0.
 69505\H,0.11789,7.17373,0.31047\H,1.18076,5.96794,1.08777\\Version=AM6
 4L-G16RevA.03\HF=-795.9048404\RMSD=4.537e-09\RMSF=4.558e-06\Dipole=-0.
 2360621,-0.080313,0.0351699\Quadrupole=4.9444954,4.1017371,-9.0462325,
 4.1454462,-0.8973346,-0.0049467\PG=C01 [X(C12H21B1O4)]\\@


 WHAT, THEN, IS TIME?  IF NO ONE ASKS ME, I KNOW WHAT IT IS.
 IF I WISH TO EXPLAIN WHAT IT IS TO HIM WHO ASKS ME, I DO NOT KNOW.
                                   -- ST. AUGUSTINE (FIFTH CENTURY)
 Leave Link 9999 at Tue Aug 18 12:35:30 2026, MaxMem=  2684354560 cpu:               0.0 elap:               0.1
 Job cpu time:       0 days  0 hours 19 minutes 53.2 seconds.
 Elapsed time:       0 days  0 hours 19 minutes 55.3 seconds.
 File lengths (MBytes):  RWF=    164 Int=      0 D2E=      0 Chk=     13 Scr=      1
 Normal termination of Gaussian 16 at Tue Aug 18 12:35:30 2026.
 (Enter /mnt/data/applications/G16/g16/l1.exe)
 Link1:  Proceeding to internal job step number  2.
 ------------------------------------------------------------------
 #P Geom=AllCheck Guess=TCheck SCRF=Check GenChk RB3LYP/ChkBas Freq
 ------------------------------------------------------------------
 1/10=4,29=7,30=1,38=1,40=1/1,3;
 2/12=2,15=1,40=1/2;
 3/5=7,6=2,11=2,14=-4,16=1,17=8,25=1,30=1,67=1,70=2,71=2,74=-5,82=7,116=1,124=41,140=1/1,2,3;
 4/5=101/1;
 5/5=2,38=6,98=1/2;
 8/6=4,10=90,11=11/1;
 11/6=1,8=1,9=11,15=111,16=1,31=1/1,2,10;
 10/6=1,31=1/2;
 6/7=2,8=2,9=2,10=2,28=1/1;
 7/8=1,10=1,25=1,30=1/1,2,3,16;
 1/10=4,30=1/3;
 99//99;
 Leave Link    1 at Tue Aug 18 12:35:31 2026, MaxMem=  2684354560 cpu:               0.0 elap:               0.0
 (Enter /mnt/data/applications/G16/g16/l101.exe)
 Structure from the checkpoint file:  "alkene.chk"
 -------------------
 Title Card Required
 -------------------
 Charge =  0 Multiplicity = 1
 Redundant internal coordinates found in file.  (old form).
 C,0,-1.01812,0.37875,0.0131
 C,0,-0.2812,1.50594,0.02905
 H,0,0.81018,1.50169,-0.03712
 C,0,-0.38702,-0.98049,-0.10321
 H,0,0.71029,-0.93275,-0.16581
 H,0,-0.66798,-1.60789,0.76074
 H,0,-0.77251,-1.50391,-0.99558
 C,0,-0.95089,2.81339,0.13557
 O,0,-2.16379,2.96832,0.21011
 O,0,-0.07685,3.83391,0.14094
 C,0,-0.64363,5.16426,0.24187
 H,0,-1.3281,5.31961,-0.60651
 H,0,-1.23701,5.22395,1.16743
 B,0,-2.58891,0.42048,0.11713
 O,0,-3.40014,0.32186,-0.98412
 O,0,-3.25688,0.31948,1.31029
 C,0,-4.78248,0.42482,-0.50848
 C,0,-4.65266,0.00126,1.00394
 C,0,-5.20652,1.88178,-0.70064
 C,0,-5.64944,-0.49681,-1.35568
 C,0,-4.80966,-1.50312,1.23072
 C,0,-5.5439,0.78035,1.96158
 H,0,-4.56559,2.56038,-0.12325
 H,0,-5.10364,2.14102,-1.7652
 H,0,-6.25648,2.03311,-0.41023
 H,0,-5.26681,-1.52548,-1.36121
 H,0,-6.68324,-0.50777,-0.97721
 H,0,-5.67113,-0.13237,-2.39362
 H,0,-4.51067,-1.73995,2.26252
 H,0,-5.85143,-1.82597,1.08918
 H,0,-4.16779,-2.07915,0.54807
 H,0,-5.38002,0.42697,2.99066
 H,0,-5.3278,1.8558,1.9284
 H,0,-6.60517,0.62613,1.71284
 C,0,0.5069,6.14666,0.23556
 H,0,1.08944,6.0634,-0.69505
 H,0,0.11789,7.17373,0.31047
 H,0,1.18076,5.96794,1.08777
 Recover connectivity data from disk.
 ITRead=  0  0  0  0  0  0  0  0  0  0  0  0  0  0  0  0  0  0  0  0
 ITRead=  0  0  0  0  0  0  0  0  0  0  0  0  0  0  0  0  0  0
 MicOpt= -1 -1 -1 -1 -1 -1 -1 -1 -1 -1 -1 -1 -1 -1 -1 -1 -1 -1 -1 -1
 MicOpt= -1 -1 -1 -1 -1 -1 -1 -1 -1 -1 -1 -1 -1 -1 -1 -1 -1 -1
 NAtoms=     38 NQM=       38 NQMF=       0 NMMI=      0 NMMIF=      0
                NMic=       0 NMicF=      0.
                    Isotopes and Nuclear Properties:
 (Nuclear quadrupole moments (NQMom) in fm**2, nuclear magnetic moments (NMagM)
  in nuclear magnetons)

  Atom         1           2           3           4           5           6           7           8           9          10
 IAtWgt=          12          12           1          12           1           1           1          12          16          16
 AtmWgt=  12.0000000  12.0000000   1.0078250  12.0000000   1.0078250   1.0078250   1.0078250  12.0000000  15.9949146  15.9949146
 NucSpn=           0           0           1           0           1           1           1           0           0           0
 AtZEff=   3.6000000   3.6000000   1.0000000   3.6000000   1.0000000   1.0000000   1.0000000   3.6000000   5.6000000   5.6000000
 NQMom=    0.0000000   0.0000000   0.0000000   0.0000000   0.0000000   0.0000000   0.0000000   0.0000000   0.0000000   0.0000000
 NMagM=    0.0000000   0.0000000   2.7928460   0.0000000   2.7928460   2.7928460   2.7928460   0.0000000   0.0000000   0.0000000
 AtZNuc=   6.0000000   6.0000000   1.0000000   6.0000000   1.0000000   1.0000000   1.0000000   6.0000000   8.0000000   8.0000000

  Atom        11          12          13          14          15          16          17          18          19          20
 IAtWgt=          12           1           1          11          16          16          12          12          12          12
 AtmWgt=  12.0000000   1.0078250   1.0078250  11.0093053  15.9949146  15.9949146  12.0000000  12.0000000  12.0000000  12.0000000
 NucSpn=           0           1           1           3           0           0           0           0           0           0
 AtZEff=   3.6000000   1.0000000   1.0000000   2.7500000   5.6000000   5.6000000   3.6000000   3.6000000   3.6000000   3.6000000
 NQMom=    0.0000000   0.0000000   0.0000000   4.0590000   0.0000000   0.0000000   0.0000000   0.0000000   0.0000000   0.0000000
 NMagM=    0.0000000   2.7928460   2.7928460   2.6886370   0.0000000   0.0000000   0.0000000   0.0000000   0.0000000   0.0000000
 AtZNuc=   6.0000000   1.0000000   1.0000000   5.0000000   8.0000000   8.0000000   6.0000000   6.0000000   6.0000000   6.0000000

  Atom        21          22          23          24          25          26          27          28          29          30
 IAtWgt=          12          12           1           1           1           1           1           1           1           1
 AtmWgt=  12.0000000  12.0000000   1.0078250   1.0078250   1.0078250   1.0078250   1.0078250   1.0078250   1.0078250   1.0078250
 NucSpn=           0           0           1           1           1           1           1           1           1           1
 AtZEff=   3.6000000   3.6000000   1.0000000   1.0000000   1.0000000   1.0000000   1.0000000   1.0000000   1.0000000   1.0000000
 NQMom=    0.0000000   0.0000000   0.0000000   0.0000000   0.0000000   0.0000000   0.0000000   0.0000000   0.0000000   0.0000000
 NMagM=    0.0000000   0.0000000   2.7928460   2.7928460   2.7928460   2.7928460   2.7928460   2.7928460   2.7928460   2.7928460
 AtZNuc=   6.0000000   6.0000000   1.0000000   1.0000000   1.0000000   1.0000000   1.0000000   1.0000000   1.0000000   1.0000000

  Atom        31          32          33          34          35          36          37          38
 IAtWgt=           1           1           1           1          12           1           1           1
 AtmWgt=   1.0078250   1.0078250   1.0078250   1.0078250  12.0000000   1.0078250   1.0078250   1.0078250
 NucSpn=           1           1           1           1           0           1           1           1
 AtZEff=   1.0000000   1.0000000   1.0000000   1.0000000   3.6000000   1.0000000   1.0000000   1.0000000
 NQMom=    0.0000000   0.0000000   0.0000000   0.0000000   0.0000000   0.0000000   0.0000000   0.0000000
 NMagM=    2.7928460   2.7928460   2.7928460   2.7928460   0.0000000   2.7928460   2.7928460   2.7928460
 AtZNuc=   1.0000000   1.0000000   1.0000000   1.0000000   6.0000000   1.0000000   1.0000000   1.0000000
 Leave Link  101 at Tue Aug 18 12:35:31 2026, MaxMem=  2684354560 cpu:               0.3 elap:               0.3
 (Enter /mnt/data/applications/G16/g16/l103.exe)

 GradGradGradGradGradGradGradGradGradGradGradGradGradGradGradGradGradGrad
 Berny optimization.
 Initialization pass.
                           ----------------------------
                           !    Initial Parameters    !
                           ! (Angstroms and Degrees)  !
 --------------------------                            --------------------------
 ! Name  Definition              Value          Derivative Info.                !
 --------------------------------------------------------------------------------
 ! R1    R(1,2)                  1.3468         calculate D2E/DX2 analytically  !
 ! R2    R(1,4)                  1.5031         calculate D2E/DX2 analytically  !
 ! R3    R(1,14)                 1.5748         calculate D2E/DX2 analytically  !
 ! R4    R(2,3)                  1.0934         calculate D2E/DX2 analytically  !
 ! R5    R(2,8)                  1.4728         calculate D2E/DX2 analytically  !
 ! R6    R(4,5)                  1.1001         calculate D2E/DX2 analytically  !
 ! R7    R(4,6)                  1.1041         calculate D2E/DX2 analytically  !
 ! R8    R(4,7)                  1.104          calculate D2E/DX2 analytically  !
 ! R9    R(8,9)                  1.225          calculate D2E/DX2 analytically  !
 ! R10   R(8,10)                 1.3437         calculate D2E/DX2 analytically  !
 ! R11   R(10,11)                1.4496         calculate D2E/DX2 analytically  !
 ! R12   R(11,12)                1.1011         calculate D2E/DX2 analytically  !
 ! R13   R(11,13)                1.1011         calculate D2E/DX2 analytically  !
 ! R14   R(11,35)                1.5129         calculate D2E/DX2 analytically  !
 ! R15   R(14,15)                1.3713         calculate D2E/DX2 analytically  !
 ! R16   R(14,16)                1.3711         calculate D2E/DX2 analytically  !
 ! R17   R(15,17)                1.4655         calculate D2E/DX2 analytically  !
 ! R18   R(16,18)                1.464          calculate D2E/DX2 analytically  !
 ! R19   R(17,18)                1.576          calculate D2E/DX2 analytically  !
 ! R20   R(17,19)                1.5295         calculate D2E/DX2 analytically  !
 ! R21   R(17,20)                1.5228         calculate D2E/DX2 analytically  !
 ! R22   R(18,21)                1.5295         calculate D2E/DX2 analytically  !
 ! R23   R(18,22)                1.5226         calculate D2E/DX2 analytically  !
 ! R24   R(19,23)                1.0976         calculate D2E/DX2 analytically  !
 ! R25   R(19,24)                1.1005         calculate D2E/DX2 analytically  !
 ! R26   R(19,25)                1.0998         calculate D2E/DX2 analytically  !
 ! R27   R(20,26)                1.0975         calculate D2E/DX2 analytically  !
 ! R28   R(20,27)                1.101          calculate D2E/DX2 analytically  !
 ! R29   R(20,28)                1.1003         calculate D2E/DX2 analytically  !
 ! R30   R(21,29)                1.1            calculate D2E/DX2 analytically  !
 ! R31   R(21,30)                1.0998         calculate D2E/DX2 analytically  !
 ! R32   R(21,31)                1.0999         calculate D2E/DX2 analytically  !
 ! R33   R(22,32)                1.1003         calculate D2E/DX2 analytically  !
 ! R34   R(22,33)                1.0974         calculate D2E/DX2 analytically  !
 ! R35   R(22,34)                1.1009         calculate D2E/DX2 analytically  !
 ! R36   R(35,36)                1.1011         calculate D2E/DX2 analytically  !
 ! R37   R(35,37)                1.1008         calculate D2E/DX2 analytically  !
 ! R38   R(35,38)                1.101          calculate D2E/DX2 analytically  !
 ! A1    A(2,1,4)              121.8714         calculate D2E/DX2 analytically  !
 ! A2    A(2,1,14)             121.5214         calculate D2E/DX2 analytically  !
 ! A3    A(4,1,14)             116.6072         calculate D2E/DX2 analytically  !
 ! A4    A(1,2,3)              122.8327         calculate D2E/DX2 analytically  !
 ! A5    A(1,2,8)              119.6713         calculate D2E/DX2 analytically  !
 ! A6    A(3,2,8)              117.4958         calculate D2E/DX2 analytically  !
 ! A7    A(1,4,5)              112.5784         calculate D2E/DX2 analytically  !
 ! A8    A(1,4,6)              110.2717         calculate D2E/DX2 analytically  !
 ! A9    A(1,4,7)              110.1611         calculate D2E/DX2 analytically  !
 ! A10   A(5,4,6)              108.845          calculate D2E/DX2 analytically  !
 ! A11   A(5,4,7)              108.8353         calculate D2E/DX2 analytically  !
 ! A12   A(6,4,7)              105.9158         calculate D2E/DX2 analytically  !
 ! A13   A(2,8,9)              124.5317         calculate D2E/DX2 analytically  !
 ! A14   A(2,8,10)             112.2553         calculate D2E/DX2 analytically  !
 ! A15   A(9,8,10)             123.213          calculate D2E/DX2 analytically  !
 ! A16   A(8,10,11)            116.2939         calculate D2E/DX2 analytically  !
 ! A17   A(10,11,12)           108.5961         calculate D2E/DX2 analytically  !
 ! A18   A(10,11,13)           108.6024         calculate D2E/DX2 analytically  !
 ! A19   A(10,11,35)           107.3559         calculate D2E/DX2 analytically  !
 ! A20   A(12,11,13)           107.7599         calculate D2E/DX2 analytically  !
 ! A21   A(12,11,35)           112.2043         calculate D2E/DX2 analytically  !
 ! A22   A(13,11,35)           112.2186         calculate D2E/DX2 analytically  !
 ! A23   A(1,14,15)            122.351          calculate D2E/DX2 analytically  !
 ! A24   A(1,14,16)            122.7833         calculate D2E/DX2 analytically  !
 ! A25   A(15,14,16)           113.9115         calculate D2E/DX2 analytically  !
 ! A26   A(14,15,17)           106.9959         calculate D2E/DX2 analytically  !
 ! A27   A(14,16,18)           107.3603         calculate D2E/DX2 analytically  !
 ! A28   A(15,17,18)           102.409          calculate D2E/DX2 analytically  !
 ! A29   A(15,17,19)           106.7173         calculate D2E/DX2 analytically  !
 ! A30   A(15,17,20)           108.2967         calculate D2E/DX2 analytically  !
 ! A31   A(18,17,19)           113.5416         calculate D2E/DX2 analytically  !
 ! A32   A(18,17,20)           114.7186         calculate D2E/DX2 analytically  !
 ! A33   A(19,17,20)           110.413          calculate D2E/DX2 analytically  !
 ! A34   A(16,18,17)           102.7639         calculate D2E/DX2 analytically  !
 ! A35   A(16,18,21)           106.2983         calculate D2E/DX2 analytically  !
 ! A36   A(16,18,22)           108.3745         calculate D2E/DX2 analytically  !
 ! A37   A(17,18,21)           113.4654         calculate D2E/DX2 analytically  !
 ! A38   A(17,18,22)           114.6987         calculate D2E/DX2 analytically  !
 ! A39   A(21,18,22)           110.4841         calculate D2E/DX2 analytically  !
 ! A40   A(17,19,23)           111.1589         calculate D2E/DX2 analytically  !
 ! A41   A(17,19,24)           108.6632         calculate D2E/DX2 analytically  !
 ! A42   A(17,19,25)           111.257          calculate D2E/DX2 analytically  !
 ! A43   A(23,19,24)           107.9778         calculate D2E/DX2 analytically  !
 ! A44   A(23,19,25)           109.4809         calculate D2E/DX2 analytically  !
 ! A45   A(24,19,25)           108.1954         calculate D2E/DX2 analytically  !
 ! A46   A(17,20,26)           111.813          calculate D2E/DX2 analytically  !
 ! A47   A(17,20,27)           110.4492         calculate D2E/DX2 analytically  !
 ! A48   A(17,20,28)           109.6086         calculate D2E/DX2 analytically  !
 ! A49   A(26,20,27)           108.6485         calculate D2E/DX2 analytically  !
 ! A50   A(26,20,28)           108.2136         calculate D2E/DX2 analytically  !
 ! A51   A(27,20,28)           108.0035         calculate D2E/DX2 analytically  !
 ! A52   A(18,21,29)           108.8407         calculate D2E/DX2 analytically  !
 ! A53   A(18,21,30)           111.5242         calculate D2E/DX2 analytically  !
 ! A54   A(18,21,31)           111.2961         calculate D2E/DX2 analytically  !
 ! A55   A(29,21,30)           108.3591         calculate D2E/DX2 analytically  !
 ! A56   A(29,21,31)           108.1059         calculate D2E/DX2 analytically  !
 ! A57   A(30,21,31)           108.6124         calculate D2E/DX2 analytically  !
 ! A58   A(18,22,32)           109.6764         calculate D2E/DX2 analytically  !
 ! A59   A(18,22,33)           111.5398         calculate D2E/DX2 analytically  !
 ! A60   A(18,22,34)           110.5169         calculate D2E/DX2 analytically  !
 ! A61   A(32,22,33)           108.2804         calculate D2E/DX2 analytically  !
 ! A62   A(32,22,34)           108.0532         calculate D2E/DX2 analytically  !
 ! A63   A(33,22,34)           108.6795         calculate D2E/DX2 analytically  !
 ! A64   A(11,35,36)           110.9021         calculate D2E/DX2 analytically  !
 ! A65   A(11,35,37)           109.6833         calculate D2E/DX2 analytically  !
 ! A66   A(11,35,38)           110.9038         calculate D2E/DX2 analytically  !
 ! A67   A(36,35,37)           108.3627         calculate D2E/DX2 analytically  !
 ! A68   A(36,35,38)           108.5486         calculate D2E/DX2 analytically  !
 ! A69   A(37,35,38)           108.3638         calculate D2E/DX2 analytically  !
 ! D1    D(4,1,2,3)             -0.235          calculate D2E/DX2 analytically  !
 ! D2    D(4,1,2,8)            179.5825         calculate D2E/DX2 analytically  !
 ! D3    D(14,1,2,3)           179.7072         calculate D2E/DX2 analytically  !
 ! D4    D(14,1,2,8)            -0.4753         calculate D2E/DX2 analytically  !
 ! D5    D(2,1,4,5)              0.2711         calculate D2E/DX2 analytically  !
 ! D6    D(2,1,4,6)            122.0406         calculate D2E/DX2 analytically  !
 ! D7    D(2,1,4,7)           -121.4066         calculate D2E/DX2 analytically  !
 ! D8    D(14,1,4,5)          -179.6738         calculate D2E/DX2 analytically  !
 ! D9    D(14,1,4,6)           -57.9043         calculate D2E/DX2 analytically  !
 ! D10   D(14,1,4,7)            58.6484         calculate D2E/DX2 analytically  !
 ! D11   D(2,1,14,15)           99.0777         calculate D2E/DX2 analytically  !
 ! D12   D(2,1,14,16)          -92.7847         calculate D2E/DX2 analytically  !
 ! D13   D(4,1,14,15)          -80.9772         calculate D2E/DX2 analytically  !
 ! D14   D(4,1,14,16)           87.1604         calculate D2E/DX2 analytically  !
 ! D15   D(1,2,8,9)             -0.1999         calculate D2E/DX2 analytically  !
 ! D16   D(1,2,8,10)           179.868          calculate D2E/DX2 analytically  !
 ! D17   D(3,2,8,9)            179.6273         calculate D2E/DX2 analytically  !
 ! D18   D(3,2,8,10)            -0.3048         calculate D2E/DX2 analytically  !
 ! D19   D(2,8,10,11)          179.9529         calculate D2E/DX2 analytically  !
 ! D20   D(9,8,10,11)            0.0197         calculate D2E/DX2 analytically  !
 ! D21   D(8,10,11,12)         -58.6919         calculate D2E/DX2 analytically  !
 ! D22   D(8,10,11,13)          58.2329         calculate D2E/DX2 analytically  !
 ! D23   D(8,10,11,35)         179.7808         calculate D2E/DX2 analytically  !
 ! D24   D(10,11,35,36)         60.3175         calculate D2E/DX2 analytically  !
 ! D25   D(10,11,35,37)        179.9719         calculate D2E/DX2 analytically  !
 ! D26   D(10,11,35,38)        -60.3712         calculate D2E/DX2 analytically  !
 ! D27   D(12,11,35,36)        -58.9205         calculate D2E/DX2 analytically  !
 ! D28   D(12,11,35,37)         60.7339         calculate D2E/DX2 analytically  !
 ! D29   D(12,11,35,38)       -179.6092         calculate D2E/DX2 analytically  !
 ! D30   D(13,11,35,36)        179.5716         calculate D2E/DX2 analytically  !
 ! D31   D(13,11,35,37)        -60.774          calculate D2E/DX2 analytically  !
 ! D32   D(13,11,35,38)         58.8829         calculate D2E/DX2 analytically  !
 ! D33   D(1,14,15,17)        -178.9318         calculate D2E/DX2 analytically  !
 ! D34   D(16,14,15,17)         11.9654         calculate D2E/DX2 analytically  !
 ! D35   D(1,14,16,18)        -163.6138         calculate D2E/DX2 analytically  !
 ! D36   D(15,14,16,18)          5.4358         calculate D2E/DX2 analytically  !
 ! D37   D(14,15,17,18)        -22.5014         calculate D2E/DX2 analytically  !
 ! D38   D(14,15,17,19)         97.0432         calculate D2E/DX2 analytically  !
 ! D39   D(14,15,17,20)       -144.0832         calculate D2E/DX2 analytically  !
 ! D40   D(14,16,18,17)        -18.8953         calculate D2E/DX2 analytically  !
 ! D41   D(14,16,18,21)        100.5515         calculate D2E/DX2 analytically  !
 ! D42   D(14,16,18,22)       -140.6778         calculate D2E/DX2 analytically  !
 ! D43   D(15,17,18,16)         24.9541         calculate D2E/DX2 analytically  !
 ! D44   D(15,17,18,21)        -89.3782         calculate D2E/DX2 analytically  !
 ! D45   D(15,17,18,22)        142.3377         calculate D2E/DX2 analytically  !
 ! D46   D(19,17,18,16)        -89.6995         calculate D2E/DX2 analytically  !
 ! D47   D(19,17,18,21)        155.9682         calculate D2E/DX2 analytically  !
 ! D48   D(19,17,18,22)         27.6841         calculate D2E/DX2 analytically  !
 ! D49   D(20,17,18,16)        142.0292         calculate D2E/DX2 analytically  !
 ! D50   D(20,17,18,21)         27.6969         calculate D2E/DX2 analytically  !
 ! D51   D(20,17,18,22)       -100.5871         calculate D2E/DX2 analytically  !
 ! D52   D(15,17,19,23)        -60.452          calculate D2E/DX2 analytically  !
 ! D53   D(15,17,19,24)         58.2375         calculate D2E/DX2 analytically  !
 ! D54   D(15,17,19,25)        177.2532         calculate D2E/DX2 analytically  !
 ! D55   D(18,17,19,23)         51.609          calculate D2E/DX2 analytically  !
 ! D56   D(18,17,19,24)        170.2985         calculate D2E/DX2 analytically  !
 ! D57   D(18,17,19,25)        -70.6858         calculate D2E/DX2 analytically  !
 ! D58   D(20,17,19,23)       -177.9378         calculate D2E/DX2 analytically  !
 ! D59   D(20,17,19,24)        -59.2483         calculate D2E/DX2 analytically  !
 ! D60   D(20,17,19,25)         59.7674         calculate D2E/DX2 analytically  !
 ! D61   D(15,17,20,26)         54.4116         calculate D2E/DX2 analytically  !
 ! D62   D(15,17,20,27)        175.531          calculate D2E/DX2 analytically  !
 ! D63   D(15,17,20,28)        -65.5869         calculate D2E/DX2 analytically  !
 ! D64   D(18,17,20,26)        -59.2525         calculate D2E/DX2 analytically  !
 ! D65   D(18,17,20,27)         61.8669         calculate D2E/DX2 analytically  !
 ! D66   D(18,17,20,28)       -179.251          calculate D2E/DX2 analytically  !
 ! D67   D(19,17,20,26)        170.9195         calculate D2E/DX2 analytically  !
 ! D68   D(19,17,20,27)        -67.961          calculate D2E/DX2 analytically  !
 ! D69   D(19,17,20,28)         50.9211         calculate D2E/DX2 analytically  !
 ! D70   D(16,18,21,29)         56.6613         calculate D2E/DX2 analytically  !
 ! D71   D(16,18,21,30)        176.155          calculate D2E/DX2 analytically  !
 ! D72   D(16,18,21,31)        -62.3803         calculate D2E/DX2 analytically  !
 ! D73   D(17,18,21,29)        168.8626         calculate D2E/DX2 analytically  !
 ! D74   D(17,18,21,30)        -71.6437         calculate D2E/DX2 analytically  !
 ! D75   D(17,18,21,31)         49.821          calculate D2E/DX2 analytically  !
 ! D76   D(22,18,21,29)        -60.7142         calculate D2E/DX2 analytically  !
 ! D77   D(22,18,21,30)         58.7795         calculate D2E/DX2 analytically  !
 ! D78   D(22,18,21,31)       -179.7558         calculate D2E/DX2 analytically  !
 ! D79   D(16,18,22,32)        -65.256          calculate D2E/DX2 analytically  !
 ! D80   D(16,18,22,33)         54.696          calculate D2E/DX2 analytically  !
 ! D81   D(16,18,22,34)        175.7168         calculate D2E/DX2 analytically  !
 ! D82   D(17,18,22,32)       -179.3988         calculate D2E/DX2 analytically  !
 ! D83   D(17,18,22,33)        -59.4469         calculate D2E/DX2 analytically  !
 ! D84   D(17,18,22,34)         61.574          calculate D2E/DX2 analytically  !
 ! D85   D(21,18,22,32)         50.8326         calculate D2E/DX2 analytically  !
 ! D86   D(21,18,22,33)        170.7846         calculate D2E/DX2 analytically  !
 ! D87   D(21,18,22,34)        -68.1946         calculate D2E/DX2 analytically  !
 --------------------------------------------------------------------------------
 Trust Radius=3.00D-01 FncErr=1.00D-07 GrdErr=1.00D-07 EigMax=2.50D+02 EigMin=1.00D-04
 Number of steps in this run=      2 maximum allowed number of steps=      2.
 GradGradGradGradGradGradGradGradGradGradGradGradGradGradGradGradGradGrad

 Leave Link  103 at Tue Aug 18 12:35:31 2026, MaxMem=  2684354560 cpu:               0.0 elap:               0.0
 (Enter /mnt/data/applications/G16/g16/l202.exe)
                          Input orientation:                          
 ---------------------------------------------------------------------
 Center     Atomic      Atomic             Coordinates (Angstroms)
 Number     Number       Type             X           Y           Z
 ---------------------------------------------------------------------
      1          6           0       -1.018120    0.378750    0.013100
      2          6           0       -0.281200    1.505940    0.029050
      3          1           0        0.810180    1.501690   -0.037120
      4          6           0       -0.387020   -0.980490   -0.103210
      5          1           0        0.710290   -0.932750   -0.165810
      6          1           0       -0.667980   -1.607890    0.760740
      7          1           0       -0.772510   -1.503910   -0.995580
      8          6           0       -0.950890    2.813390    0.135570
      9          8           0       -2.163790    2.968320    0.210110
     10          8           0       -0.076850    3.833910    0.140940
     11          6           0       -0.643630    5.164260    0.241870
     12          1           0       -1.328100    5.319610   -0.606510
     13          1           0       -1.237010    5.223950    1.167430
     14          5           0       -2.588910    0.420480    0.117130
     15          8           0       -3.400140    0.321860   -0.984120
     16          8           0       -3.256880    0.319480    1.310290
     17          6           0       -4.782480    0.424820   -0.508480
     18          6           0       -4.652660    0.001260    1.003940
     19          6           0       -5.206520    1.881780   -0.700640
     20          6           0       -5.649440   -0.496810   -1.355680
     21          6           0       -4.809660   -1.503120    1.230720
     22          6           0       -5.543900    0.780350    1.961580
     23          1           0       -4.565590    2.560380   -0.123250
     24          1           0       -5.103640    2.141020   -1.765200
     25          1           0       -6.256480    2.033110   -0.410230
     26          1           0       -5.266810   -1.525480   -1.361210
     27          1           0       -6.683240   -0.507770   -0.977210
     28          1           0       -5.671130   -0.132370   -2.393620
     29          1           0       -4.510670   -1.739950    2.262520
     30          1           0       -5.851430   -1.825970    1.089180
     31          1           0       -4.167790   -2.079150    0.548070
     32          1           0       -5.380020    0.426970    2.990660
     33          1           0       -5.327800    1.855800    1.928400
     34          1           0       -6.605170    0.626130    1.712840
     35          6           0        0.506900    6.146660    0.235560
     36          1           0        1.089440    6.063400   -0.695050
     37          1           0        0.117890    7.173730    0.310470
     38          1           0        1.180760    5.967940    1.087770
 ---------------------------------------------------------------------
                    Distance matrix (angstroms):
                    1          2          3          4          5
     1  C    0.000000
     2  C    1.346797   0.000000
     3  H    2.146205   1.093392   0.000000
     4  C    1.503113   2.492193   2.756605   0.000000
     5  H    2.177026   2.639741   2.439885   1.100130   0.000000
     6  H    2.151349   3.221941   3.534264   1.104074   1.792746
     7  H    2.149923   3.217211   3.529474   1.104036   1.792606
     8  C    2.438645   1.472840   2.202668   3.842979   4.109004
     9  O    2.838529   2.390708   3.325150   4.341449   4.860041
    10  O    3.583359   2.339599   2.501555   4.830555   4.840943
    11  C    4.805589   3.682384   3.950420   6.159779   6.258820
    12  H    4.989199   4.005498   4.412818   6.389852   6.590998
    13  H    4.985615   4.004133   4.415557   6.389999   6.593517
    14  B    1.574784   2.551765   3.570241   2.619081   3.577151
    15  O    2.582964   3.486595   4.473880   3.398678   4.374850
    16  O    2.588100   3.450208   4.444560   3.453115   4.414226
    17  C    3.800602   4.660395   5.714864   4.632409   5.668416
    18  C    3.786046   4.724842   5.760010   4.515008   5.567937
    19  C    4.506797   4.993243   6.065097   5.637117   6.573908
    20  C    4.908084   5.894615   6.889071   5.430994   6.484751
    21  C    4.404521   5.568250   6.497607   4.648898   5.722365
    22  C    4.943738   5.653067   6.699960   5.827292   6.824617
    23  H    4.166851   4.414865   5.479703   5.477099   6.327612
    24  H    4.791599   5.184456   6.194213   5.895128   6.768153
    25  H    5.509676   6.014553   7.096429   6.605044   7.575748
    26  H    4.854502   5.998219   6.917137   5.068721   6.124217
    27  H    5.818953   6.786288   7.814924   6.374145   7.450051
    28  H    5.263463   6.132270   7.087357   5.821263   6.806340
    29  H    4.663334   5.780364   6.641387   4.814348   5.814360
    30  H    5.420297   6.576698   7.531196   5.656537   6.740105
    31  H    4.030867   5.312987   6.159955   3.990669   5.061573
    32  H    5.281511   5.994437   6.974314   6.040118   6.993141
    33  H    4.942003   5.403527   6.454724   6.048412   6.972823
    34  H    5.845121   6.603167   7.669184   6.674178   7.712029
    35  C    5.970256   4.711691   4.662840   7.190975   7.093695
    36  H    6.103977   4.813877   4.617365   7.221260   7.026376
    37  H    6.895702   5.688788   5.724694   8.180304   8.142039
    38  H    6.101560   4.813279   4.620616   7.221984   7.029390
                    6          7          8          9         10
     6  H    0.000000
     7  H    1.762498   0.000000
     8  C    4.474214   4.466587   0.000000
     9  O    4.845858   4.836341   1.225025   0.000000
    10  O    5.508791   5.501631   1.343665   2.260387   0.000000
    11  C    6.792042   6.783243   2.373246   2.670964   1.449572
    12  H    7.091924   6.857148   2.640854   2.625607   2.081253
    13  H    6.867549   7.082265   2.637688   2.619780   2.081313
    14  B    2.866791   2.870664   2.899908   2.584736   4.238221
    15  O    3.772687   3.199689   3.668822   3.155709   4.964324
    16  O    3.274013   3.848881   3.594043   3.069462   4.881720
    17  C    4.761506   4.476285   4.560828   3.720659   5.846930
    18  C    4.304205   4.617270   4.729190   3.953237   6.030921
    19  C    5.908619   5.586621   4.435936   3.356820   5.552709
    20  C    5.525276   4.992832   5.937813   5.158351   7.214483
    21  C    4.169577   4.610314   5.892514   5.294908   7.216024
    22  C    5.560603   6.060429   5.344465   4.390900   6.521318
    23  H    5.774710   5.627332   3.632776   2.458900   4.673378
    24  H    6.333228   5.712838   4.616312   3.637168   5.636299
    25  H    6.771956   6.551875   5.390364   4.243766   6.460224
    26  H    5.065442   4.509200   6.300263   5.682607   7.610204
    27  H    6.357207   5.994111   6.717754   5.823947   7.984036
    28  H    6.095790   5.275615   6.111871   5.356783   7.311042
    29  H    4.127838   4.964350   6.158641   5.646950   7.431539
    30  H    5.198421   5.499580   6.815301   6.112010   8.141202
    31  H    3.537794   3.773815   5.869885   5.441249   7.201793
    32  H    5.596116   6.391209   5.784785   4.953186   6.917496
    33  H    5.922373   6.370869   4.825822   3.768445   5.889007
    34  H    6.414637   6.774403   6.264405   5.241174   7.441753
    35  C    7.860611   7.853905   3.639483   4.151515   2.387159
    36  H    8.003533   7.798805   3.926250   4.580648   2.651365
    37  H    8.828204   8.820432   4.492822   4.785563   3.349785
    38  H    7.804998   7.999010   3.924513   4.577556   2.651821
                   11         12         13         14         15
    11  C    0.000000
    12  H    1.101082   0.000000
    13  H    1.101056   1.778851   0.000000
    14  B    5.128657   5.110261   5.099420   0.000000
    15  O    5.705281   5.423416   5.773975   1.371339   0.000000
    16  O    5.607360   5.691715   5.306045   1.371137   2.298879
    17  C    6.336829   5.991771   6.197635   2.281043   1.465503
    18  C    6.581006   6.475422   6.242586   2.285004   2.371492
    19  C    5.699383   5.183597   5.515142   3.107415   2.403481
    20  C    7.723860   7.284640   7.652628   3.518158   2.422319
    21  C    7.923862   7.876949   7.617172   3.141982   3.197314
    22  C    6.796228   6.706186   6.239035   3.501923   3.671930
    23  H    4.721787   4.281148   4.454201   2.923049   2.666523
    24  H    5.749783   5.069586   5.749400   3.581521   2.611770
    25  H    6.460141   5.926933   6.153499   4.041009   3.378817
    26  H    8.288322   7.933364   8.257609   3.625382   2.653171
    27  H    8.374662   7.922960   8.192284   4.338521   3.386308
    28  H    7.763753   7.195815   7.812340   4.013675   2.711164
    29  H    8.167322   8.258176   7.772514   3.600461   4.003125
    30  H    8.757992   8.625265   8.426172   4.078659   3.862715
    31  H    8.061045   8.008654   7.893564   2.987762   2.949871
    32  H    7.240936   7.300385   6.595431   4.005935   4.441829
    33  H    5.977603   5.866971   5.353324   3.583624   3.814658
    34  H    7.635335   7.433412   7.089045   4.326537   4.199808
    35  C    1.512901   2.181815   2.181971   6.510545   7.119050
    36  H    2.165595   2.530921   3.096107   6.784721   7.294188
    37  H    2.150021   2.523787   2.524238   7.278086   7.810289
    38  H    2.165606   3.096013   2.530905   6.776936   7.560132
                   16         17         18         19         20
    16  O    0.000000
    17  C    2.376232   0.000000
    18  C    1.464007   1.575967   0.000000
    19  C    3.207135   1.529532   2.597828   0.000000
    20  C    3.673972   1.522751   2.609492   2.506581   0.000000
    21  C    2.395689   2.596634   1.529457   3.917295   2.899544
    22  C    2.422197   2.609091   1.522618   2.900757   3.556190
    23  H    2.964691   2.180839   2.797719   1.097574   3.469874
    24  H    4.023328   2.151239   3.528469   1.100490   2.724656
    25  H    3.859316   2.183787   2.949666   1.099843   2.768189
    26  H    3.818456   2.182978   2.881328   3.471226   1.097542
    27  H    4.202016   2.168483   2.882243   2.822613   1.100955
    28  H    4.444291   2.157293   3.549444   2.671862   1.100276
    29  H    2.592293   3.526833   2.153137   4.730904   3.991687
    30  H    3.373949   2.959937   2.187026   4.167346   2.790127
    31  H    2.676595   2.786397   2.184267   4.281028   2.885022
    32  H    2.709782   3.549794   2.158087   3.971432   4.451587
    33  H    2.651612   2.878100   2.179394   2.631964   4.052580
    34  H    3.386315   2.880449   2.169170   3.059046   3.404443
    35  C    7.019766   7.827553   8.060857   7.190886   9.196100
    36  H    7.476931   8.142962   8.521022   7.558114   9.427900
    37  H    7.705158   8.380459   8.641954   7.574722   9.740397
    38  H    7.186603   8.296651   8.344884   7.790537   9.716742
                   21         22         23         24         25
    21  C    0.000000
    22  C    2.507489   0.000000
    23  H    4.290086   2.910690   0.000000
    24  H    4.726703   3.991759   1.778021   0.000000
    25  H    4.158236   2.775367   1.794291   1.782310   0.000000
    26  H    2.632031   4.053957   4.326489   3.692297   3.814102
    27  H    3.062022   3.404972   3.824557   3.183104   2.638117
    28  H    3.969500   4.451630   3.691572   2.425955   2.994290
    29  H    1.100043   2.740445   4.918105   5.624595   4.942411
    30  H    1.099796   2.765603   4.729000   4.944055   4.159903
    31  H    1.099918   3.473965   4.704695   4.902741   4.710801
    32  H    2.673564   1.100336   3.861498   5.062861   3.861855
    33  H    3.469520   1.097448   2.299275   3.711372   2.522514
    34  H    2.826659   1.100886   3.357445   4.079981   2.570720
    35  C    9.368847   8.269741   6.222564   7.178186   7.942396
    36  H    9.785714   8.886478   6.676636   7.408409   8.383728
    37  H   10.020745   8.698123   6.588330   7.543272   8.220582
    38  H    9.577176   8.537897   6.789593   7.891669   8.546311
                   26         27         28         29         30
    26  H    0.000000
    27  H    1.785907   0.000000
    28  H    1.780478   1.780873   0.000000
    29  H    3.707987   4.090743   5.060694   0.000000
    30  H    2.537023   2.588344   3.876943   1.783750   0.000000
    31  H    2.271507   3.335147   3.834517   1.781000   1.786489
    32  H    4.771127   4.279733   5.421077   2.445710   2.985564
    33  H    4.717871   3.983246   4.769754   3.702534   3.812336
    34  H    3.983769   2.920307   4.279108   3.207400   2.640051
    35  C    9.733814   9.871695   9.192761   9.564685  10.233272
    36  H    9.921531  10.182065   9.326200  10.049912  10.658392
    37  H   10.366569  10.340161   9.705872  10.231704  10.827454
    38  H   10.184302  10.394299   9.812352   9.653185  10.497463
                   31         32         33         34         35
    31  H    0.000000
    32  H    3.703564   0.000000
    33  H    4.328368   1.781201   0.000000
    34  H    3.823094   1.781427   1.786121   0.000000
    35  C    9.466485   8.658017   7.437803   9.123604   0.000000
    36  H    9.771639   9.338507   8.109708   9.724652   1.101054
    37  H   10.199965   9.106547   7.781620   9.488796   1.100824
    38  H    9.677496   8.795861   7.744528   9.462893   1.101040
                   36         37         38
    36  H    0.000000
    37  H    1.785445   0.000000
    38  H    1.787708   1.785446   0.000000
 Symmetry turned off by external request.
 Stoichiometry    C12H21BO4
 Framework group  C1[X(C12H21BO4)]
 Deg. of freedom   108
 Full point group                 C1      NOp   1
 Rotational constants (GHZ):           0.7886102           0.2618504           0.2295270
 Leave Link  202 at Tue Aug 18 12:35:31 2026, MaxMem=  2684354560 cpu:               0.0 elap:               0.0
 (Enter /mnt/data/applications/G16/g16/l301.exe)
 Basis read from chk: "alkene.chk" (5D, 7F)
 Pseudo-potential data read from chk file.
   343 basis functions,   708 primitive gaussians,   360 cartesian basis functions
    65 alpha electrons       65 beta electrons
       nuclear repulsion energy      1291.6792614994 Hartrees.
 IExCor=  402 DFT=T Ex+Corr=B3LYP ExCW=0 ScaHFX=  0.200000
 ScaDFX=  0.800000  0.720000  1.000000  0.810000 ScalE2=  1.000000  1.000000
 IRadAn=      5 IRanWt=     -1 IRanGd=            0 ICorTp=0 IEmpDi=141
 NAtoms=   38 NActive=   38 NUniq=   38 SFac= 1.00D+00 NAtFMM=   60 NAOKFM=F Big=F
 Integral buffers will be    131072 words long.
 Raffenetti 2 integral format.
 Two-electron integral symmetry is turned off.
 R6Disp:  Grimme-D3(BJ) Dispersion energy=       -0.0669663793 Hartrees.
 Nuclear repulsion after empirical dispersion term =     1291.6122951202 Hartrees.
 No density basis found on file 20724.
 Force inversion solution in PCM.
 ------------------------------------------------------------------------------
 Polarizable Continuum Model (PCM)
 =================================
 Model                : PCM.
 Atomic radii         : UFF (Universal Force Field).
 Polarization charges : Total charges.
 Charge compensation  : None.
 Solution method      : Matrix inversion.
 Cavity type          : Scaled VdW (van der Waals Surface) (Alpha=1.100).
 Cavity algorithm     : GePol (No added spheres)
                        Default sphere list used, NSphG=   38.
                        Lebedev-Laikov grids with approx.  5.0 points / Ang**2.
                        Smoothing algorithm: York/Karplus (Gamma=1.0000).
                        Polarization charges: spherical gaussians, with
                                              point-specific exponents (IZeta= 3).
                        Self-potential: point-specific (ISelfS= 7).
                        Self-field    : sphere-specific E.n sum rule (ISelfD= 2).
 1st derivatives      : Analytical E(r).r(x)/FMM algorithm (CHGder, D1EAlg=3).
                        Cavity 1st derivative terms included.
 2nd derivatives      : Analytical E(r).r(xy)/FMM algorithm (CHGder, D2EAlg=3).
                        Cavity 2nd derivative terms included.
 Solvent              : Acetonitrile, Eps=  35.688000 Eps(inf)=   1.806874
 ------------------------------------------------------------------------------
 GePol: Number of generator spheres                  =      38
 GePol: Total number of spheres                      =      38
 GePol: Number of exposed spheres                    =      38 (100.00%)
 GePol: Number of points                             =    2608
 GePol: Average weight of points                     =       0.13
 GePol: Minimum weight of points                     =   0.19D-09
 GePol: Maximum weight of points                     =    0.20577
 GePol: Number of points with low weight             =     173
 GePol: Fraction of low-weight points (<1% of avg)   =       6.63%
 GePol: Cavity surface area                          =    344.687 Ang**2
 GePol: Cavity volume                                =    369.435 Ang**3
 Leave Link  301 at Tue Aug 18 12:35:31 2026, MaxMem=  2684354560 cpu:               0.1 elap:               0.1
 (Enter /mnt/data/applications/G16/g16/l302.exe)
 NPDir=0 NMtPBC=     1 NCelOv=     1 NCel=       1 NClECP=     1 NCelD=      1
         NCelK=      1 NCelE2=     1 NClLst=     1 CellRange=     0.0.
 One-electron integrals computed using PRISM.
   1 Symmetry operations used in ECPInt.
 ECPInt:  NShTT=   13695 NPrTT=  100063 LenC2=   12592 LenP2D=   52306.
 LDataN:  DoStor=T MaxTD1= 4 Len=   56
 NBasis=   343 RedAO= T EigKep=  9.91D-04  NBF=   343
 NBsUse=   343 1.00D-06 EigRej= -1.00D+00 NBFU=   343
 Precomputing XC quadrature grid using
 IXCGrd= 4 IRadAn=           5 IRanWt=          -1 IRanGd=           0 AccXCQ= 0.00D+00.
 Generated NRdTot=       0 NPtTot=           0 NUsed=           0 NTot=          32
 NSgBfM=   358   358   358   358   358 MxSgAt=    38 MxSgA2=    38.
 Leave Link  302 at Tue Aug 18 12:35:34 2026, MaxMem=  2684354560 cpu:               3.0 elap:               3.0
 (Enter /mnt/data/applications/G16/g16/l303.exe)
 DipDrv:  MaxL=1.
 Leave Link  303 at Tue Aug 18 12:35:34 2026, MaxMem=  2684354560 cpu:               0.1 elap:               0.1
 (Enter /mnt/data/applications/G16/g16/l401.exe)
 Initial guess from the checkpoint file:  "alkene.chk"
 B after Tr=     0.000000    0.000000    0.000000
         Rot=    1.000000    0.000000    0.000000    0.000000 Ang=   0.00 deg.
 Guess basis will be translated and rotated to current coordinates.
 JPrj=2 DoOrth=T DoCkMO=T.
 Leave Link  401 at Tue Aug 18 12:35:34 2026, MaxMem=  2684354560 cpu:               0.4 elap:               0.4
 (Enter /mnt/data/applications/G16/g16/l502.exe)
 Keep R1 ints in memory in canonical form, NReq=1763817827.
 FoFCou: FMM=F IPFlag=           0 FMFlag=           0 FMFlg1=           0
         NFxFlg=           0 DoJE=F BraDBF=F KetDBF=F FulRan=T
         wScrn=  0.000000 ICntrl=       600 IOpCl=  0 I1Cent=           0 NGrid=           0
         NMat0=    1 NMatS0=  58996 NMatT0=    0 NMatD0=    1 NMtDS0=    0 NMtDT0=    0
 Symmetry not used in FoFCou.
 Two-electron integral symmetry not used.
 Closed shell SCF:
 Using DIIS extrapolation, IDIIS=  1040.
 NGot=  2684354560 LenX=   943796544 LenY=   943666503
 Requested convergence on RMS density matrix=1.00D-08 within 128 cycles.
 Requested convergence on MAX density matrix=1.00D-06.
 Requested convergence on             energy=1.00D-06.
 No special actions if energy rises.

 Cycle   1  Pass 1  IDiag  1:
 Inv3:  Mode=1 IEnd=    20404992.
 Iteration    1 A*A^-1 deviation from unit magnitude is 2.44D-15 for    570.
 Iteration    1 A*A^-1 deviation from orthogonality  is 1.06D-15 for   2488   1343.
 Iteration    1 A^-1*A deviation from unit magnitude is 2.22D-15 for    382.
 Iteration    1 A^-1*A deviation from orthogonality  is 4.82D-13 for   2255   2199.
 E= -795.904840382360    
 DIIS: error= 1.35D-08 at cycle   1 NSaved=   1.
 NSaved= 1 IEnMin= 1 EnMin= -795.904840382360     IErMin= 1 ErrMin= 1.35D-08
 ErrMax= 1.35D-08  0.00D+00 EMaxC= 1.00D-01 BMatC= 1.27D-13 BMatP= 1.27D-13
 IDIUse=1 WtCom= 1.00D+00 WtEn= 0.00D+00
 Coeff-Com:  0.100D+01
 Coeff:      0.100D+01
 Gap=     0.222 Goal=   None    Shift=    0.000
 RMSDP=1.89D-09 MaxDP=1.07D-07              OVMax= 1.66D-07

 Error on total polarization charges =  0.01354
 SCF Done:  E(RB3LYP) =  -795.904840382     A.U. after    1 cycles
            NFock=  1  Conv=0.19D-08     -V/T= 2.0070
 KE= 7.903970249846D+02 PE=-4.440300543333D+03 EE= 1.562386382846D+03
 Leave Link  502 at Tue Aug 18 12:38:52 2026, MaxMem=  2684354560 cpu:             197.1 elap:             197.4
 (Enter /mnt/data/applications/G16/g16/l801.exe)
 DoSCS=F DFT=T ScalE2(SS,OS)=  1.000000  1.000000
 Range of M.O.s used for correlation:     1   343
 NBasis=   343 NAE=    65 NBE=    65 NFC=     0 NFV=     0
 NROrb=    343 NOA=    65 NOB=    65 NVA=   278 NVB=   278
 Leave Link  801 at Tue Aug 18 12:38:52 2026, MaxMem=  2684354560 cpu:               0.0 elap:               0.0
 (Enter /mnt/data/applications/G16/g16/l1101.exe)
 Using compressed storage, NAtomX=    38.
 Will process     39 centers per pass.
   1 Symmetry operations used in ECPInt.
 ECPInt:  NShTT=   13695 NPrTT=  100063 LenC2=   12592 LenP2D=   52306.
 LDataN:  DoStor=T MaxTD1= 5 Len=  102
 R6Disp: Adding Grimme-D3(BJ) dispersion energy 1st derivatives to the gradient.
 Leave Link 1101 at Tue Aug 18 12:38:53 2026, MaxMem=  2684354560 cpu:               0.8 elap:               0.8
 (Enter /mnt/data/applications/G16/g16/l1102.exe)
 Symmetrizing basis deriv contribution to polar:
 IMax=3 JMax=2 DiffMx= 0.00D+00
 Leave Link 1102 at Tue Aug 18 12:38:54 2026, MaxMem=  2684354560 cpu:               0.1 elap:               0.1
 (Enter /mnt/data/applications/G16/g16/l1110.exe)
 Forming Gx(P) for the SCF density, NAtomX=    38.
 Integral derivatives from FoFJK, PRISM(SPDF).
 Do as many integral derivatives as possible in FoFJK.
 G2DrvN: MDV=    2684351688.
 G2DrvN: will do    39 centers at a time, making    1 passes.
 Calling FoFCou, ICntrl=  3107 FMM=F I1Cent=   0 AccDes= 0.00D+00.
 FoFJK:  IHMeth= 1 ICntrl=    3107 DoSepK=F KAlg= 0 I1Cent=           0 FoldK=F
 IRaf=         0 NMat=       1 IRICut=       1 DoRegI=T DoRafI=F ISym2E= 0 IDoP0=0 IntGTp=1.
 FoFCou: FMM=F IPFlag=           0 FMFlag=      100000 FMFlg1=           0
         NFxFlg=           0 DoJE=F BraDBF=F KetDBF=F FulRan=T
         wScrn=  0.000000 ICntrl=      3107 IOpCl=  0 I1Cent=           0 NGrid=           0
         NMat0=    1 NMatS0=      1 NMatT0=    0 NMatD0=    1 NMtDS0=    0 NMtDT0=    0
 Symmetry not used in FoFCou.
 NEqPCM:  Using equilibrium solvation (IEInf=0, Eps=  35.6880, EpsInf=   1.8069)
 G2PCM: DoFxE=T DoFxN=T DoGrad=T DoDP/DQ/DG/TGxP=FFFF NFrqRd=   0 IEInf=0 SqF1=F DoCFld=F IF1Alg=4.
 GePol: Maximum number of non-zero 1st derivatives   =     222
 End of G2Drv F.D. properties file   721 does not exist.
 End of G2Drv F.D. properties file   722 does not exist.
 End of G2Drv F.D. properties file   788 does not exist.
 Leave Link 1110 at Tue Aug 18 13:35:57 2026, MaxMem=  2684354560 cpu:            3418.2 elap:            3423.1
 (Enter /mnt/data/applications/G16/g16/l1002.exe)
 Minotr:  Closed shell wavefunction.
          IDoAtm=11111111111111111111111111111111111111
 NEqPCM:  Using equilibrium solvation (IEInf=0, Eps=  35.6880, EpsInf=   1.8069)
          Direct CPHF calculation.
          Differentiating once with respect to electric field.
                with respect to dipole field.
          Differentiating once with respect to nuclear coordinates.
          Requested convergence is 1.0D-08 RMS, and 1.0D-07 maximum.
          Secondary convergence is 1.0D-12 RMS, and 1.0D-12 maximum.
          NewPWx=T KeepS1=F KeepF1=F KeepIn=T MapXYZ=F SortEE=F KeepMc=T.
        11507 words used for storage of precomputed grid.
 Keep R1 ints in memory in canonical form, NReq=1763833455.
 FoFCou: FMM=F IPFlag=           0 FMFlag=           0 FMFlg1=           0
         NFxFlg=           0 DoJE=F BraDBF=F KetDBF=F FulRan=T
         wScrn=  0.000000 ICntrl=       600 IOpCl=  0 I1Cent=           0 NGrid=           0
         NMat0=    1 NMatS0=  58996 NMatT0=    0 NMatD0=    1 NMtDS0=    0 NMtDT0=    0
 Symmetry not used in FoFCou.
 Two-electron integral symmetry not used.
          MDV=    2684354560 using IRadAn=       1.
          Solving linear equations simultaneously, MaxMat=       0.
          There are   117 degrees of freedom in the 1st order CPHF.  IDoFFX=6 NUNeed=     3.
    114 vectors produced by pass  0 Test12= 1.81D-14 1.00D-09 XBig12= 1.38D+02 7.16D+00.
 AX will form   114 AO Fock derivatives at one time.
    114 vectors produced by pass  1 Test12= 1.81D-14 1.00D-09 XBig12= 2.75D+01 1.45D+00.
    114 vectors produced by pass  2 Test12= 1.81D-14 1.00D-09 XBig12= 2.52D-01 8.65D-02.
    114 vectors produced by pass  3 Test12= 1.81D-14 1.00D-09 XBig12= 1.11D-03 2.86D-03.
    114 vectors produced by pass  4 Test12= 1.81D-14 1.00D-09 XBig12= 1.86D-06 1.54D-04.
     69 vectors produced by pass  5 Test12= 1.81D-14 1.00D-09 XBig12= 1.34D-09 4.06D-06.
      7 vectors produced by pass  6 Test12= 1.81D-14 1.00D-09 XBig12= 8.30D-13 1.11D-07.
      3 vectors produced by pass  7 Test12= 1.81D-14 1.00D-09 XBig12= 4.98D-16 1.67D-09.
 InvSVY:  IOpt=1 It=  1 EMax= 3.55D-15
 Solved reduced A of dimension   649 with   117 vectors.
 FullF1:  Do perturbations      1 to       3.
 Isotropic polarizability for W=    0.000000      200.43 Bohr**3.
 End of Minotr F.D. properties file   721 does not exist.
 End of Minotr F.D. properties file   722 does not exist.
 End of Minotr F.D. properties file   788 does not exist.
 Leave Link 1002 at Tue Aug 18 14:38:01 2026, MaxMem=  2684354560 cpu:            3718.6 elap:            3723.9
 (Enter /mnt/data/applications/G16/g16/l601.exe)
 Copying SCF densities to generalized density rwf, IOpCl= 0 IROHF=0.

 **********************************************************************

            Population analysis using the SCF density.

 **********************************************************************

 Alpha  occ. eigenvalues --  -19.18638 -19.14186 -19.14089 -19.13213 -10.31584
 Alpha  occ. eigenvalues --  -10.24779 -10.24712 -10.24416 -10.19824 -10.19501
 Alpha  occ. eigenvalues --  -10.19253 -10.18621 -10.18044 -10.18044 -10.17955
 Alpha  occ. eigenvalues --  -10.17438  -6.78565  -1.10645  -1.05992  -1.01719
 Alpha  occ. eigenvalues --   -0.99298  -0.81522  -0.80318  -0.77539  -0.75120
 Alpha  occ. eigenvalues --   -0.71467  -0.70515  -0.67702  -0.64773  -0.62068
 Alpha  occ. eigenvalues --   -0.58515  -0.55630  -0.55398  -0.53242  -0.51006
 Alpha  occ. eigenvalues --   -0.49207  -0.47810  -0.46705  -0.46442  -0.44864
 Alpha  occ. eigenvalues --   -0.43591  -0.42968  -0.42631  -0.41676  -0.41346
 Alpha  occ. eigenvalues --   -0.40179  -0.39686  -0.39667  -0.39355  -0.39227
 Alpha  occ. eigenvalues --   -0.37771  -0.37654  -0.36733  -0.36541  -0.36109
 Alpha  occ. eigenvalues --   -0.35243  -0.34791  -0.33517  -0.33367  -0.32898
 Alpha  occ. eigenvalues --   -0.30986  -0.30503  -0.28011  -0.27270  -0.26881
 Alpha virt. eigenvalues --   -0.04720   0.04718   0.05627   0.06891   0.07738
 Alpha virt. eigenvalues --    0.07950   0.08771   0.09590   0.10015   0.10379
 Alpha virt. eigenvalues --    0.11164   0.11487   0.11675   0.12001   0.12670
 Alpha virt. eigenvalues --    0.13563   0.13754   0.14007   0.14440   0.15314
 Alpha virt. eigenvalues --    0.15896   0.16036   0.16277   0.16448   0.17697
 Alpha virt. eigenvalues --    0.18840   0.20463   0.20922   0.21844   0.22121
 Alpha virt. eigenvalues --    0.22699   0.23624   0.24148   0.26411   0.26836
 Alpha virt. eigenvalues --    0.27480   0.29166   0.31285   0.31482   0.33942
 Alpha virt. eigenvalues --    0.37698   0.39493   0.39791   0.41018   0.41846
 Alpha virt. eigenvalues --    0.42387   0.42598   0.43490   0.44502   0.45908
 Alpha virt. eigenvalues --    0.46784   0.48199   0.48884   0.49031   0.49373
 Alpha virt. eigenvalues --    0.50301   0.50461   0.53158   0.53443   0.55081
 Alpha virt. eigenvalues --    0.55656   0.56075   0.56811   0.57933   0.58418
 Alpha virt. eigenvalues --    0.58956   0.59452   0.59768   0.61409   0.61460
 Alpha virt. eigenvalues --    0.62068   0.62422   0.62586   0.62938   0.63917
 Alpha virt. eigenvalues --    0.64268   0.64766   0.64922   0.65420   0.65613
 Alpha virt. eigenvalues --    0.65907   0.66329   0.66610   0.67597   0.67802
 Alpha virt. eigenvalues --    0.68303   0.68710   0.68996   0.70596   0.71029
 Alpha virt. eigenvalues --    0.71988   0.72521   0.73397   0.74271   0.75754
 Alpha virt. eigenvalues --    0.76350   0.78099   0.78883   0.79185   0.81872
 Alpha virt. eigenvalues --    0.82728   0.84160   0.85861   0.88836   0.89463
 Alpha virt. eigenvalues --    0.90436   0.91472   0.91887   0.93635   0.97120
 Alpha virt. eigenvalues --    0.97626   1.00259   1.00512   1.02839   1.04830
 Alpha virt. eigenvalues --    1.05301   1.07217   1.10198   1.11682   1.13787
 Alpha virt. eigenvalues --    1.14456   1.15506   1.16432   1.18617   1.20019
 Alpha virt. eigenvalues --    1.20378   1.21098   1.22537   1.24642   1.26516
 Alpha virt. eigenvalues --    1.27230   1.28721   1.29374   1.29977   1.31486
 Alpha virt. eigenvalues --    1.32336   1.33832   1.34780   1.35404   1.36136
 Alpha virt. eigenvalues --    1.37761   1.39147   1.40522   1.41086   1.41511
 Alpha virt. eigenvalues --    1.41577   1.43115   1.43913   1.44810   1.45587
 Alpha virt. eigenvalues --    1.46277   1.48428   1.49559   1.51539   1.52869
 Alpha virt. eigenvalues --    1.53594   1.55175   1.56108   1.56727   1.57579
 Alpha virt. eigenvalues --    1.59205   1.59566   1.60507   1.60947   1.61162
 Alpha virt. eigenvalues --    1.61982   1.63195   1.63481   1.63638   1.64069
 Alpha virt. eigenvalues --    1.64640   1.64945   1.65593   1.67211   1.68396
 Alpha virt. eigenvalues --    1.69332   1.69459   1.69679   1.71419   1.72072
 Alpha virt. eigenvalues --    1.72803   1.73118   1.74773   1.75381   1.76380
 Alpha virt. eigenvalues --    1.76579   1.77699   1.77921   1.79296   1.80304
 Alpha virt. eigenvalues --    1.80841   1.81981   1.82727   1.83407   1.84367
 Alpha virt. eigenvalues --    1.85798   1.87493   1.87948   1.88314   1.90272
 Alpha virt. eigenvalues --    1.92601   1.93897   1.94270   1.94875   1.99332
 Alpha virt. eigenvalues --    1.99935   2.00043   2.00655   2.02472   2.03006
 Alpha virt. eigenvalues --    2.03688   2.05980   2.08581   2.08880   2.10590
 Alpha virt. eigenvalues --    2.11611   2.14049   2.15053   2.16082   2.18009
 Alpha virt. eigenvalues --    2.18281   2.19912   2.20434   2.23934   2.24499
 Alpha virt. eigenvalues --    2.25402   2.26350   2.28819   2.29921   2.31985
 Alpha virt. eigenvalues --    2.32653   2.34357   2.36202   2.36976   2.39709
 Alpha virt. eigenvalues --    2.40776   2.40970   2.42192   2.42662   2.43664
 Alpha virt. eigenvalues --    2.44310   2.45681   2.46660   2.47393   2.48544
 Alpha virt. eigenvalues --    2.48986   2.49593   2.49810   2.51161   2.53789
 Alpha virt. eigenvalues --    2.54006   2.55827   2.56130   2.56564   2.57564
 Alpha virt. eigenvalues --    2.60111   2.64307   2.65013   2.73606   2.75800
 Alpha virt. eigenvalues --    2.87332   2.88889   2.90910   2.91699   2.97074
 Alpha virt. eigenvalues --    2.98323   3.00962   3.06072   3.15858   3.17322
 Alpha virt. eigenvalues --    3.19091   3.22869   3.35537   3.39570   3.40834
 Alpha virt. eigenvalues --    3.44272   3.54378   3.58191
          Condensed to atoms (all electrons):
               1          2          3          4          5          6
     1  C    4.821372   0.599353  -0.030642   0.437634  -0.010294  -0.011023
     2  C    0.599353   4.959475   0.366616  -0.045429  -0.013539   0.001061
     3  H   -0.030642   0.366616   0.710073  -0.017483   0.007584   0.000146
     4  C    0.437634  -0.045429  -0.017483   4.544602   0.377508   0.370899
     5  H   -0.010294  -0.013539   0.007584   0.377508   0.664431  -0.027424
     6  H   -0.011023   0.001061   0.000146   0.370899  -0.027424   0.643853
     7  H   -0.011048   0.000433   0.000123   0.372309  -0.027261  -0.027916
     8  C   -0.031549   0.362686  -0.043856   0.008240   0.000333  -0.000231
     9  O   -0.007609  -0.068083   0.003848   0.000430  -0.000009   0.000024
    10  O    0.001228  -0.050289   0.007529  -0.000050  -0.000009   0.000003
    11  C   -0.000170   0.007745  -0.000851   0.000002   0.000002  -0.000000
    12  H    0.000064   0.001033   0.000030   0.000000  -0.000000   0.000000
    13  H    0.000059   0.001076   0.000031   0.000000  -0.000000  -0.000000
    14  B    0.347928  -0.042637   0.011976  -0.053786   0.003686  -0.000143
    15  O   -0.015343   0.000210  -0.000051  -0.000004  -0.000009  -0.000325
    16  O   -0.014054   0.000159  -0.000052  -0.000894  -0.000024   0.001489
    17  C    0.001909   0.000156   0.000008  -0.000348   0.000010  -0.000074
    18  C    0.002052  -0.000150   0.000010  -0.000075   0.000014  -0.000163
    19  C    0.000011  -0.000102   0.000002   0.000014  -0.000000  -0.000003
    20  C    0.000133  -0.000001  -0.000000   0.000009  -0.000001   0.000006
    21  C   -0.000257  -0.000010  -0.000000   0.000074  -0.000002   0.000119
    22  C    0.000098  -0.000018  -0.000000   0.000004  -0.000000   0.000006
    23  H    0.000087   0.000307  -0.000023   0.000004  -0.000000  -0.000001
    24  H   -0.000237   0.000027   0.000000  -0.000004  -0.000000   0.000000
    25  H   -0.000001  -0.000002   0.000000   0.000000  -0.000000   0.000000
    26  H   -0.000041  -0.000002  -0.000000   0.000001   0.000000  -0.000011
    27  H    0.000004   0.000000   0.000000  -0.000000   0.000000  -0.000000
    28  H   -0.000063   0.000001   0.000000  -0.000003  -0.000000   0.000000
    29  H   -0.000228   0.000001   0.000000  -0.000033  -0.000001   0.000103
    30  H    0.000009   0.000001   0.000000  -0.000006   0.000000   0.000004
    31  H   -0.000029  -0.000019  -0.000001   0.000329  -0.000003   0.000305
    32  H   -0.000063   0.000003   0.000000  -0.000002  -0.000000   0.000000
    33  H   -0.000017  -0.000007   0.000000   0.000002  -0.000000  -0.000000
    34  H    0.000004   0.000000   0.000000  -0.000000   0.000000  -0.000001
    35  C    0.000006  -0.000002  -0.000123  -0.000000   0.000000  -0.000000
    36  H    0.000002  -0.000030   0.000051  -0.000000  -0.000000  -0.000000
    37  H   -0.000000   0.000021   0.000003   0.000000  -0.000000  -0.000000
    38  H    0.000002  -0.000030   0.000050  -0.000000  -0.000000   0.000000
               7          8          9         10         11         12
     1  C   -0.011048  -0.031549  -0.007609   0.001228  -0.000170   0.000064
     2  C    0.000433   0.362686  -0.068083  -0.050289   0.007745   0.001033
     3  H    0.000123  -0.043856   0.003848   0.007529  -0.000851   0.000030
     4  C    0.372309   0.008240   0.000430  -0.000050   0.000002   0.000000
     5  H   -0.027261   0.000333  -0.000009  -0.000009   0.000002  -0.000000
     6  H   -0.027916  -0.000231   0.000024   0.000003  -0.000000   0.000000
     7  H    0.643264  -0.000214   0.000022   0.000003  -0.000000  -0.000000
     8  C   -0.000214   4.485832   0.648802   0.401488  -0.049662  -0.001360
     9  O    0.000022   0.648802   7.686979  -0.054895   0.000359   0.007754
    10  O    0.000003   0.401488  -0.054895   7.762891   0.287372  -0.029397
    11  C   -0.000000  -0.049662   0.000359   0.287372   4.485215   0.381121
    12  H   -0.000000  -0.001360   0.007754  -0.029397   0.381121   0.683463
    13  H    0.000000  -0.001365   0.008017  -0.029444   0.381010  -0.047622
    14  B   -0.000920  -0.045890   0.059552   0.000896  -0.000288   0.000043
    15  O    0.001626  -0.000532  -0.002203  -0.000001   0.000001  -0.000001
    16  O   -0.000366   0.000027  -0.003276  -0.000001   0.000002   0.000001
    17  C   -0.000014  -0.000124  -0.002132  -0.000001   0.000001  -0.000002
    18  C   -0.000133  -0.000116  -0.000546  -0.000000  -0.000000   0.000000
    19  C    0.000015   0.000042  -0.004040  -0.000001  -0.000012   0.000001
    20  C   -0.000001  -0.000000  -0.000008  -0.000000   0.000000  -0.000000
    21  C    0.000009   0.000001   0.000000   0.000000   0.000000   0.000000
    22  C   -0.000002   0.000018  -0.000006  -0.000000   0.000000   0.000000
    23  H    0.000001   0.000051   0.017938   0.000003   0.000068   0.000080
    24  H   -0.000001  -0.000026   0.000015  -0.000000  -0.000002   0.000005
    25  H   -0.000000  -0.000005   0.000072   0.000000   0.000000   0.000000
    26  H    0.000064   0.000001   0.000001   0.000000  -0.000000  -0.000000
    27  H   -0.000000   0.000000   0.000000   0.000000  -0.000000   0.000000
    28  H   -0.000001  -0.000001  -0.000002  -0.000000  -0.000000  -0.000000
    29  H   -0.000010  -0.000002  -0.000000   0.000000  -0.000000   0.000000
    30  H   -0.000005  -0.000000   0.000000   0.000000  -0.000000  -0.000000
    31  H    0.000111   0.000005   0.000003   0.000000  -0.000000   0.000000
    32  H    0.000000  -0.000003  -0.000001  -0.000000  -0.000000   0.000000
    33  H    0.000000   0.000019  -0.000029  -0.000000  -0.000001  -0.000002
    34  H    0.000000  -0.000001  -0.000002  -0.000000   0.000000  -0.000000
    35  C   -0.000000   0.002380   0.001129  -0.033018   0.452205  -0.026230
    36  H    0.000000   0.000259  -0.000020   0.002689  -0.019475  -0.010382
    37  H   -0.000000  -0.000007   0.000037   0.002896  -0.011436  -0.001302
    38  H   -0.000000   0.000257  -0.000020   0.002703  -0.019590   0.008800
              13         14         15         16         17         18
     1  C    0.000059   0.347928  -0.015343  -0.014054   0.001909   0.002052
     2  C    0.001076  -0.042637   0.000210   0.000159   0.000156  -0.000150
     3  H    0.000031   0.011976  -0.000051  -0.000052   0.000008   0.000010
     4  C    0.000000  -0.053786  -0.000004  -0.000894  -0.000348  -0.000075
     5  H   -0.000000   0.003686  -0.000009  -0.000024   0.000010   0.000014
     6  H   -0.000000  -0.000143  -0.000325   0.001489  -0.000074  -0.000163
     7  H    0.000000  -0.000920   0.001626  -0.000366  -0.000014  -0.000133
     8  C   -0.001365  -0.045890  -0.000532   0.000027  -0.000124  -0.000116
     9  O    0.008017   0.059552  -0.002203  -0.003276  -0.002132  -0.000546
    10  O   -0.029444   0.000896  -0.000001  -0.000001  -0.000001  -0.000000
    11  C    0.381010  -0.000288   0.000001   0.000002   0.000001  -0.000000
    12  H   -0.047622   0.000043  -0.000001   0.000001  -0.000002   0.000000
    13  H    0.683644   0.000050   0.000001  -0.000002   0.000001  -0.000001
    14  B    0.000050   3.689208   0.534150   0.530183  -0.113009  -0.114634
    15  O    0.000001   0.534150   7.593325  -0.021854   0.262736  -0.058304
    16  O   -0.000002   0.530183  -0.021854   7.597157  -0.055182   0.259116
    17  C    0.000001  -0.113009   0.262736  -0.055182   4.988810   0.298885
    18  C   -0.000001  -0.114634  -0.058304   0.259116   0.298885   4.995966
    19  C   -0.000006   0.008406  -0.038894   0.000977   0.423769  -0.055978
    20  C    0.000000   0.000488  -0.032251   0.003022   0.446079  -0.050858
    21  C   -0.000000   0.008421   0.000556  -0.039142  -0.054640   0.422871
    22  C   -0.000000   0.000941   0.002883  -0.031671  -0.051287   0.445655
    23  H    0.000039   0.002783  -0.003796   0.001169  -0.002399  -0.008089
    24  H   -0.000001  -0.000324   0.001998  -0.000195  -0.011396   0.007990
    25  H   -0.000001  -0.001065   0.004258  -0.000114  -0.010419  -0.007633
    26  H   -0.000000   0.002258   0.000841  -0.000048   0.000074  -0.014603
    27  H   -0.000000   0.000683   0.003563   0.000020  -0.012326  -0.002074
    28  H    0.000000  -0.001136   0.000132  -0.000138  -0.009624   0.007956
    29  H   -0.000000  -0.001006  -0.000209   0.002417   0.007887  -0.011089
    30  H   -0.000000  -0.001045  -0.000096   0.004295  -0.006826  -0.009558
    31  H   -0.000000   0.007390   0.001992  -0.003407  -0.008650  -0.005790
    32  H    0.000000  -0.001100  -0.000141   0.000136   0.007893  -0.010131
    33  H    0.000005   0.001974  -0.000019   0.000613  -0.014045   0.000199
    34  H    0.000000   0.000565   0.000018   0.003606  -0.002351  -0.012655
    35  C   -0.026297  -0.000012   0.000000   0.000000   0.000000  -0.000000
    36  H    0.008792   0.000001   0.000000  -0.000000   0.000000  -0.000000
    37  H   -0.001313  -0.000000   0.000000   0.000000   0.000000   0.000000
    38  H   -0.010407   0.000001  -0.000000   0.000000  -0.000000   0.000000
              19         20         21         22         23         24
     1  C    0.000011   0.000133  -0.000257   0.000098   0.000087  -0.000237
     2  C   -0.000102  -0.000001  -0.000010  -0.000018   0.000307   0.000027
     3  H    0.000002  -0.000000  -0.000000  -0.000000  -0.000023   0.000000
     4  C    0.000014   0.000009   0.000074   0.000004   0.000004  -0.000004
     5  H   -0.000000  -0.000001  -0.000002  -0.000000  -0.000000  -0.000000
     6  H   -0.000003   0.000006   0.000119   0.000006  -0.000001   0.000000
     7  H    0.000015  -0.000001   0.000009  -0.000002   0.000001  -0.000001
     8  C    0.000042  -0.000000   0.000001   0.000018   0.000051  -0.000026
     9  O   -0.004040  -0.000008   0.000000  -0.000006   0.017938   0.000015
    10  O   -0.000001  -0.000000   0.000000  -0.000000   0.000003  -0.000000
    11  C   -0.000012   0.000000   0.000000   0.000000   0.000068  -0.000002
    12  H    0.000001  -0.000000   0.000000   0.000000   0.000080   0.000005
    13  H   -0.000006   0.000000  -0.000000  -0.000000   0.000039  -0.000001
    14  B    0.008406   0.000488   0.008421   0.000941   0.002783  -0.000324
    15  O   -0.038894  -0.032251   0.000556   0.002883  -0.003796   0.001998
    16  O    0.000977   0.003022  -0.039142  -0.031671   0.001169  -0.000195
    17  C    0.423769   0.446079  -0.054640  -0.051287  -0.002399  -0.011396
    18  C   -0.055978  -0.050858   0.422871   0.445655  -0.008089   0.007990
    19  C    4.555261  -0.059627   0.007190  -0.002973   0.367939   0.366525
    20  C   -0.059627   4.516036  -0.001642   0.003390   0.006612  -0.008617
    21  C    0.007190  -0.001642   4.533548  -0.058752   0.000042  -0.000324
    22  C   -0.002973   0.003390  -0.058752   4.511401  -0.000594   0.000242
    23  H    0.367939   0.006612   0.000042  -0.000594   0.634839  -0.025754
    24  H    0.366525  -0.008617  -0.000324   0.000242  -0.025754   0.674719
    25  H    0.364568  -0.001345  -0.000262   0.007244  -0.027612  -0.025190
    26  H    0.007821   0.363053   0.009565  -0.000187  -0.000508   0.000029
    27  H   -0.000101   0.369163  -0.000748  -0.000312   0.000044  -0.000369
    28  H   -0.008251   0.369523  -0.000100  -0.000286   0.000132   0.005236
    29  H   -0.000331   0.000250   0.367518  -0.008044  -0.000026   0.000017
    30  H   -0.000248   0.006532   0.365549  -0.001133  -0.000001   0.000006
    31  H    0.000136  -0.000792   0.374703   0.007242   0.000046  -0.000030
    32  H   -0.000091  -0.000298  -0.008045   0.369535  -0.000042  -0.000021
    33  H    0.010877  -0.000064   0.007512   0.364385   0.000992  -0.000087
    34  H   -0.000572  -0.000348  -0.000158   0.369464   0.000107   0.000006
    35  C   -0.000000   0.000000  -0.000000  -0.000000   0.000002  -0.000000
    36  H    0.000000   0.000000  -0.000000  -0.000000  -0.000000  -0.000000
    37  H    0.000000   0.000000   0.000000   0.000000   0.000000  -0.000000
    38  H    0.000000  -0.000000   0.000000   0.000000  -0.000000   0.000000
              25         26         27         28         29         30
     1  C   -0.000001  -0.000041   0.000004  -0.000063  -0.000228   0.000009
     2  C   -0.000002  -0.000002   0.000000   0.000001   0.000001   0.000001
     3  H    0.000000  -0.000000   0.000000   0.000000   0.000000   0.000000
     4  C    0.000000   0.000001  -0.000000  -0.000003  -0.000033  -0.000006
     5  H   -0.000000   0.000000   0.000000  -0.000000  -0.000001   0.000000
     6  H    0.000000  -0.000011  -0.000000   0.000000   0.000103   0.000004
     7  H   -0.000000   0.000064  -0.000000  -0.000001  -0.000010  -0.000005
     8  C   -0.000005   0.000001   0.000000  -0.000001  -0.000002  -0.000000
     9  O    0.000072   0.000001   0.000000  -0.000002  -0.000000   0.000000
    10  O    0.000000   0.000000   0.000000  -0.000000   0.000000   0.000000
    11  C    0.000000  -0.000000  -0.000000  -0.000000  -0.000000  -0.000000
    12  H    0.000000  -0.000000   0.000000  -0.000000   0.000000  -0.000000
    13  H   -0.000001  -0.000000  -0.000000   0.000000  -0.000000  -0.000000
    14  B   -0.001065   0.002258   0.000683  -0.001136  -0.001006  -0.001045
    15  O    0.004258   0.000841   0.003563   0.000132  -0.000209  -0.000096
    16  O   -0.000114  -0.000048   0.000020  -0.000138   0.002417   0.004295
    17  C   -0.010419   0.000074  -0.012326  -0.009624   0.007887  -0.006826
    18  C   -0.007633  -0.014603  -0.002074   0.007956  -0.011089  -0.009558
    19  C    0.364568   0.007821  -0.000101  -0.008251  -0.000331  -0.000248
    20  C   -0.001345   0.363053   0.369163   0.369523   0.000250   0.006532
    21  C   -0.000262   0.009565  -0.000748  -0.000100   0.367518   0.365549
    22  C    0.007244  -0.000187  -0.000312  -0.000286  -0.008044  -0.001133
    23  H   -0.027612  -0.000508   0.000044   0.000132  -0.000026  -0.000001
    24  H   -0.025190   0.000029  -0.000369   0.005236   0.000017   0.000006
    25  H    0.676863  -0.000021   0.001803  -0.000291   0.000005  -0.000023
    26  H   -0.000021   0.664520  -0.025896  -0.027799  -0.000066  -0.000394
    27  H    0.001803  -0.025896   0.659900  -0.025679   0.000002   0.000203
    28  H   -0.000291  -0.027799  -0.025679   0.669472  -0.000020   0.000166
    29  H    0.000005  -0.000066   0.000002  -0.000020   0.668463  -0.024073
    30  H   -0.000023  -0.000394   0.000203   0.000166  -0.024073   0.669980
    31  H   -0.000006   0.001183   0.000148  -0.000090  -0.027449  -0.028940
    32  H    0.000171  -0.000004  -0.000107   0.000023   0.005151  -0.000232
    33  H   -0.000628  -0.000022  -0.000080  -0.000004  -0.000000  -0.000031
    34  H    0.000069  -0.000065   0.001464  -0.000108  -0.000370   0.001684
    35  C    0.000000  -0.000000  -0.000000  -0.000000  -0.000000  -0.000000
    36  H   -0.000000   0.000000  -0.000000   0.000000  -0.000000   0.000000
    37  H   -0.000000  -0.000000  -0.000000   0.000000  -0.000000  -0.000000
    38  H    0.000000  -0.000000   0.000000  -0.000000   0.000000   0.000000
              31         32         33         34         35         36
     1  C   -0.000029  -0.000063  -0.000017   0.000004   0.000006   0.000002
     2  C   -0.000019   0.000003  -0.000007   0.000000  -0.000002  -0.000030
     3  H   -0.000001   0.000000   0.000000   0.000000  -0.000123   0.000051
     4  C    0.000329  -0.000002   0.000002  -0.000000  -0.000000  -0.000000
     5  H   -0.000003  -0.000000  -0.000000   0.000000   0.000000  -0.000000
     6  H    0.000305   0.000000  -0.000000  -0.000001  -0.000000  -0.000000
     7  H    0.000111   0.000000   0.000000   0.000000  -0.000000   0.000000
     8  C    0.000005  -0.000003   0.000019  -0.000001   0.002380   0.000259
     9  O    0.000003  -0.000001  -0.000029  -0.000002   0.001129  -0.000020
    10  O    0.000000  -0.000000  -0.000000  -0.000000  -0.033018   0.002689
    11  C   -0.000000  -0.000000  -0.000001   0.000000   0.452205  -0.019475
    12  H    0.000000   0.000000  -0.000002  -0.000000  -0.026230  -0.010382
    13  H   -0.000000   0.000000   0.000005   0.000000  -0.026297   0.008792
    14  B    0.007390  -0.001100   0.001974   0.000565  -0.000012   0.000001
    15  O    0.001992  -0.000141  -0.000019   0.000018   0.000000   0.000000
    16  O   -0.003407   0.000136   0.000613   0.003606   0.000000  -0.000000
    17  C   -0.008650   0.007893  -0.014045  -0.002351   0.000000   0.000000
    18  C   -0.005790  -0.010131   0.000199  -0.012655  -0.000000  -0.000000
    19  C    0.000136  -0.000091   0.010877  -0.000572  -0.000000   0.000000
    20  C   -0.000792  -0.000298  -0.000064  -0.000348   0.000000   0.000000
    21  C    0.374703  -0.008045   0.007512  -0.000158  -0.000000  -0.000000
    22  C    0.007242   0.369535   0.364385   0.369464  -0.000000  -0.000000
    23  H    0.000046  -0.000042   0.000992   0.000107   0.000002  -0.000000
    24  H   -0.000030  -0.000021  -0.000087   0.000006  -0.000000  -0.000000
    25  H   -0.000006   0.000171  -0.000628   0.000069   0.000000  -0.000000
    26  H    0.001183  -0.000004  -0.000022  -0.000065  -0.000000   0.000000
    27  H    0.000148  -0.000107  -0.000080   0.001464  -0.000000  -0.000000
    28  H   -0.000090   0.000023  -0.000004  -0.000108  -0.000000   0.000000
    29  H   -0.027449   0.005151  -0.000000  -0.000370  -0.000000  -0.000000
    30  H   -0.028940  -0.000232  -0.000031   0.001684  -0.000000   0.000000
    31  H    0.655531   0.000086  -0.000517   0.000016  -0.000000   0.000000
    32  H    0.000086   0.670273  -0.027446  -0.025857  -0.000000  -0.000000
    33  H   -0.000517  -0.027446   0.661030  -0.025796  -0.000000   0.000000
    34  H    0.000016  -0.025857  -0.025796   0.660785   0.000000   0.000000
    35  C   -0.000000  -0.000000  -0.000000   0.000000   4.514688   0.382337
    36  H    0.000000  -0.000000   0.000000   0.000000   0.382337   0.657145
    37  H   -0.000000   0.000000   0.000000   0.000000   0.373990  -0.023846
    38  H    0.000000  -0.000000  -0.000000  -0.000000   0.382453  -0.031896
              37         38
     1  C   -0.000000   0.000002
     2  C    0.000021  -0.000030
     3  H    0.000003   0.000050
     4  C    0.000000  -0.000000
     5  H   -0.000000  -0.000000
     6  H   -0.000000   0.000000
     7  H   -0.000000  -0.000000
     8  C   -0.000007   0.000257
     9  O    0.000037  -0.000020
    10  O    0.002896   0.002703
    11  C   -0.011436  -0.019590
    12  H   -0.001302   0.008800
    13  H   -0.001313  -0.010407
    14  B   -0.000000   0.000001
    15  O    0.000000  -0.000000
    16  O    0.000000   0.000000
    17  C    0.000000  -0.000000
    18  C    0.000000   0.000000
    19  C    0.000000   0.000000
    20  C    0.000000  -0.000000
    21  C    0.000000   0.000000
    22  C    0.000000   0.000000
    23  H    0.000000  -0.000000
    24  H   -0.000000   0.000000
    25  H   -0.000000   0.000000
    26  H   -0.000000  -0.000000
    27  H   -0.000000   0.000000
    28  H    0.000000  -0.000000
    29  H   -0.000000   0.000000
    30  H   -0.000000   0.000000
    31  H   -0.000000   0.000000
    32  H    0.000000  -0.000000
    33  H    0.000000  -0.000000
    34  H    0.000000  -0.000000
    35  C    0.373990   0.382453
    36  H   -0.023846  -0.031896
    37  H    0.650560  -0.023835
    38  H   -0.023835   0.657121
 Mulliken charges:
               1
     1  C   -0.079285
     2  C   -0.080013
     3  H   -0.014994
     4  C    0.006054
     5  H    0.025011
     6  H    0.049298
     7  H    0.049914
     8  C    0.264505
     9  O   -0.292101
    10  O   -0.272592
    11  C    0.106384
    12  H    0.033903
    13  H    0.033734
    14  B    0.165415
    15  O   -0.234257
    16  O   -0.233968
    17  C   -0.083368
    18  C   -0.078133
    19  C    0.057677
    20  C    0.071558
    21  C    0.066403
    22  C    0.072760
    23  H    0.035560
    24  H    0.015762
    25  H    0.019562
    26  H    0.020255
    27  H    0.030695
    28  H    0.020954
    29  H    0.021142
    30  H    0.024184
    31  H    0.026499
    32  H    0.020313
    33  H    0.021189
    34  H    0.030494
    35  C   -0.023507
    36  H    0.034373
    37  H    0.034232
    38  H    0.034390
 Sum of Mulliken charges =  -0.00000
 Mulliken charges with hydrogens summed into heavy atoms:
               1
     1  C   -0.079285
     2  C   -0.095008
     4  C    0.130277
     8  C    0.264505
     9  O   -0.292101
    10  O   -0.272592
    11  C    0.174021
    14  B    0.165415
    15  O   -0.234257
    16  O   -0.233968
    17  C   -0.083368
    18  C   -0.078133
    19  C    0.128561
    20  C    0.143462
    21  C    0.138228
    22  C    0.144756
    35  C    0.079488
 APT charges:
               1
     1  C    0.043612
     2  C   -0.407175
     3  H    0.025484
     4  C   -0.005806
     5  H   -0.032601
     6  H   -0.002507
     7  H   -0.000898
     8  C    1.673889
     9  O   -1.027853
    10  O   -1.222617
    11  C    0.717180
    12  H   -0.064170
    13  H   -0.063427
    14  B    1.503756
    15  O   -1.125825
    16  O   -1.131788
    17  C    0.616155
    18  C    0.627636
    19  C   -0.032124
    20  C    0.012751
    21  C   -0.012220
    22  C    0.005229
    23  H    0.036102
    24  H   -0.018825
    25  H   -0.012375
    26  H   -0.008824
    27  H   -0.010237
    28  H   -0.017946
    29  H   -0.015742
    30  H   -0.013939
    31  H   -0.013928
    32  H   -0.017828
    33  H   -0.004390
    34  H   -0.010541
    35  C    0.057270
    36  H   -0.015171
    37  H   -0.015217
    38  H   -0.015089
 Sum of APT charges =   0.00000
 APT charges with hydrogens summed into heavy atoms:
               1
     1  C    0.043612
     2  C   -0.381691
     4  C   -0.041813
     8  C    1.673889
     9  O   -1.027853
    10  O   -1.222617
    11  C    0.589583
    14  B    1.503756
    15  O   -1.125825
    16  O   -1.131788
    17  C    0.616155
    18  C    0.627636
    19  C   -0.027223
    20  C   -0.024257
    21  C   -0.055828
    22  C   -0.027530
    35  C    0.011793
 Electronic spatial extent (au):  <R**2>=           9504.5142
 Charge=              0.0000 electrons
 Dipole moment (field-independent basis, Debye):
    X=             -0.6000    Y=             -0.2041    Z=              0.0894  Tot=              0.6401
 Quadrupole moment (field-independent basis, Debye-Ang):
   XX=            -86.5410   YY=            -87.6745   ZZ=           -105.3590
   XY=              5.5758   XZ=             -1.2069   YZ=             -0.0067
 Traceless Quadrupole moment (field-independent basis, Debye-Ang):
   XX=              6.6505   YY=              5.5170   ZZ=            -12.1675
   XY=              5.5758   XZ=             -1.2069   YZ=             -0.0067
 Octapole moment (field-independent basis, Debye-Ang**2):
  XXX=            699.3896  YYY=           -322.7692  ZZZ=            -55.3001  XYY=            279.1098
  XXY=           -164.3041  XXZ=             -9.6544  XZZ=            282.8516  YZZ=           -143.5798
  YYZ=            -13.8336  XYZ=              3.0906
 Hexadecapole moment (field-independent basis, Debye-Ang**3):
 XXXX=          -6784.7935 YYYY=          -3587.5447 ZZZZ=           -640.5165 XXXY=            363.1996
 XXXZ=            128.7829 YYYX=            290.7713 YYYZ=            -25.6700 ZZZX=            183.4576
 ZZZY=            -65.9230 XXYY=          -2048.2726 XXZZ=          -1388.5372 YYZZ=           -813.8151
 XXYZ=            -33.9802 YYXZ=             62.3813 ZZXY=            110.2007
 N-N= 1.291612295120D+03 E-N=-4.440300547015D+03  KE= 7.903970249846D+02
  Exact polarizability: 209.241  17.052 231.777  -1.625   0.117 160.271
 Approx polarizability: 227.084  14.480 239.611  -1.854   1.591 181.685
 No NMR shielding tensors so no spin-rotation constants.
 Leave Link  601 at Tue Aug 18 14:38:02 2026, MaxMem=  2684354560 cpu:               0.5 elap:               0.5
 (Enter /mnt/data/applications/G16/g16/l701.exe)
 ... and contract with generalized density number  0.
 Compute integral second derivatives.
 R6Disp: Adding Grimme-D3(BJ) dispersion energy 2nd derivatives to the Hessian.
   1 Symmetry operations used in ECPInt.
 ECPInt:  NShTT=   13695 NPrTT=  100063 LenC2=   12592 LenP2D=   52306.
 LDataN:  DoStor=T MaxTD1= 6 Len=  172
 D2PCM: PCM CHGder 2nd derivatives, FixD1E=F FixD2E=F DoIter=F DoCFld=F I1PDM=0
 GePol: Maximum number of non-zero 2nd derivatives   =     222
 Leave Link  701 at Tue Aug 18 14:40:20 2026, MaxMem=  2684354560 cpu:             138.2 elap:             138.4
 (Enter /mnt/data/applications/G16/g16/l702.exe)
 L702 exits ... SP integral derivatives will be done elsewhere.
 Leave Link  702 at Tue Aug 18 14:40:20 2026, MaxMem=  2684354560 cpu:               0.0 elap:               0.0
 (Enter /mnt/data/applications/G16/g16/l703.exe)
 Integral derivatives from FoFJK, PRISM(SPDF).
 Compute integral second derivatives, UseDBF=F ICtDFT=           0.
 Calling FoFJK, ICntrl=    100127 FMM=F ISym2X=0 I1Cent= 0 IOpClX= 0 NMat=1 NMatS=1 NMatT=0.
 FoFJK:  IHMeth= 1 ICntrl=  100127 DoSepK=F KAlg= 0 I1Cent=           0 FoldK=F
 IRaf=         0 NMat=       1 IRICut=       1 DoRegI=T DoRafI=F ISym2E= 0 IDoP0=0 IntGTp=1.
 FoFCou: FMM=F IPFlag=           0 FMFlag=      100000 FMFlg1=         800
         NFxFlg=           0 DoJE=F BraDBF=F KetDBF=F FulRan=T
         wScrn=  0.000000 ICntrl=    100127 IOpCl=  0 I1Cent=           0 NGrid=           0
         NMat0=    1 NMatS0=      1 NMatT0=    0 NMatD0=    1 NMtDS0=    0 NMtDT0=    0
 Symmetry not used in FoFCou.
 Leave Link  703 at Tue Aug 18 15:37:29 2026, MaxMem=  2684354560 cpu:            3424.2 elap:            3429.1
 (Enter /mnt/data/applications/G16/g16/l716.exe)
 Dipole        =-2.36061680D-01-8.03117935D-02 3.51698733D-02
 Polarizability= 2.09240541D+02 1.70520668D+01 2.31776601D+02
                -1.62512546D+00 1.17287057D-01 1.60270989D+02
 Full mass-weighted force constant matrix:
 Low frequencies ---  -12.6925   -7.7814   -0.0004    0.0008    0.0012    4.3268
 Low frequencies ---   19.2867   41.9593   49.8273
 Diagonal vibrational polarizability:
       39.3422947      77.8211748      95.5097007
 Harmonic frequencies (cm**-1), IR intensities (KM/Mole), Raman scattering
 activities (A**4/AMU), depolarization ratios for plane and unpolarized
 incident light, reduced masses (AMU), force constants (mDyne/A),
 and normal coordinates:
                      1                      2                      3
                      A                      A                      A
 Frequencies --     18.7071                41.9300                49.8148
 Red. masses --      3.5370                 3.2332                 3.4125
 Frc consts  --      0.0007                 0.0033                 0.0050
 IR Inten    --      0.7017                 1.1961                 1.6172
  Atom  AN      X      Y      Z        X      Y      Z        X      Y      Z
     1   6     0.00  -0.00  -0.07     0.03  -0.03  -0.03    -0.04   0.05  -0.02
     2   6    -0.00   0.00  -0.07     0.01  -0.02   0.01    -0.03   0.04   0.02
     3   1    -0.00   0.01  -0.07     0.01   0.00  -0.01    -0.03   0.03   0.01
     4   6     0.01   0.00  -0.09     0.05  -0.02  -0.11    -0.04   0.05  -0.10
     5   1     0.01   0.01  -0.10     0.05   0.00  -0.13    -0.04   0.06  -0.10
     6   1     0.02  -0.01  -0.09     0.08  -0.07  -0.15    -0.03   0.01  -0.13
     7   1     0.00   0.01  -0.09     0.04   0.03  -0.14    -0.05   0.10  -0.13
     8   6    -0.01  -0.00  -0.06    -0.01  -0.04   0.08     0.00   0.06   0.06
     9   8    -0.01  -0.00  -0.12    -0.01  -0.07   0.14     0.01   0.11   0.06
    10   8    -0.01  -0.00   0.03    -0.04  -0.02   0.07     0.05   0.02   0.10
    11   6    -0.01  -0.01   0.07    -0.08  -0.04   0.10     0.13   0.05   0.12
    12   1     0.08   0.05   0.01    -0.24  -0.11   0.22    -0.02   0.03   0.24
    13   1    -0.10  -0.07   0.01     0.09  -0.02   0.21     0.29   0.13   0.23
    14   5     0.00  -0.01  -0.05     0.03  -0.04  -0.01    -0.04   0.02  -0.01
    15   8    -0.02  -0.09  -0.02     0.03  -0.01  -0.01    -0.03  -0.04  -0.01
    16   8     0.03   0.07  -0.03     0.04  -0.06  -0.01    -0.04   0.05  -0.01
    17   6    -0.01  -0.05  -0.01     0.03   0.02  -0.02    -0.04  -0.08  -0.02
    18   6     0.02   0.06   0.03     0.01   0.05  -0.00    -0.02  -0.02  -0.00
    19   6    -0.01  -0.07  -0.11     0.06   0.02  -0.06    -0.08  -0.10  -0.06
    20   6    -0.02  -0.12   0.08     0.02   0.01  -0.01    -0.00  -0.14   0.01
    21   6     0.00   0.08   0.15    -0.11   0.07   0.05     0.05  -0.02   0.04
    22   6     0.05   0.15  -0.02     0.08   0.15  -0.02    -0.07  -0.04  -0.03
    23   1     0.00  -0.02  -0.18     0.07   0.03  -0.09    -0.09  -0.06  -0.09
    24   1    -0.04  -0.15  -0.14     0.05  -0.02  -0.07    -0.10  -0.13  -0.07
    25   1    -0.01  -0.04  -0.10     0.06   0.05  -0.06    -0.08  -0.11  -0.06
    26   1    -0.02  -0.12   0.15     0.00   0.00   0.03     0.04  -0.12   0.05
    27   1    -0.02  -0.09   0.10     0.02   0.05  -0.02    -0.00  -0.16   0.01
    28   1    -0.04  -0.20   0.05     0.05  -0.02  -0.02    -0.02  -0.17   0.00
    29   1     0.01   0.16   0.16    -0.14   0.08   0.06     0.06   0.02   0.05
    30   1    -0.01   0.09   0.19    -0.14   0.15   0.04     0.07  -0.08   0.05
    31   1    -0.02   0.02   0.18    -0.15  -0.01   0.07     0.08  -0.01   0.06
    32   1     0.07   0.23   0.01     0.06   0.17  -0.01    -0.06  -0.00  -0.02
    33   1     0.07   0.15  -0.10     0.17   0.13  -0.06    -0.12  -0.03  -0.06
    34   1     0.04   0.15   0.02     0.07   0.23  -0.01    -0.06  -0.09  -0.04
    35   6    -0.01  -0.01   0.25    -0.13   0.02  -0.16     0.17  -0.01  -0.14
    36   1     0.09   0.05   0.30    -0.30   0.00  -0.26    -0.01  -0.08  -0.24
    37   1    -0.01  -0.02   0.28    -0.16   0.00  -0.13     0.23   0.02  -0.11
    38   1    -0.09  -0.07   0.31     0.04   0.08  -0.28     0.32   0.00  -0.26
                      4                      5                      6
                      A                      A                      A
 Frequencies --     76.7028                95.4427                97.3308
 Red. masses --      4.5153                 3.8703                 2.2777
 Frc consts  --      0.0157                 0.0208                 0.0127
 IR Inten    --      2.3732                 3.1150                 1.2477
  Atom  AN      X      Y      Z        X      Y      Z        X      Y      Z
     1   6    -0.00   0.02   0.01    -0.01  -0.01   0.01     0.00   0.00  -0.00
     2   6    -0.05   0.05  -0.03     0.06  -0.05   0.01    -0.01   0.00   0.15
     3   1    -0.05   0.07  -0.13     0.06  -0.08  -0.07    -0.00   0.01   0.23
     4   6     0.06   0.06  -0.06    -0.14  -0.05  -0.16     0.02   0.02  -0.10
     5   1     0.05   0.12  -0.14    -0.14  -0.15  -0.21     0.03   0.03   0.03
     6   1     0.16   0.02  -0.06    -0.16  -0.13  -0.22    -0.07  -0.10  -0.21
     7   1     0.02   0.05  -0.05    -0.23   0.09  -0.21     0.13   0.14  -0.21
     8   6    -0.04   0.05   0.03     0.07  -0.05   0.06    -0.01   0.01   0.10
     9   8    -0.02   0.07   0.26     0.07  -0.09   0.16    -0.02   0.02  -0.04
    10   8    -0.01   0.04  -0.20     0.03  -0.03  -0.05     0.00  -0.00   0.16
    11   6     0.05   0.06  -0.15    -0.04  -0.05  -0.10    -0.00   0.02  -0.16
    12   1     0.19   0.18  -0.24     0.04  -0.08  -0.18     0.20  -0.09  -0.34
    13   1    -0.08   0.02  -0.24    -0.15  -0.08  -0.17    -0.22   0.16  -0.30
    14   5    -0.00  -0.06   0.05     0.00   0.11   0.05    -0.00  -0.02  -0.04
    15   8     0.02   0.01   0.03     0.03   0.05   0.04    -0.02  -0.02  -0.03
    16   8    -0.02  -0.14   0.03    -0.03   0.17   0.04     0.02  -0.03  -0.03
    17   6     0.01  -0.03  -0.01     0.02   0.01  -0.00    -0.01  -0.00   0.00
    18   6    -0.04  -0.04   0.00     0.00   0.05   0.01     0.01  -0.01  -0.00
    19   6    -0.02  -0.05  -0.03    -0.02  -0.00  -0.04     0.00   0.00   0.01
    20   6     0.06  -0.06  -0.04     0.07  -0.04  -0.00    -0.05   0.01   0.02
    21   6    -0.17  -0.02   0.03     0.14   0.03   0.02    -0.01  -0.01  -0.00
    22   6     0.02   0.05  -0.01    -0.12  -0.03  -0.04     0.04   0.00   0.02
    23   1    -0.03  -0.03  -0.04    -0.06   0.02  -0.03     0.02  -0.01   0.00
    24   1    -0.03  -0.06  -0.03    -0.00  -0.02  -0.04    -0.01   0.00   0.01
    25   1    -0.02  -0.06  -0.03    -0.03  -0.03  -0.07     0.01   0.02   0.03
    26   1     0.08  -0.05  -0.01     0.12  -0.02   0.03    -0.07   0.01   0.01
    27   1     0.04  -0.07  -0.10     0.07  -0.08  -0.02    -0.04   0.03   0.04
    28   1     0.11  -0.07  -0.05     0.07  -0.06  -0.01    -0.07   0.02   0.02
    29   1    -0.23  -0.03   0.04     0.14   0.08   0.03     0.01  -0.01  -0.01
    30   1    -0.19   0.06  -0.01     0.17  -0.07  -0.00    -0.02   0.01   0.02
    31   1    -0.18  -0.09   0.06     0.21   0.09   0.04    -0.03  -0.01  -0.02
    32   1    -0.01   0.05  -0.01    -0.14  -0.00  -0.03     0.07   0.00   0.02
    33   1     0.11   0.03  -0.03    -0.22  -0.01  -0.04     0.06   0.00   0.01
    34   1     0.01   0.13  -0.01    -0.09  -0.13  -0.10     0.04   0.02   0.05
    35   6     0.12  -0.01   0.10    -0.10   0.01   0.03     0.02  -0.00  -0.03
    36   1     0.27   0.02   0.19     0.03   0.03   0.10     0.26  -0.19   0.14
    37   1     0.18   0.01   0.12    -0.17  -0.01  -0.04     0.01   0.02  -0.33
    38   1    -0.03  -0.13   0.20    -0.20   0.07   0.12    -0.21   0.15   0.18
                      7                      8                      9
                      A                      A                      A
 Frequencies --    109.0729               147.9910               163.3946
 Red. masses --      3.6290                 3.8765                 4.3012
 Frc consts  --      0.0254                 0.0500                 0.0677
 IR Inten    --      0.1776                 0.1479                 6.2798
  Atom  AN      X      Y      Z        X      Y      Z        X      Y      Z
     1   6     0.00   0.01  -0.01    -0.01  -0.00  -0.04    -0.02   0.03  -0.00
     2   6     0.04  -0.02   0.03    -0.00  -0.01   0.07     0.07  -0.02   0.00
     3   1     0.05  -0.04   0.09     0.01  -0.01   0.21     0.07  -0.12   0.01
     4   6    -0.07  -0.03   0.08     0.01  -0.02   0.17    -0.10  -0.02   0.02
     5   1    -0.06  -0.10   0.15     0.02  -0.03   0.43    -0.10  -0.10   0.06
     6   1    -0.17   0.02   0.08    -0.21   0.05   0.15    -0.19   0.00   0.01
     7   1    -0.04  -0.04   0.07     0.21  -0.08   0.12    -0.12   0.01   0.00
     8   6     0.04  -0.02   0.00    -0.01  -0.01   0.07     0.18   0.04  -0.01
     9   8     0.03  -0.04  -0.04     0.00  -0.01   0.22     0.18   0.10  -0.00
    10   8     0.03  -0.01   0.03    -0.01  -0.00  -0.09     0.19   0.05  -0.01
    11   6     0.00  -0.02  -0.00    -0.01  -0.00  -0.01     0.05   0.00  -0.00
    12   1     0.01  -0.05  -0.01    -0.02   0.04   0.01     0.02  -0.09   0.00
    13   1    -0.01  -0.01  -0.01     0.01  -0.05   0.00     0.03  -0.09  -0.01
    14   5     0.00   0.09  -0.05    -0.01   0.01  -0.15    -0.03  -0.03  -0.02
    15   8    -0.02   0.23  -0.04    -0.06  -0.04  -0.12    -0.04  -0.08  -0.01
    16   8     0.04  -0.07  -0.04     0.04   0.06  -0.12    -0.03  -0.09  -0.02
    17   6    -0.03   0.02  -0.01    -0.04  -0.01  -0.04    -0.04  -0.05  -0.00
    18   6     0.02   0.00  -0.00     0.05   0.02  -0.04    -0.04  -0.06  -0.00
    19   6    -0.26  -0.05   0.01    -0.02  -0.00  -0.05     0.03  -0.04   0.00
    20   6     0.13  -0.10  -0.04    -0.15  -0.00   0.07    -0.10  -0.02   0.01
    21   6    -0.05   0.01   0.01     0.13   0.02  -0.02    -0.12  -0.05   0.01
    22   6     0.12   0.05   0.05     0.09   0.01  -0.00    -0.00  -0.01  -0.00
    23   1    -0.32   0.05  -0.03     0.05  -0.00  -0.13     0.08  -0.07  -0.01
    24   1    -0.37  -0.03   0.00    -0.11  -0.04  -0.07     0.02  -0.04   0.00
    25   1    -0.26  -0.20   0.08     0.01   0.04   0.03     0.04   0.02   0.03
    26   1     0.28  -0.05  -0.04    -0.18  -0.01   0.04    -0.15  -0.04   0.01
    27   1     0.12  -0.26  -0.08    -0.11   0.02   0.21    -0.09   0.04   0.04
    28   1     0.11  -0.10  -0.04    -0.29  -0.02   0.07    -0.10  -0.02   0.01
    29   1    -0.07   0.01   0.02     0.25   0.04  -0.05    -0.13  -0.06   0.01
    30   1    -0.06   0.05  -0.00     0.13  -0.04   0.09    -0.15   0.02   0.03
    31   1    -0.06  -0.03   0.03     0.10   0.04  -0.08    -0.17  -0.09   0.01
    32   1     0.19   0.05   0.04     0.18   0.04  -0.00    -0.02  -0.02  -0.00
    33   1     0.16   0.04   0.02     0.05   0.02  -0.05     0.05  -0.02   0.00
    34   1     0.09   0.08   0.14     0.07  -0.03   0.09    -0.01   0.05  -0.00
    35   6    -0.01   0.00  -0.01     0.00  -0.01   0.02    -0.14   0.22   0.02
    36   1     0.00  -0.01   0.01    -0.03   0.05  -0.01    -0.12   0.39   0.02
    37   1    -0.04  -0.01  -0.04     0.01  -0.01   0.10    -0.38   0.13   0.04
    38   1    -0.03   0.04   0.01     0.03  -0.08  -0.02    -0.11   0.37   0.02
                     10                     11                     12
                      A                      A                      A
 Frequencies --    169.8417               217.7675               225.5038
 Red. masses --      1.1608                 2.4959                 1.7213
 Frc consts  --      0.0197                 0.0697                 0.0516
 IR Inten    --      0.1230                 1.1765                 1.4892
  Atom  AN      X      Y      Z        X      Y      Z        X      Y      Z
     1   6     0.00  -0.00   0.03     0.04  -0.04  -0.00     0.00  -0.00   0.05
     2   6     0.00  -0.00   0.05     0.01  -0.03   0.01     0.01  -0.01   0.20
     3   1     0.00  -0.00   0.08     0.02  -0.03   0.02     0.01  -0.02   0.28
     4   6     0.00   0.00  -0.03     0.25   0.05  -0.02     0.00   0.01  -0.07
     5   1     0.03  -0.02   0.45     0.24   0.27  -0.02    -0.02   0.03  -0.38
     6   1    -0.41  -0.24  -0.34     0.39  -0.02  -0.02     0.27   0.03   0.04
     7   1     0.38   0.28  -0.36     0.37  -0.01  -0.03    -0.25  -0.04   0.07
     8   6    -0.00   0.00  -0.02     0.04  -0.03  -0.00     0.00  -0.00   0.04
     9   8    -0.01   0.00  -0.04     0.04  -0.01  -0.00    -0.00   0.01  -0.06
    10   8    -0.01   0.00  -0.06     0.06  -0.04  -0.01    -0.00   0.00  -0.07
    11   6     0.00   0.00   0.02     0.02  -0.05  -0.01    -0.00  -0.00  -0.03
    12   1    -0.04   0.04   0.06     0.01  -0.08  -0.00    -0.02   0.04  -0.01
    13   1     0.05  -0.04   0.05     0.01  -0.08  -0.01     0.02  -0.04  -0.02
    14   5     0.00  -0.00   0.02    -0.00  -0.03  -0.00    -0.00  -0.00  -0.01
    15   8     0.01   0.00   0.01    -0.03   0.06   0.00    -0.00  -0.00  -0.01
    16   8    -0.00  -0.00   0.01    -0.03   0.03   0.00    -0.00   0.01  -0.01
    17   6     0.01   0.00   0.01    -0.04   0.03   0.01    -0.01   0.00  -0.01
    18   6    -0.00  -0.00   0.01    -0.03   0.02  -0.00    -0.00   0.00  -0.00
    19   6     0.00   0.00   0.01    -0.11   0.01   0.01    -0.01  -0.00  -0.01
    20   6     0.02   0.00  -0.01    -0.05  -0.01   0.06    -0.01   0.00  -0.01
    21   6    -0.01  -0.00   0.01    -0.01   0.02  -0.00     0.00   0.00  -0.01
    22   6    -0.01  -0.00   0.00    -0.12  -0.01  -0.05     0.03  -0.00   0.03
    23   1    -0.00  -0.00   0.02    -0.17   0.04   0.04    -0.00   0.01  -0.03
    24   1     0.01   0.01   0.01    -0.10   0.02   0.02    -0.04  -0.01  -0.01
    25   1     0.00  -0.00  -0.00    -0.13  -0.06  -0.02    -0.01  -0.00   0.02
    26   1     0.02   0.00  -0.00     0.08   0.04  -0.08    -0.03  -0.01   0.01
    27   1     0.01   0.00  -0.02     0.01  -0.17   0.23    -0.02   0.03  -0.03
    28   1     0.03   0.00  -0.01    -0.27   0.06   0.09     0.02  -0.01  -0.01
    29   1    -0.02  -0.00   0.01     0.03   0.03  -0.01    -0.01  -0.01  -0.01
    30   1    -0.01   0.00  -0.00    -0.02   0.01   0.04     0.00  -0.00  -0.02
    31   1    -0.01  -0.00   0.01    -0.03   0.02  -0.02     0.01   0.01  -0.01
    32   1    -0.02  -0.00   0.00    -0.29  -0.09  -0.05     0.13   0.05   0.03
    33   1    -0.00  -0.00   0.01    -0.07  -0.01   0.06    -0.04   0.01  -0.04
    34   1    -0.01   0.00  -0.01    -0.08   0.05  -0.22     0.01  -0.07   0.12
    35   6     0.00  -0.00   0.01    -0.04   0.01   0.00    -0.00   0.00   0.01
    36   1    -0.08   0.09  -0.05    -0.04   0.07  -0.01    -0.21   0.31  -0.14
    37   1     0.02  -0.01   0.15    -0.10  -0.02   0.03     0.02  -0.02   0.44
    38   1     0.08  -0.10  -0.07    -0.02   0.03  -0.01     0.18  -0.29  -0.20
                     13                     14                     15
                      A                      A                      A
 Frequencies --    230.9674               247.3349               279.1383
 Red. masses --      1.3047                 1.1561                 1.5970
 Frc consts  --      0.0410                 0.0417                 0.0733
 IR Inten    --      0.8198                 0.2757                 1.8943
  Atom  AN      X      Y      Z        X      Y      Z        X      Y      Z
     1   6    -0.00  -0.02  -0.01    -0.00   0.00  -0.01    -0.01  -0.00  -0.05
     2   6    -0.01  -0.01  -0.03     0.00  -0.00   0.02    -0.01   0.00  -0.10
     3   1    -0.01  -0.02  -0.04     0.00  -0.00   0.04    -0.02   0.01  -0.14
     4   6     0.08   0.01   0.01     0.00   0.00   0.00     0.00  -0.01   0.03
     5   1     0.08   0.09   0.05     0.00   0.01  -0.01     0.01  -0.01   0.13
     6   1     0.08  -0.01  -0.01     0.01   0.02   0.02    -0.08   0.03   0.03
     7   1     0.16  -0.00  -0.02    -0.00  -0.02   0.02     0.09  -0.04   0.01
     8   6     0.01  -0.01  -0.01     0.00  -0.00   0.01    -0.00  -0.00   0.02
     9   8     0.01   0.01   0.01     0.00  -0.00   0.00    -0.00   0.01   0.03
    10   8     0.02  -0.02   0.01    -0.00  -0.00  -0.00     0.01  -0.01   0.13
    11   6     0.01  -0.03   0.00    -0.00  -0.00  -0.01    -0.00  -0.00  -0.10
    12   1     0.01  -0.04   0.00     0.00  -0.00  -0.01     0.12  -0.09  -0.22
    13   1     0.00  -0.03   0.00    -0.00  -0.00  -0.01    -0.14   0.10  -0.19
    14   5    -0.01  -0.02   0.00    -0.00   0.00  -0.02    -0.00  -0.00  -0.01
    15   8    -0.02  -0.01   0.01    -0.01  -0.00  -0.01    -0.00   0.00  -0.01
    16   8    -0.02   0.04  -0.00     0.01   0.01  -0.02     0.00   0.00  -0.01
    17   6    -0.03   0.00  -0.00    -0.01  -0.01   0.00     0.00  -0.00   0.00
    18   6    -0.02   0.01   0.01     0.01  -0.01   0.00     0.00  -0.00   0.00
    19   6    -0.03   0.00  -0.01    -0.02  -0.01   0.06     0.02   0.00   0.03
    20   6     0.01   0.02  -0.06     0.01   0.01  -0.04     0.02   0.00  -0.02
    21   6     0.00   0.01   0.00     0.03  -0.01   0.05    -0.00   0.00   0.04
    22   6     0.00  -0.02   0.06    -0.02   0.01  -0.04    -0.02  -0.00  -0.01
    23   1     0.03   0.01  -0.09     0.07  -0.02  -0.02    -0.03  -0.02   0.12
    24   1    -0.14  -0.02  -0.03    -0.17   0.01   0.05     0.11   0.06   0.06
    25   1    -0.00   0.01   0.09     0.02   0.00   0.21    -0.01  -0.01  -0.04
    26   1    -0.18  -0.05   0.18    -0.22  -0.07   0.22     0.06   0.02  -0.06
    27   1    -0.09   0.27  -0.33    -0.09   0.30  -0.29     0.02  -0.05  -0.02
    28   1     0.36  -0.12  -0.12     0.35  -0.15  -0.10     0.00   0.04  -0.01
    29   1    -0.08   0.02   0.03     0.13   0.03   0.03    -0.04   0.04   0.06
    30   1     0.02  -0.02  -0.09     0.02  -0.01   0.16     0.00  -0.00   0.02
    31   1     0.08   0.03   0.06    -0.03  -0.03   0.02     0.02  -0.02   0.08
    32   1     0.33   0.17   0.08    -0.33  -0.20  -0.06     0.01   0.04  -0.00
    33   1    -0.25   0.02  -0.14     0.24  -0.03   0.18    -0.07   0.01  -0.05
    34   1    -0.02  -0.31   0.33     0.00   0.30  -0.30    -0.01  -0.06   0.00
    35   6    -0.02   0.01   0.00    -0.00  -0.00   0.00    -0.00   0.00  -0.01
    36   1     0.01  -0.02   0.02    -0.02   0.03  -0.01    -0.21   0.38  -0.17
    37   1    -0.06  -0.00  -0.06     0.00  -0.00   0.04     0.02  -0.03   0.51
    38   1    -0.04   0.07   0.03     0.02  -0.03  -0.02     0.18  -0.35  -0.23
                     16                     17                     18
                      A                      A                      A
 Frequencies --    280.7078               285.4315               299.5990
 Red. masses --      3.1963                 2.0331                 1.4035
 Frc consts  --      0.1484                 0.0976                 0.0742
 IR Inten    --     23.9346                 1.5135                 4.5891
  Atom  AN      X      Y      Z        X      Y      Z        X      Y      Z
     1   6    -0.07  -0.08   0.01    -0.00   0.01  -0.03    -0.01  -0.02  -0.00
     2   6    -0.14  -0.04   0.01     0.01  -0.00   0.06    -0.04  -0.01   0.01
     3   1    -0.14  -0.01   0.01     0.01  -0.01   0.13    -0.04   0.01   0.02
     4   6    -0.00  -0.05  -0.00     0.00   0.00  -0.00    -0.02  -0.03  -0.00
     5   1    -0.00   0.01  -0.01    -0.00   0.01  -0.03    -0.02  -0.03  -0.01
     6   1     0.04  -0.07  -0.01     0.03   0.04   0.03    -0.02  -0.02   0.00
     7   1     0.03  -0.06  -0.01    -0.02  -0.04   0.03    -0.02  -0.02   0.00
     8   6    -0.07   0.01   0.00     0.00  -0.00   0.00    -0.03   0.01  -0.00
     9   8    -0.04   0.22   0.01     0.00  -0.01  -0.00    -0.02   0.07  -0.01
    10   8     0.06  -0.08  -0.02    -0.01   0.01  -0.05     0.01  -0.02  -0.00
    11   6     0.04  -0.10   0.00    -0.00   0.00   0.03     0.00  -0.02   0.00
    12   1     0.01  -0.12   0.02    -0.04   0.03   0.07    -0.00  -0.03   0.00
    13   1     0.03  -0.14   0.00     0.05  -0.04   0.06     0.00  -0.03   0.00
    14   5    -0.03  -0.10   0.00    -0.00   0.01  -0.07     0.00  -0.03  -0.01
    15   8    -0.01  -0.04   0.01    -0.01  -0.00  -0.06     0.02   0.05  -0.02
    16   8    -0.01   0.06   0.01     0.00   0.01  -0.06     0.02  -0.04  -0.00
    17   6    -0.01   0.01  -0.00    -0.00  -0.03  -0.01     0.03   0.02   0.00
    18   6    -0.00   0.03   0.01     0.00  -0.02  -0.01     0.02  -0.01  -0.01
    19   6     0.01   0.01   0.01     0.04   0.00   0.15     0.03   0.03   0.04
    20   6     0.10  -0.01  -0.09     0.03   0.02  -0.08     0.02  -0.01   0.05
    21   6     0.09   0.02  -0.03    -0.02   0.00   0.17     0.01  -0.00   0.02
    22   6     0.08   0.05   0.07    -0.04   0.00  -0.06    -0.03   0.00  -0.07
    23   1    -0.08  -0.02   0.15    -0.09  -0.10   0.42     0.34   0.02  -0.29
    24   1     0.17   0.08   0.04     0.29   0.20   0.22    -0.41  -0.06  -0.03
    25   1    -0.03  -0.03  -0.13    -0.03  -0.05  -0.06     0.17   0.14   0.48
    26   1     0.30   0.06  -0.24     0.13   0.05  -0.19     0.10   0.02   0.02
    27   1     0.10  -0.26  -0.09     0.04  -0.12  -0.07     0.06  -0.09   0.13
    28   1     0.03   0.12  -0.04    -0.02   0.13  -0.05    -0.09  -0.01   0.05
    29   1     0.22  -0.01  -0.07    -0.06   0.15   0.22    -0.21   0.06   0.10
    30   1     0.10  -0.04   0.05    -0.02   0.01   0.18     0.06  -0.06  -0.19
    31   1     0.06   0.10  -0.13    -0.00  -0.11   0.27     0.20  -0.01   0.20
    32   1    -0.01  -0.11   0.03     0.06   0.15  -0.02    -0.02   0.10  -0.04
    33   1     0.29   0.01   0.21    -0.21   0.03  -0.19    -0.13   0.02  -0.16
    34   1     0.05   0.29   0.03    -0.03  -0.19   0.02    -0.02  -0.11  -0.08
    35   6    -0.07   0.02   0.01     0.00  -0.00   0.00    -0.02  -0.00   0.00
    36   1    -0.03   0.07   0.02     0.06  -0.12   0.05    -0.01   0.01   0.00
    37   1    -0.22  -0.03  -0.04     0.00   0.01  -0.16    -0.05  -0.01  -0.01
    38   1    -0.07   0.14   0.03    -0.05   0.10   0.07    -0.02   0.02   0.00
                     19                     20                     21
                      A                      A                      A
 Frequencies --    306.5937               312.9682               347.2471
 Red. masses --      1.8645                 1.1411                 2.5322
 Frc consts  --      0.1033                 0.0659                 0.1799
 IR Inten    --      5.4460                 0.4656                 4.0893
  Atom  AN      X      Y      Z        X      Y      Z        X      Y      Z
     1   6     0.01   0.03   0.00    -0.00  -0.01   0.01    -0.02   0.05  -0.05
     2   6     0.04   0.01  -0.01    -0.01  -0.00  -0.00     0.01   0.03   0.02
     3   1     0.04  -0.01  -0.02    -0.01   0.01  -0.02     0.01   0.01   0.08
     4   6     0.02   0.03   0.00    -0.00  -0.01  -0.00    -0.00   0.07   0.01
     5   1     0.02   0.05   0.01    -0.00  -0.01  -0.00    -0.00   0.10   0.03
     6   1     0.02   0.02  -0.00    -0.01  -0.01  -0.01     0.00   0.11   0.04
     7   1     0.03   0.03  -0.00    -0.01   0.00  -0.01     0.03   0.01   0.03
     8   6     0.03  -0.01  -0.00    -0.01   0.00  -0.00     0.02   0.00   0.01
     9   8     0.02  -0.07   0.01    -0.01   0.02  -0.00     0.02   0.05   0.00
    10   8    -0.01   0.02   0.01     0.00  -0.01   0.00     0.02  -0.02  -0.01
    11   6    -0.01   0.02  -0.00     0.00  -0.01  -0.00    -0.04  -0.07   0.00
    12   1    -0.00   0.03  -0.01     0.00  -0.01  -0.00    -0.05  -0.09   0.00
    13   1    -0.01   0.03  -0.00    -0.00  -0.01  -0.00    -0.04  -0.10   0.00
    14   5    -0.01   0.03  -0.00     0.00  -0.01   0.01    -0.02   0.07  -0.06
    15   8    -0.01  -0.10  -0.00     0.02   0.04  -0.00    -0.02   0.05  -0.05
    16   8    -0.05   0.10  -0.01    -0.00  -0.03  -0.00    -0.00   0.04  -0.05
    17   6    -0.02  -0.04  -0.02     0.01   0.02  -0.01    -0.01   0.02   0.00
    18   6    -0.03   0.02  -0.00    -0.00  -0.01  -0.01    -0.00   0.02   0.00
    19   6     0.01  -0.03   0.08     0.02   0.02  -0.03     0.12   0.05  -0.04
    20   6     0.03  -0.03  -0.09     0.02   0.00   0.00     0.06  -0.11   0.08
    21   6    -0.06   0.02  -0.03    -0.01  -0.00   0.04    -0.11   0.02  -0.00
    22   6     0.02   0.01   0.07    -0.03  -0.03  -0.01    -0.02  -0.12   0.11
    23   1     0.27  -0.07  -0.15     0.11   0.03  -0.13     0.17  -0.04   0.01
    24   1    -0.38  -0.02   0.04    -0.08  -0.04  -0.05     0.25   0.03  -0.03
    25   1     0.13   0.04   0.48     0.06   0.07   0.07     0.12   0.19  -0.11
    26   1     0.23   0.05  -0.32     0.03   0.01   0.01     0.11  -0.09   0.28
    27   1     0.07  -0.30  -0.00     0.03  -0.01   0.02     0.04  -0.09   0.01
    28   1    -0.13   0.16  -0.02    -0.00  -0.01  -0.00     0.13  -0.29   0.02
    29   1     0.02  -0.04  -0.07     0.50   0.00  -0.10    -0.24   0.02   0.04
    30   1    -0.09   0.09   0.04    -0.11   0.08   0.58    -0.13   0.13  -0.09
    31   1    -0.15   0.02  -0.12    -0.40  -0.07  -0.26    -0.11  -0.07   0.08
    32   1     0.04  -0.09   0.03     0.07   0.04   0.00    -0.09  -0.35   0.04
    33   1     0.11  -0.00   0.15    -0.16  -0.01  -0.08    -0.00  -0.11   0.34
    34   1    -0.00   0.11   0.10    -0.02  -0.18   0.06    -0.01  -0.05   0.02
    35   6     0.02  -0.01  -0.00    -0.01  -0.00  -0.00    -0.04  -0.10  -0.00
    36   1     0.01  -0.02  -0.01    -0.01   0.01  -0.00    -0.04  -0.15  -0.00
    37   1     0.06   0.01   0.01    -0.01  -0.01   0.00     0.01  -0.08  -0.01
    38   1     0.02  -0.04  -0.01    -0.00  -0.00  -0.00    -0.05  -0.13  -0.00
                     22                     23                     24
                      A                      A                      A
 Frequencies --    356.4837               369.1401               388.4271
 Red. masses --      3.4897                 2.3805                 2.5048
 Frc consts  --      0.2613                 0.1911                 0.2227
 IR Inten    --      5.0978                 2.9263                 9.7480
  Atom  AN      X      Y      Z        X      Y      Z        X      Y      Z
     1   6     0.02  -0.13  -0.06     0.03  -0.01  -0.00     0.07  -0.02  -0.01
     2   6    -0.03  -0.07   0.02     0.00   0.01  -0.00     0.02   0.02   0.00
     3   1    -0.03  -0.03   0.08     0.00   0.05   0.00     0.02   0.07   0.01
     4   6     0.02  -0.16  -0.01    -0.02  -0.03  -0.00    -0.02  -0.08  -0.00
     5   1     0.03  -0.20   0.01    -0.01  -0.09  -0.00    -0.01  -0.19  -0.00
     6   1    -0.01  -0.11   0.02    -0.05  -0.01   0.00    -0.08  -0.04   0.00
     7   1     0.02  -0.20   0.01    -0.05  -0.02   0.00    -0.08  -0.05   0.01
     8   6    -0.06  -0.02   0.01    -0.01   0.01   0.00    -0.00   0.03   0.00
     9   8    -0.06  -0.09   0.00    -0.00   0.07   0.01     0.01   0.10   0.01
    10   8    -0.06   0.03  -0.00     0.00  -0.00  -0.00    -0.00   0.02   0.00
    11   6     0.10   0.14   0.00    -0.02  -0.02  -0.00    -0.05  -0.00   0.00
    12   1     0.10   0.20   0.01    -0.02  -0.03   0.00    -0.05  -0.01   0.00
    13   1     0.11   0.19   0.01    -0.02  -0.03  -0.00    -0.05  -0.01   0.00
    14   5     0.02  -0.09  -0.06     0.04  -0.01  -0.01     0.07  -0.03  -0.01
    15   8    -0.02  -0.01  -0.03     0.04  -0.06  -0.01     0.06  -0.06  -0.01
    16   8     0.02   0.03  -0.03     0.03   0.07  -0.00     0.07   0.05   0.00
    17   6    -0.00   0.05   0.01     0.05  -0.02   0.02     0.06   0.00  -0.01
    18   6     0.01   0.06   0.01     0.04   0.04  -0.02     0.06   0.03   0.01
    19   6     0.01   0.05  -0.01    -0.05  -0.05   0.16    -0.10  -0.05  -0.07
    20   6     0.08  -0.05   0.06     0.02  -0.06   0.10    -0.03   0.12  -0.05
    21   6    -0.05   0.07  -0.02    -0.08   0.05  -0.16    -0.07   0.06   0.08
    22   6    -0.07  -0.08   0.07    -0.01   0.05  -0.09    -0.03  -0.12   0.05
    23   1     0.00   0.04   0.02    -0.16  -0.07   0.31    -0.21   0.11  -0.15
    24   1     0.04   0.06  -0.00    -0.02   0.14   0.21    -0.24  -0.11  -0.10
    25   1     0.00   0.05  -0.03    -0.08  -0.22   0.13    -0.12  -0.24  -0.02
    26   1     0.16  -0.02   0.18    -0.10  -0.10   0.26    -0.11   0.09  -0.22
    27   1     0.05  -0.09  -0.02    -0.00   0.10   0.06    -0.00   0.15   0.05
    28   1     0.14  -0.16   0.02     0.10  -0.21   0.05    -0.12   0.28   0.01
    29   1    -0.10   0.05  -0.01     0.01  -0.14  -0.23    -0.21   0.09   0.13
    30   1    -0.06   0.12  -0.05    -0.14   0.22  -0.08    -0.10   0.20   0.01
    31   1    -0.06   0.04   0.00    -0.25   0.05  -0.32    -0.10  -0.09   0.18
    32   1    -0.12  -0.22   0.03     0.05   0.18  -0.06    -0.11  -0.28   0.00
    33   1    -0.14  -0.05   0.24    -0.16   0.07  -0.20    -0.11  -0.09   0.24
    34   1    -0.04  -0.12  -0.02     0.00  -0.12  -0.05     0.01  -0.16  -0.07
    35   6     0.08   0.22   0.01    -0.02  -0.04  -0.00    -0.02  -0.06  -0.00
    36   1     0.10   0.32   0.01    -0.02  -0.05  -0.00    -0.03  -0.11  -0.00
    37   1    -0.06   0.17   0.01     0.01  -0.03  -0.00     0.06  -0.03  -0.00
    38   1     0.09   0.32   0.02    -0.02  -0.05  -0.00    -0.03  -0.11  -0.01
                     25                     26                     27
                      A                      A                      A
 Frequencies --    415.7558               435.3801               477.4163
 Red. masses --      3.4727                 3.3800                 3.4715
 Frc consts  --      0.3537                 0.3775                 0.4662
 IR Inten    --      4.2314                 8.8525                 7.7636
  Atom  AN      X      Y      Z        X      Y      Z        X      Y      Z
     1   6    -0.02   0.03   0.09     0.04  -0.10   0.17     0.01  -0.08  -0.15
     2   6    -0.05   0.02  -0.03     0.01  -0.05  -0.06    -0.01  -0.05   0.04
     3   1    -0.06   0.09  -0.11     0.00  -0.05  -0.22     0.00  -0.03   0.16
     4   6    -0.01   0.07   0.00     0.05  -0.13  -0.01     0.06  -0.12  -0.01
     5   1    -0.01   0.12  -0.05     0.04  -0.14  -0.12     0.06  -0.08   0.08
     6   1     0.05  -0.02  -0.05     0.12  -0.29  -0.10     0.02   0.00   0.06
     7   1    -0.02   0.14  -0.03    -0.03   0.03  -0.08     0.16  -0.27   0.03
     8   6    -0.10  -0.05  -0.01     0.04   0.03  -0.03     0.00   0.00   0.02
     9   8    -0.11  -0.06   0.01     0.06   0.07   0.00     0.01   0.06  -0.01
    10   8     0.01  -0.13   0.00    -0.02   0.09   0.02    -0.02   0.03  -0.01
    11   6     0.16  -0.09  -0.01    -0.09   0.09   0.01    -0.03   0.05   0.00
    12   1     0.15  -0.08  -0.01    -0.08   0.08  -0.01    -0.03   0.06   0.01
    13   1     0.14  -0.07  -0.03    -0.10   0.10   0.01    -0.02   0.04   0.01
    14   5     0.01   0.13   0.03     0.00  -0.04   0.04     0.00   0.10   0.00
    15   8     0.10   0.07  -0.03     0.07   0.11  -0.05    -0.06   0.15   0.07
    16   8    -0.03   0.11  -0.00    -0.13   0.06  -0.05     0.02   0.15   0.05
    17   6     0.07  -0.05  -0.06     0.00  -0.01  -0.10    -0.04  -0.09   0.08
    18   6     0.04  -0.04  -0.06    -0.07  -0.02  -0.09     0.04  -0.09   0.08
    19   6     0.02  -0.07   0.01     0.03   0.01   0.04     0.08  -0.10  -0.02
    20   6    -0.07   0.02   0.01    -0.07  -0.06   0.02    -0.05   0.00  -0.05
    21   6    -0.07  -0.03   0.04     0.01  -0.02   0.04    -0.06  -0.12  -0.02
    22   6     0.09  -0.06  -0.02     0.06  -0.01   0.03     0.03   0.02  -0.05
    23   1    -0.01  -0.07   0.03     0.04  -0.10   0.15     0.21  -0.13  -0.13
    24   1    -0.02  -0.01   0.02     0.06   0.16   0.08     0.18  -0.28  -0.06
    25   1     0.02  -0.14   0.04     0.03   0.01   0.05     0.10   0.14  -0.09
    26   1    -0.25  -0.05  -0.01    -0.15  -0.09   0.15    -0.12  -0.03  -0.20
    27   1    -0.02   0.20   0.16    -0.03   0.05   0.14    -0.07   0.02  -0.10
    28   1    -0.17   0.01   0.01    -0.17  -0.22  -0.04     0.01   0.16   0.01
    29   1    -0.16   0.02   0.08     0.01   0.14   0.08    -0.12  -0.32  -0.04
    30   1    -0.11   0.11   0.03     0.04  -0.13   0.07    -0.12   0.08  -0.07
    31   1    -0.13  -0.18   0.12     0.08  -0.06   0.13    -0.18  -0.14  -0.11
    32   1     0.14  -0.14  -0.05     0.20  -0.12  -0.03    -0.04   0.18   0.02
    33   1     0.16  -0.07   0.04     0.22  -0.04   0.10     0.11  -0.00  -0.21
    34   1     0.06   0.02   0.04     0.00   0.15   0.20     0.03   0.06  -0.09
    35   6     0.01   0.10   0.00     0.00  -0.03  -0.00     0.01   0.01   0.00
    36   1     0.04   0.31   0.01    -0.02  -0.15  -0.01     0.00  -0.03   0.00
    37   1    -0.29  -0.01   0.02     0.19   0.04  -0.00     0.06   0.03  -0.01
    38   1     0.04   0.31   0.02    -0.01  -0.16  -0.02    -0.00  -0.03  -0.00
                     28                     29                     30
                      A                      A                      A
 Frequencies --    518.2455               557.9370               560.9722
 Red. masses --      3.4114                 3.7887                 3.1537
 Frc consts  --      0.5398                 0.6949                 0.5847
 IR Inten    --      0.3262                 6.5752                 4.2656
  Atom  AN      X      Y      Z        X      Y      Z        X      Y      Z
     1   6     0.07   0.02   0.01     0.27   0.06  -0.04     0.04  -0.01   0.30
     2   6     0.04   0.04  -0.00     0.17   0.13   0.00     0.01   0.01  -0.07
     3   1     0.04   0.11  -0.00     0.17   0.41   0.03     0.00   0.04  -0.20
     4   6     0.00  -0.02  -0.00     0.04  -0.10  -0.01     0.01  -0.01   0.02
     5   1     0.01  -0.11  -0.01     0.05  -0.46  -0.01    -0.01  -0.02  -0.21
     6   1    -0.05   0.00  -0.00    -0.18   0.03   0.02     0.15  -0.31  -0.15
     7   1    -0.06   0.02   0.00    -0.15  -0.02   0.03    -0.18   0.32  -0.09
     8   6    -0.03   0.00  -0.00    -0.08   0.01   0.01    -0.01   0.00  -0.06
     9   8    -0.03   0.01  -0.00    -0.08   0.06   0.01    -0.00   0.00   0.03
    10   8    -0.01  -0.02   0.00    -0.02  -0.06  -0.00    -0.00  -0.01   0.03
    11   6     0.02  -0.03  -0.00     0.06  -0.09  -0.01     0.00  -0.01  -0.00
    12   1     0.02  -0.02  -0.00     0.06  -0.07   0.00     0.02  -0.02  -0.02
    13   1     0.02  -0.02  -0.00     0.06  -0.07  -0.01    -0.01   0.01  -0.01
    14   5     0.04   0.02  -0.00     0.10   0.04   0.00    -0.00   0.02  -0.10
    15   8     0.03   0.12  -0.01    -0.03  -0.05   0.07    -0.11  -0.00  -0.05
    16   8     0.05  -0.12   0.00    -0.06   0.01  -0.05     0.10   0.02  -0.07
    17   6    -0.02  -0.11  -0.04    -0.09   0.04   0.01    -0.10  -0.01   0.10
    18   6    -0.03   0.11   0.05    -0.10  -0.05  -0.02     0.10  -0.01   0.08
    19   6     0.09  -0.15   0.03    -0.04   0.11  -0.01     0.00   0.01  -0.01
    20   6    -0.12  -0.08  -0.11    -0.02  -0.03  -0.01    -0.00  -0.01  -0.02
    21   6     0.05   0.16  -0.04    -0.01  -0.10   0.01    -0.01  -0.01  -0.01
    22   6    -0.12   0.07   0.12    -0.03   0.03   0.02     0.00  -0.01  -0.02
    23   1     0.20  -0.31   0.10     0.00   0.08  -0.01     0.08   0.01  -0.08
    24   1     0.12  -0.05   0.06    -0.01   0.10  -0.01     0.11  -0.15  -0.04
    25   1     0.12  -0.03   0.08    -0.03   0.19  -0.02     0.01   0.21  -0.10
    26   1    -0.27  -0.14  -0.22     0.10   0.01   0.08     0.10   0.03  -0.09
    27   1    -0.11   0.02  -0.06    -0.04  -0.13  -0.05    -0.07  -0.15  -0.21
    28   1    -0.15   0.02  -0.07    -0.00  -0.12  -0.04     0.16   0.11   0.02
    29   1     0.10   0.06  -0.08     0.03  -0.03   0.02    -0.09  -0.18  -0.02
    30   1     0.09   0.05  -0.10     0.02  -0.23   0.04    -0.05   0.17  -0.08
    31   1     0.13   0.35  -0.12     0.05  -0.06   0.03    -0.09  -0.03  -0.07
    32   1    -0.14  -0.04   0.09     0.01   0.09   0.03    -0.17   0.09   0.04
    33   1    -0.27   0.10   0.26     0.09   0.01  -0.06    -0.09   0.01  -0.10
    34   1    -0.10  -0.04   0.07    -0.06   0.14   0.10     0.06  -0.11  -0.21
    35   6    -0.00   0.00   0.00    -0.01  -0.01  -0.00    -0.00  -0.00  -0.00
    36   1     0.00   0.03   0.00     0.01   0.09   0.00    -0.00   0.01  -0.00
    37   1    -0.05  -0.02   0.00    -0.16  -0.07   0.00    -0.01  -0.00   0.00
    38   1     0.00   0.03   0.00     0.01   0.09   0.01     0.00   0.01  -0.00
                     31                     32                     33
                      A                      A                      A
 Frequencies --    579.6279               658.0076               672.6274
 Red. masses --      3.9120                 7.5350                 3.4795
 Frc consts  --      0.7744                 1.9222                 0.9275
 IR Inten    --      4.1760                95.1745                13.5551
  Atom  AN      X      Y      Z        X      Y      Z        X      Y      Z
     1   6    -0.00  -0.01  -0.02    -0.05  -0.09   0.02     0.04   0.01  -0.00
     2   6    -0.00  -0.01   0.01     0.00  -0.13  -0.01     0.03   0.03   0.00
     3   1    -0.00  -0.01   0.00     0.00  -0.11   0.01     0.03   0.06   0.00
     4   6     0.00  -0.01  -0.00     0.08  -0.15  -0.01     0.01  -0.01  -0.00
     5   1     0.01   0.00   0.02     0.07   0.16  -0.02     0.01  -0.07  -0.00
     6   1    -0.00   0.01   0.01     0.29  -0.25  -0.03    -0.03   0.01   0.00
     7   1     0.03  -0.03   0.00     0.25  -0.18  -0.06    -0.03   0.00   0.00
     8   6     0.00  -0.00   0.01     0.00  -0.04  -0.02    -0.01   0.01   0.00
     9   8     0.00   0.01  -0.00     0.00   0.13   0.01    -0.01  -0.00  -0.00
    10   8    -0.00   0.00  -0.00    -0.06  -0.03   0.01     0.00  -0.00   0.00
    11   6    -0.00   0.00   0.00    -0.03   0.05   0.00     0.01  -0.01  -0.00
    12   1    -0.00   0.01   0.00    -0.01   0.06  -0.00     0.01  -0.01  -0.00
    13   1     0.00   0.00   0.00    -0.02   0.06   0.00     0.01  -0.01  -0.00
    14   5     0.00   0.02   0.11    -0.05   0.65  -0.00    -0.00  -0.03   0.00
    15   8    -0.08  -0.02   0.14    -0.02  -0.19   0.01    -0.11   0.03   0.10
    16   8     0.10  -0.01   0.13     0.02  -0.19  -0.03    -0.12  -0.04  -0.09
    17   6    -0.11   0.02  -0.09     0.04   0.00  -0.01    -0.03  -0.04   0.15
    18   6     0.09   0.03  -0.10    -0.03   0.01  -0.03    -0.05   0.03  -0.14
    19   6    -0.03   0.13   0.01     0.00   0.00  -0.00     0.04  -0.17   0.03
    20   6    -0.13  -0.14  -0.12     0.04   0.03   0.03     0.08   0.09   0.10
    21   6     0.01   0.14   0.00     0.00   0.04  -0.01     0.01   0.17  -0.04
    22   6     0.14  -0.12  -0.13    -0.03   0.01   0.02     0.08  -0.08  -0.11
    23   1     0.09  -0.06   0.10    -0.07   0.07   0.01     0.08  -0.10  -0.09
    24   1     0.03   0.28   0.05    -0.06   0.04   0.00     0.13  -0.41  -0.02
    25   1     0.00   0.27   0.04     0.00  -0.10   0.04     0.04  -0.05  -0.06
    26   1    -0.03  -0.11  -0.03     0.07   0.05   0.06     0.10   0.10  -0.03
    27   1    -0.15  -0.23  -0.15     0.05   0.02   0.04     0.04   0.05  -0.03
    28   1    -0.13  -0.23  -0.15     0.04   0.01   0.02     0.22   0.27   0.16
    29   1    -0.06   0.27   0.05     0.06   0.12  -0.00     0.06   0.42   0.00
    30   1    -0.04   0.27   0.05     0.04  -0.08   0.03     0.04   0.06   0.06
    31   1    -0.06  -0.06   0.11     0.08   0.10   0.01     0.07   0.11   0.08
    32   1     0.15  -0.20  -0.17     0.00  -0.03  -0.00     0.24  -0.23  -0.19
    33   1     0.04  -0.10  -0.03    -0.05   0.02   0.07     0.12  -0.09   0.01
    34   1     0.16  -0.20  -0.17    -0.03   0.00   0.05     0.05  -0.04   0.02
    35   6     0.00   0.00   0.00     0.02   0.03   0.00    -0.00  -0.00  -0.00
    36   1     0.00  -0.00   0.00     0.01   0.03  -0.00    -0.00   0.01  -0.00
    37   1     0.00   0.00  -0.00     0.02   0.03   0.00    -0.02  -0.01   0.00
    38   1    -0.00  -0.00   0.00     0.01   0.03   0.00    -0.00   0.01   0.00
                     34                     35                     36
                      A                      A                      A
 Frequencies --    749.9545               768.7918               809.2715
 Red. masses --      3.4739                 6.3606                 1.0999
 Frc consts  --      1.1512                 2.2150                 0.4244
 IR Inten    --     10.7561                20.4888                 1.6125
  Atom  AN      X      Y      Z        X      Y      Z        X      Y      Z
     1   6     0.00  -0.00   0.04    -0.00  -0.02   0.01     0.00   0.00  -0.00
     2   6     0.00  -0.00  -0.07    -0.29   0.21   0.02     0.00  -0.00  -0.00
     3   1    -0.04   0.04  -0.80    -0.29   0.35   0.01     0.01  -0.00   0.07
     4   6    -0.00   0.00  -0.01     0.06  -0.19  -0.01    -0.00   0.00   0.00
     5   1     0.01   0.00   0.13     0.07  -0.27  -0.02    -0.00   0.00  -0.01
     6   1    -0.06   0.11   0.06     0.03  -0.17  -0.02     0.01  -0.01  -0.01
     7   1     0.07  -0.12   0.03     0.02  -0.16  -0.01    -0.01   0.02  -0.00
     8   6     0.02  -0.03   0.42    -0.01   0.24   0.03    -0.00   0.00  -0.02
     9   8    -0.01   0.01  -0.13    -0.09  -0.22  -0.01     0.00  -0.00   0.01
    10   8    -0.01   0.00  -0.09     0.31   0.13  -0.01     0.00  -0.00   0.03
    11   6    -0.00   0.00  -0.02     0.03  -0.03  -0.00    -0.00   0.00  -0.07
    12   1    -0.13   0.04   0.08    -0.00  -0.20  -0.01    -0.42  -0.16   0.24
    13   1     0.13  -0.04   0.07     0.02  -0.20  -0.00     0.44   0.13   0.21
    14   5    -0.00   0.01  -0.00    -0.01   0.11  -0.00    -0.00  -0.00  -0.00
    15   8     0.01  -0.01  -0.03    -0.01  -0.02   0.00    -0.00   0.00   0.00
    16   8    -0.01  -0.01  -0.03     0.00  -0.02   0.00     0.00   0.00   0.00
    17   6    -0.02  -0.00   0.02     0.01  -0.00  -0.01     0.00   0.00  -0.00
    18   6     0.02   0.00   0.02     0.01   0.00   0.00    -0.00   0.00  -0.00
    19   6    -0.01   0.01   0.00     0.01   0.00  -0.00     0.00  -0.00  -0.00
    20   6    -0.01  -0.00   0.00     0.00   0.00  -0.00     0.00   0.00  -0.00
    21   6     0.01   0.01   0.00    -0.00  -0.00   0.00    -0.00  -0.00  -0.00
    22   6     0.01  -0.00  -0.00    -0.00   0.00   0.00    -0.00   0.00   0.00
    23   1     0.01   0.01  -0.02    -0.01   0.01   0.00     0.00  -0.00   0.00
    24   1     0.01  -0.03  -0.01    -0.01   0.02   0.00    -0.00   0.00   0.00
    25   1    -0.01   0.05  -0.02     0.01  -0.02   0.01     0.00  -0.01   0.00
    26   1     0.02   0.01  -0.01    -0.00  -0.00   0.01    -0.00   0.00   0.00
    27   1    -0.02  -0.03  -0.05     0.01   0.01   0.01     0.00   0.01   0.01
    28   1     0.03   0.02   0.01    -0.01  -0.01  -0.01    -0.00  -0.00  -0.00
    29   1    -0.01  -0.03  -0.00     0.00  -0.01  -0.00     0.00   0.00   0.00
    30   1    -0.00   0.04  -0.02     0.00  -0.00   0.00     0.00  -0.01   0.00
    31   1    -0.01   0.01  -0.01     0.00   0.00  -0.00     0.00  -0.00   0.00
    32   1    -0.03   0.01   0.01    -0.01   0.00   0.01     0.00  -0.00  -0.00
    33   1    -0.02   0.00  -0.01    -0.01   0.01   0.01     0.00   0.00   0.00
    34   1     0.02  -0.03  -0.05    -0.00  -0.00   0.00    -0.00   0.00   0.01
    35   6     0.00   0.00  -0.00    -0.08  -0.06   0.00    -0.00   0.00  -0.04
    36   1     0.07   0.04   0.04    -0.09  -0.24   0.01     0.37   0.22   0.18
    37   1    -0.00  -0.00   0.02     0.14   0.01  -0.00     0.01  -0.01   0.18
    38   1    -0.06  -0.04   0.04    -0.10  -0.24  -0.02    -0.36  -0.24   0.19
                     37                     38                     39
                      A                      A                      A
 Frequencies --    830.9224               837.7773               864.2013
 Red. masses --      7.1738                 4.0295                 2.6835
 Frc consts  --      2.9182                 1.6663                 1.1808
 IR Inten    --     10.4952                 4.9978                87.8068
  Atom  AN      X      Y      Z        X      Y      Z        X      Y      Z
     1   6     0.05   0.06  -0.00    -0.01   0.00  -0.05    -0.00  -0.03  -0.00
     2   6     0.13   0.08  -0.00    -0.00  -0.00   0.06    -0.05  -0.03  -0.00
     3   1     0.14   0.20   0.00    -0.01   0.00  -0.07    -0.05  -0.05   0.01
     4   6     0.07  -0.10  -0.01    -0.00  -0.01  -0.03    -0.02   0.04   0.00
     5   1     0.08  -0.25  -0.02     0.00   0.01   0.08    -0.02   0.07   0.00
     6   1     0.01  -0.08  -0.01    -0.04   0.12   0.05    -0.02   0.04   0.00
     7   1     0.01  -0.08   0.00     0.08  -0.15   0.03    -0.02   0.05   0.00
     8   6     0.00   0.03  -0.00    -0.00   0.01  -0.08    -0.01  -0.03   0.00
     9   8    -0.01   0.01   0.00    -0.00  -0.00   0.02    -0.01  -0.00   0.00
    10   8    -0.05   0.03   0.00     0.01  -0.00   0.02     0.05  -0.03  -0.01
    11   6     0.05  -0.05  -0.01    -0.00   0.00  -0.00    -0.04   0.04   0.00
    12   1     0.05   0.01   0.00    -0.03  -0.02   0.01    -0.04  -0.03  -0.00
    13   1     0.05   0.01  -0.01     0.02   0.01   0.01    -0.04  -0.03   0.00
    14   5    -0.24  -0.01   0.02     0.00   0.03   0.05     0.08   0.02  -0.01
    15   8    -0.05  -0.01  -0.39     0.23  -0.02  -0.08     0.14  -0.01  -0.05
    16   8    -0.01  -0.01   0.39    -0.22  -0.06  -0.06     0.15   0.03   0.03
    17   6    -0.04   0.02  -0.02    -0.09  -0.03   0.14    -0.09  -0.00   0.12
    18   6    -0.03  -0.02   0.02     0.10  -0.01   0.12    -0.10  -0.01  -0.12
    19   6     0.02  -0.06   0.01    -0.05   0.10   0.03    -0.03   0.01   0.05
    20   6     0.02   0.06   0.06    -0.08  -0.06  -0.00    -0.07  -0.02   0.02
    21   6     0.00   0.07  -0.01     0.04   0.10   0.03    -0.03  -0.03  -0.04
    22   6     0.02  -0.06  -0.06     0.08  -0.05  -0.02    -0.08   0.02  -0.01
    23   1     0.02  -0.05  -0.01    -0.02   0.19  -0.11     0.02   0.09  -0.10
    24   1     0.05  -0.12   0.00     0.06  -0.16  -0.02     0.10  -0.28  -0.01
    25   1     0.01  -0.04  -0.03    -0.07   0.29  -0.12    -0.05   0.20  -0.11
    26   1     0.22   0.14   0.07    -0.02  -0.04  -0.15     0.09   0.03  -0.07
    27   1    -0.04  -0.11  -0.13    -0.17  -0.18  -0.26    -0.17  -0.21  -0.26
    28   1     0.20   0.09   0.06     0.13   0.11   0.05     0.19   0.12   0.07
    29   1     0.04   0.13  -0.01    -0.02  -0.16  -0.02     0.05   0.31   0.01
    30   1     0.01   0.04   0.03     0.01   0.27  -0.12     0.00  -0.21   0.12
    31   1     0.02   0.07   0.01    -0.02   0.21  -0.11     0.05  -0.12   0.11
    32   1     0.20  -0.05  -0.09    -0.13   0.08   0.06     0.20  -0.09  -0.09
    33   1     0.22  -0.10  -0.09     0.01  -0.04  -0.14     0.10  -0.02   0.06
    34   1    -0.04   0.09   0.13     0.15  -0.15  -0.26    -0.18   0.19   0.29
    35   6    -0.00  -0.04  -0.00    -0.00   0.00  -0.00    -0.00   0.04   0.00
    36   1     0.01   0.08  -0.01     0.03   0.01   0.01    -0.01  -0.08   0.01
    37   1    -0.18  -0.11   0.00     0.01   0.00   0.01     0.19   0.11  -0.00
    38   1     0.01   0.08   0.01    -0.03  -0.02   0.01    -0.01  -0.08  -0.02
                     40                     41                     42
                      A                      A                      A
 Frequencies --    881.8667               889.0698               932.6478
 Red. masses --      1.5219                 2.5399                 1.5596
 Frc consts  --      0.6973                 1.1829                 0.7993
 IR Inten    --     26.4650                 2.9111                 0.0363
  Atom  AN      X      Y      Z        X      Y      Z        X      Y      Z
     1   6     0.00   0.00  -0.00     0.05   0.01  -0.00     0.00  -0.00   0.00
     2   6    -0.01   0.01  -0.16     0.06  -0.02  -0.00    -0.00  -0.00   0.00
     3   1     0.06  -0.05   0.91     0.06   0.09  -0.01    -0.00   0.00  -0.04
     4   6     0.00  -0.00   0.04     0.01   0.04   0.00     0.00   0.00   0.00
     5   1    -0.01   0.01  -0.14     0.01  -0.07  -0.00     0.00  -0.00  -0.00
     6   1     0.07  -0.18  -0.08    -0.07   0.07   0.00     0.00  -0.00  -0.00
     7   1    -0.08   0.19  -0.05    -0.06   0.06   0.02    -0.00   0.01  -0.00
     8   6     0.01  -0.01   0.11    -0.06  -0.08  -0.00     0.00  -0.00  -0.00
     9   8    -0.00   0.00  -0.02    -0.07   0.02   0.01     0.00  -0.00   0.00
    10   8    -0.00   0.00  -0.02     0.14  -0.14  -0.01    -0.00  -0.00   0.00
    11   6    -0.00   0.00  -0.00    -0.12   0.09   0.01    -0.00   0.00   0.00
    12   1     0.01   0.01  -0.01    -0.14  -0.14  -0.01    -0.00   0.00   0.00
    13   1    -0.01  -0.01  -0.01    -0.13  -0.14   0.01     0.00   0.00   0.00
    14   5    -0.00   0.00   0.00    -0.03  -0.00   0.00    -0.00  -0.00  -0.01
    15   8     0.03  -0.00  -0.00    -0.05   0.00  -0.03    -0.02  -0.01   0.00
    16   8    -0.03  -0.01   0.00    -0.04  -0.01   0.03     0.02  -0.01  -0.01
    17   6    -0.00  -0.01   0.01     0.01   0.01  -0.04     0.03  -0.06  -0.00
    18   6     0.00  -0.00   0.01     0.02  -0.00   0.04    -0.02  -0.09   0.00
    19   6    -0.00   0.01   0.00     0.01  -0.01  -0.01    -0.05   0.06  -0.01
    20   6    -0.01  -0.01  -0.00     0.02   0.02  -0.00     0.07  -0.03   0.01
    21   6     0.00   0.02   0.00     0.01   0.02   0.01     0.07   0.09  -0.03
    22   6     0.01  -0.01  -0.00     0.02  -0.02  -0.00    -0.08  -0.06   0.03
    23   1    -0.01   0.03  -0.01     0.00  -0.05   0.03     0.05  -0.03  -0.01
    24   1     0.00  -0.01  -0.00    -0.02   0.07   0.00     0.05   0.08   0.01
    25   1    -0.01   0.02  -0.01     0.02  -0.06   0.03    -0.03   0.25  -0.02
    26   1    -0.02  -0.01  -0.02     0.01   0.01   0.04    -0.23  -0.14  -0.16
    27   1    -0.01  -0.00  -0.01     0.04   0.04   0.06     0.12   0.24   0.16
    28   1     0.00   0.01   0.00    -0.04  -0.04  -0.02    -0.07   0.13   0.06
    29   1     0.00  -0.01  -0.00    -0.01  -0.08  -0.00    -0.11   0.13   0.03
    30   1     0.00   0.03  -0.01     0.00   0.06  -0.03    -0.03   0.39  -0.01
    31   1     0.00   0.04  -0.02    -0.01   0.06  -0.04    -0.09  -0.14   0.02
    32   1    -0.01   0.01   0.01    -0.04   0.03   0.02     0.02   0.24   0.12
    33   1     0.02  -0.01  -0.03     0.01  -0.01  -0.04     0.31  -0.14  -0.29
    34   1     0.01  -0.01  -0.02     0.04  -0.04  -0.07    -0.17   0.30   0.21
    35   6     0.00   0.00   0.00     0.00   0.15   0.01     0.00  -0.00   0.00
    36   1    -0.01  -0.01  -0.01    -0.01  -0.28   0.03     0.00   0.00  -0.00
    37   1     0.00   0.00  -0.01     0.64   0.39  -0.01    -0.00  -0.00   0.00
    38   1     0.01   0.01  -0.01    -0.02  -0.27  -0.06     0.00   0.00   0.00
                     43                     44                     45
                      A                      A                      A
 Frequencies --    935.8573               963.1192               972.5772
 Red. masses --      1.4274                 1.7827                 1.9358
 Frc consts  --      0.7366                 0.9743                 1.0788
 IR Inten    --      0.0391                 6.6592                42.5641
  Atom  AN      X      Y      Z        X      Y      Z        X      Y      Z
     1   6     0.00   0.00   0.00     0.00  -0.00   0.00    -0.01   0.03   0.00
     2   6     0.00   0.00   0.00    -0.00  -0.00   0.01     0.06  -0.00  -0.00
     3   1     0.00   0.01  -0.01    -0.01  -0.01  -0.07     0.07  -0.01  -0.01
     4   6     0.00  -0.00   0.00    -0.00   0.01   0.01    -0.02  -0.03  -0.00
     5   1     0.00  -0.01  -0.00    -0.00   0.00  -0.01    -0.02   0.10   0.01
     6   1     0.00  -0.00  -0.00     0.00  -0.01  -0.01     0.09  -0.07   0.01
     7   1    -0.00   0.00  -0.00    -0.02   0.03  -0.00     0.09  -0.06  -0.02
     8   6    -0.00  -0.00  -0.00     0.00  -0.00   0.00    -0.02   0.01   0.00
     9   8    -0.00   0.00   0.00     0.00  -0.00   0.00    -0.03   0.00   0.00
    10   8     0.00  -0.00  -0.00    -0.00   0.00   0.00     0.02   0.01  -0.00
    11   6    -0.00   0.00   0.00     0.00   0.00  -0.00     0.01  -0.00  -0.00
    12   1    -0.00  -0.00  -0.00     0.00   0.00   0.00     0.00  -0.02  -0.00
    13   1    -0.00  -0.00  -0.00     0.00   0.00   0.00     0.00  -0.02  -0.00
    14   5    -0.01  -0.00  -0.00     0.01  -0.00  -0.03    -0.04  -0.02  -0.00
    15   8    -0.00  -0.01  -0.02    -0.03   0.01   0.00    -0.06   0.02  -0.00
    16   8     0.01   0.01   0.02     0.04   0.02  -0.01    -0.05  -0.02   0.01
    17   6     0.01  -0.08   0.01     0.09  -0.01   0.04     0.12  -0.03   0.06
    18   6    -0.03   0.04  -0.00    -0.11  -0.04   0.06     0.08   0.04  -0.05
    19   6    -0.08   0.05  -0.03     0.06   0.06   0.04     0.06   0.08   0.02
    20   6     0.08  -0.04   0.04    -0.02  -0.05  -0.05    -0.04  -0.10   0.01
    21   6    -0.05  -0.03   0.03    -0.07   0.07   0.06     0.05  -0.06  -0.02
    22   6     0.04   0.03  -0.04     0.02  -0.07  -0.05    -0.04   0.07  -0.01
    23   1     0.13  -0.20   0.04    -0.19   0.44  -0.12    -0.19   0.41  -0.09
    24   1     0.09   0.17   0.02    -0.09  -0.19  -0.03    -0.11  -0.08  -0.03
    25   1    -0.02   0.38   0.01    -0.02  -0.24  -0.08    -0.01  -0.23  -0.04
    26   1    -0.28  -0.17  -0.27    -0.11  -0.08  -0.03    -0.17  -0.15  -0.29
    27   1     0.10   0.28   0.10     0.01  -0.00   0.04    -0.10  -0.02  -0.17
    28   1     0.04   0.29   0.16    -0.11  -0.12  -0.08     0.12   0.19   0.10
    29   1     0.09  -0.12  -0.03     0.12  -0.16  -0.06    -0.08   0.01   0.04
    30   1     0.03  -0.28  -0.03     0.05  -0.24  -0.09    -0.03   0.16   0.02
    31   1     0.08   0.23  -0.07     0.12   0.54  -0.16    -0.08  -0.30   0.07
    32   1     0.09  -0.22  -0.14     0.09  -0.02  -0.05     0.16  -0.18  -0.13
    33   1    -0.14   0.07   0.20     0.19  -0.11  -0.15    -0.12   0.10   0.28
    34   1     0.06  -0.15  -0.03    -0.01   0.04   0.03    -0.08   0.00   0.18
    35   6     0.00   0.00   0.00    -0.00  -0.00  -0.00    -0.01   0.00   0.00
    36   1     0.00  -0.00   0.00    -0.00   0.00  -0.00    -0.01  -0.03   0.00
    37   1     0.01   0.00  -0.00    -0.01  -0.01   0.00     0.03   0.02  -0.00
    38   1     0.00  -0.00  -0.00    -0.00   0.00   0.00    -0.01  -0.03  -0.00
                     46                     47                     48
                      A                      A                      A
 Frequencies --    985.0478              1002.5262              1011.6081
 Red. masses --      2.2867                 1.2830                 1.3906
 Frc consts  --      1.3073                 0.7598                 0.8384
 IR Inten    --      2.7185                 0.0034                 3.2111
  Atom  AN      X      Y      Z        X      Y      Z        X      Y      Z
     1   6    -0.04   0.03   0.01     0.00   0.00  -0.00     0.01  -0.02  -0.00
     2   6     0.19  -0.06  -0.01    -0.00   0.00   0.00     0.00  -0.02  -0.00
     3   1     0.19  -0.15  -0.01    -0.01   0.01  -0.01     0.00  -0.05  -0.00
     4   6    -0.11  -0.06   0.00     0.00  -0.00   0.00    -0.00   0.02   0.00
     5   1    -0.13   0.59   0.04     0.00  -0.01  -0.01    -0.01   0.01  -0.00
     6   1     0.36  -0.22   0.04    -0.00  -0.01  -0.00    -0.02   0.02  -0.00
     7   1     0.35  -0.22  -0.10    -0.01   0.01  -0.00    -0.02   0.03   0.00
     8   6    -0.07   0.05   0.01     0.00  -0.00  -0.00    -0.01   0.00   0.00
     9   8    -0.13   0.00   0.01     0.00  -0.00  -0.00    -0.02   0.00   0.00
    10   8     0.08   0.07  -0.00    -0.00  -0.00   0.00     0.02   0.01  -0.00
    11   6     0.05   0.01  -0.00    -0.00  -0.00   0.00     0.01   0.02   0.00
    12   1     0.05  -0.00  -0.00    -0.00  -0.00   0.00     0.02   0.03  -0.00
    13   1     0.05  -0.00  -0.00    -0.00  -0.00  -0.00     0.02   0.03   0.00
    14   5     0.01  -0.04  -0.00    -0.00   0.00  -0.01     0.02   0.00  -0.00
    15   8     0.03   0.00   0.01    -0.00   0.01  -0.00     0.01   0.01   0.02
    16   8     0.03   0.01  -0.02     0.00   0.01   0.00     0.01  -0.01  -0.02
    17   6    -0.03   0.01  -0.01     0.02  -0.00   0.01    -0.02  -0.00  -0.02
    18   6    -0.03  -0.01   0.01    -0.02  -0.00   0.02    -0.02  -0.00   0.02
    19   6    -0.02  -0.02  -0.00     0.04   0.01  -0.06     0.03  -0.01  -0.09
    20   6     0.01   0.02  -0.01    -0.02  -0.05   0.05    -0.04   0.01   0.08
    21   6    -0.02   0.01  -0.00    -0.05   0.00  -0.06     0.03   0.01   0.07
    22   6     0.01  -0.02   0.01     0.04  -0.04   0.05    -0.04  -0.02  -0.06
    23   1     0.05  -0.10   0.01    -0.07  -0.03   0.12    -0.03  -0.18   0.18
    24   1     0.04  -0.01   0.01    -0.14   0.32   0.00    -0.13   0.41   0.00
    25   1    -0.00   0.08   0.00     0.05  -0.23   0.13     0.07  -0.20   0.17
    26   1     0.03   0.03   0.07    -0.06  -0.06  -0.22     0.14   0.08  -0.07
    27   1     0.03   0.01   0.05    -0.10  -0.03  -0.18    -0.14  -0.14  -0.22
    28   1    -0.05  -0.06  -0.03     0.19   0.24   0.14     0.25   0.16   0.12
    29   1     0.03   0.05  -0.01     0.09   0.39  -0.01    -0.06  -0.37   0.01
    30   1     0.01  -0.08   0.01     0.00  -0.26   0.15     0.01   0.18  -0.15
    31   1     0.03   0.07   0.00     0.11  -0.04   0.13    -0.07   0.15  -0.14
    32   1    -0.07   0.06   0.05    -0.24   0.22   0.18     0.21  -0.08  -0.12
    33   1     0.02  -0.03  -0.09     0.02  -0.04  -0.23     0.16  -0.06   0.01
    34   1     0.03  -0.00  -0.06     0.10  -0.03  -0.22    -0.12   0.12   0.21
    35   6    -0.05  -0.04   0.00     0.00   0.00   0.00    -0.01  -0.02  -0.00
    36   1    -0.06  -0.08  -0.00     0.00   0.00   0.00    -0.02  -0.00  -0.00
    37   1    -0.03  -0.03  -0.00     0.00   0.00  -0.00    -0.05  -0.03   0.00
    38   1    -0.06  -0.08  -0.00     0.00   0.00  -0.00    -0.02  -0.00   0.01
                     49                     50                     51
                      A                      A                      A
 Frequencies --   1021.3723              1039.7251              1060.1629
 Red. masses --      2.4450                 1.5668                 2.8787
 Frc consts  --      1.5028                 0.9979                 1.9063
 IR Inten    --      1.4504                 8.7710               140.9849
  Atom  AN      X      Y      Z        X      Y      Z        X      Y      Z
     1   6     0.04  -0.09  -0.01    -0.01   0.01  -0.15     0.00   0.07   0.00
     2   6     0.03  -0.13  -0.01     0.01  -0.00   0.05    -0.05   0.11   0.01
     3   1     0.03  -0.29  -0.02    -0.02   0.02  -0.33    -0.05   0.44   0.02
     4   6     0.06   0.12   0.01     0.01  -0.01   0.16    -0.05  -0.07   0.00
     5   1     0.07  -0.32  -0.03    -0.02   0.03  -0.35    -0.06   0.24   0.01
     6   1    -0.30   0.23  -0.03     0.17  -0.54  -0.20     0.20  -0.15   0.02
     7   1    -0.29   0.24   0.09    -0.18   0.56  -0.11     0.19  -0.13  -0.07
     8   6    -0.04  -0.01   0.00     0.00   0.00   0.01     0.03  -0.05  -0.00
     9   8    -0.09   0.01   0.01    -0.00   0.00  -0.00     0.07  -0.01  -0.00
    10   8     0.10   0.04  -0.00    -0.00   0.00  -0.00     0.04  -0.20  -0.01
    11   6     0.07   0.14   0.00    -0.00  -0.00  -0.00    -0.03   0.25   0.02
    12   1     0.12   0.25  -0.02    -0.00  -0.00   0.00     0.06   0.35  -0.03
    13   1     0.13   0.25   0.03    -0.00  -0.01  -0.00     0.07   0.35   0.06
    14   5    -0.01   0.03  -0.00    -0.00  -0.00  -0.00     0.01  -0.02   0.00
    15   8    -0.02  -0.01  -0.02     0.02  -0.00   0.01    -0.01   0.00  -0.00
    16   8    -0.02  -0.01   0.02    -0.01  -0.00   0.01    -0.00   0.00   0.00
    17   6     0.01  -0.00   0.00    -0.01   0.00   0.00     0.01   0.00  -0.00
    18   6     0.01   0.00  -0.00     0.01   0.00   0.00     0.00   0.00   0.00
    19   6     0.00   0.00   0.02    -0.00  -0.00  -0.00    -0.00  -0.00   0.00
    20   6     0.01  -0.01  -0.01    -0.00   0.00  -0.00    -0.00   0.00   0.00
    21   6    -0.00  -0.01  -0.02     0.00  -0.00  -0.00    -0.00   0.00   0.00
    22   6     0.01   0.01   0.01     0.00   0.00   0.00    -0.00  -0.00  -0.00
    23   1    -0.00   0.06  -0.04     0.00  -0.01   0.00     0.01  -0.01  -0.00
    24   1     0.02  -0.09  -0.00     0.00   0.00   0.00     0.01  -0.00   0.00
    25   1    -0.01   0.03  -0.03    -0.00   0.01  -0.00    -0.00   0.00  -0.01
    26   1    -0.05  -0.03  -0.01     0.01   0.01   0.01     0.01   0.00   0.00
    27   1     0.03   0.04   0.04    -0.00  -0.01  -0.00    -0.01  -0.01  -0.01
    28   1    -0.04  -0.02  -0.02    -0.00  -0.00  -0.00     0.00  -0.00  -0.00
    29   1     0.01   0.09   0.00    -0.00  -0.00   0.00     0.01  -0.00  -0.00
    30   1    -0.00  -0.02   0.04    -0.00   0.01  -0.00     0.00  -0.01  -0.00
    31   1     0.01  -0.06   0.04    -0.00  -0.01   0.00     0.00   0.01  -0.00
    32   1    -0.05   0.01   0.02     0.00  -0.00  -0.00     0.00   0.00   0.00
    33   1    -0.05   0.02   0.01    -0.01   0.00   0.01     0.01  -0.00  -0.00
    34   1     0.03  -0.04  -0.05     0.00  -0.01  -0.00    -0.01   0.01   0.01
    35   6    -0.08  -0.12  -0.00     0.00   0.00  -0.00    -0.04  -0.11  -0.00
    36   1    -0.13  -0.02  -0.03     0.00  -0.00   0.00    -0.10   0.10  -0.05
    37   1    -0.31  -0.21   0.00     0.01   0.00   0.00    -0.35  -0.22   0.01
    38   1    -0.12  -0.02   0.04     0.00  -0.00  -0.00    -0.09   0.10   0.07
                     52                     53                     54
                      A                      A                      A
 Frequencies --   1121.6584              1130.3288              1134.9541
 Red. masses --      2.3607                 2.4030                 2.6048
 Frc consts  --      1.7499                 1.8089                 1.9769
 IR Inten    --     18.0497                12.7401               132.9207
  Atom  AN      X      Y      Z        X      Y      Z        X      Y      Z
     1   6     0.00  -0.00   0.01    -0.07   0.08   0.01    -0.14   0.16   0.02
     2   6     0.00   0.00  -0.00     0.01   0.03   0.00     0.07   0.02  -0.00
     3   1    -0.00   0.01  -0.02     0.00  -0.13  -0.01     0.06  -0.56  -0.03
     4   6    -0.00   0.00  -0.01     0.06  -0.04  -0.01     0.11  -0.08  -0.01
     5   1    -0.00   0.01   0.01     0.07  -0.24  -0.02     0.14  -0.50  -0.04
     6   1     0.00   0.01   0.01    -0.03  -0.04  -0.03    -0.07  -0.06  -0.05
     7   1     0.00  -0.01   0.00    -0.03  -0.04   0.02    -0.06  -0.07   0.06
     8   6     0.00   0.00   0.00     0.01  -0.01  -0.00    -0.00   0.05   0.00
     9   8     0.00   0.00  -0.00     0.04   0.00  -0.00    -0.05  -0.00   0.00
    10   8     0.00  -0.00  -0.00    -0.09  -0.04   0.00     0.04  -0.06  -0.01
    11   6    -0.00   0.00  -0.00     0.21   0.03  -0.01    -0.11   0.03   0.01
    12   1    -0.00   0.00   0.00     0.23   0.08  -0.01    -0.11  -0.04  -0.01
    13   1    -0.00  -0.00   0.00     0.23   0.09  -0.01    -0.11  -0.04   0.01
    14   5    -0.01   0.00  -0.13    -0.06  -0.01   0.00    -0.11  -0.02   0.01
    15   8     0.05  -0.00   0.03     0.04   0.00   0.02     0.07   0.01   0.04
    16   8    -0.04  -0.01   0.03     0.03   0.01  -0.03     0.06   0.01  -0.05
    17   6    -0.12   0.03   0.13    -0.03   0.00   0.01    -0.06   0.00   0.02
    18   6     0.13   0.05   0.11    -0.03  -0.01  -0.01    -0.06  -0.01  -0.01
    19   6     0.04  -0.01  -0.06     0.01   0.00  -0.00     0.02   0.01  -0.01
    20   6     0.05  -0.01  -0.09     0.01  -0.00  -0.00     0.02  -0.01  -0.00
    21   6    -0.05  -0.02  -0.05     0.01  -0.00   0.00     0.02  -0.00   0.00
    22   6    -0.06  -0.02  -0.08     0.01   0.00  -0.00     0.02   0.01  -0.00
    23   1    -0.09  -0.07   0.15    -0.02   0.02   0.02    -0.05   0.04   0.03
    24   1    -0.12   0.22  -0.01    -0.03   0.01  -0.00    -0.06   0.03  -0.01
    25   1     0.06  -0.21   0.14     0.01  -0.06   0.01     0.01  -0.11   0.02
    26   1    -0.19  -0.09   0.11    -0.03  -0.02   0.00    -0.06  -0.03   0.00
    27   1     0.15   0.14   0.23     0.02   0.03   0.02     0.03   0.06   0.05
    28   1    -0.29  -0.12  -0.12    -0.02   0.01   0.00    -0.04   0.02   0.01
    29   1     0.09   0.23  -0.03    -0.03  -0.01   0.01    -0.05  -0.03   0.02
    30   1    -0.01  -0.22   0.14    -0.00   0.05  -0.01    -0.01   0.10  -0.02
    31   1     0.12  -0.05   0.13    -0.02  -0.02  -0.01    -0.04  -0.04  -0.02
    32   1     0.30  -0.08  -0.15    -0.01  -0.02  -0.01    -0.03  -0.04  -0.01
    33   1     0.22  -0.06   0.09    -0.03   0.01   0.00    -0.06   0.02   0.01
    34   1    -0.15   0.12   0.26     0.02  -0.02  -0.02     0.03  -0.05  -0.05
    35   6     0.00  -0.00   0.00    -0.18   0.04   0.01     0.08  -0.03  -0.01
    36   1     0.00   0.00  -0.00    -0.19  -0.48   0.05     0.07   0.23  -0.03
    37   1    -0.00  -0.00  -0.00     0.30   0.20  -0.00    -0.15  -0.11   0.00
    38   1     0.00   0.00   0.00    -0.20  -0.47  -0.08     0.08   0.23   0.05
                     55                     56                     57
                      A                      A                      A
 Frequencies --   1150.7616              1162.3776              1180.4031
 Red. masses --      2.1287                 1.5574                 2.7871
 Frc consts  --      1.6609                 1.2398                 2.2881
 IR Inten    --    398.9540                 7.0423                58.3543
  Atom  AN      X      Y      Z        X      Y      Z        X      Y      Z
     1   6    -0.04   0.06   0.01     0.00  -0.00   0.00    -0.00   0.00  -0.00
     2   6     0.01   0.01  -0.00     0.00  -0.00   0.00     0.00   0.00   0.00
     3   1     0.01  -0.42  -0.02    -0.00  -0.00  -0.01     0.00  -0.01   0.00
     4   6     0.03  -0.03  -0.00    -0.00   0.00  -0.00    -0.00  -0.00   0.00
     5   1     0.04  -0.15  -0.01    -0.00   0.00   0.00    -0.00   0.00  -0.00
     6   1    -0.01  -0.02  -0.01    -0.00   0.00   0.00     0.00  -0.01  -0.00
     7   1    -0.01  -0.02   0.01     0.00  -0.00   0.00     0.00   0.00  -0.00
     8   6     0.01   0.07   0.00     0.00   0.00   0.01     0.00   0.01  -0.00
     9   8    -0.01  -0.00   0.00    -0.00   0.00  -0.00    -0.00   0.00   0.00
    10   8    -0.02  -0.05  -0.00    -0.00   0.00  -0.05    -0.00  -0.00  -0.00
    11   6     0.00   0.02   0.00     0.01  -0.01   0.18     0.00   0.00  -0.00
    12   1     0.01  -0.04  -0.01     0.39  -0.32  -0.18     0.00  -0.01  -0.00
    13   1     0.01  -0.04   0.00    -0.40   0.33  -0.11     0.00  -0.01   0.00
    14   5     0.04  -0.01   0.00     0.00   0.00   0.00     0.00   0.01   0.01
    15   8    -0.04  -0.00   0.02    -0.00  -0.00  -0.00     0.00  -0.03  -0.01
    16   8    -0.04  -0.00  -0.01     0.00  -0.00  -0.00    -0.00  -0.03  -0.00
    17   6     0.15  -0.01  -0.06    -0.00   0.00   0.00    -0.03   0.24  -0.04
    18   6     0.16   0.03   0.03    -0.00   0.00   0.00    -0.01   0.24  -0.04
    19   6    -0.08  -0.02   0.02     0.00  -0.00  -0.00     0.01  -0.08   0.06
    20   6    -0.07   0.03   0.02     0.00  -0.00  -0.00     0.03  -0.10   0.01
    21   6    -0.08   0.00  -0.01     0.00  -0.00  -0.00     0.01  -0.08   0.06
    22   6    -0.07  -0.03  -0.00     0.00  -0.00  -0.00    -0.01  -0.11   0.01
    23   1     0.15  -0.14  -0.08    -0.00   0.00   0.00     0.10  -0.08  -0.05
    24   1     0.18  -0.04   0.03    -0.00   0.00  -0.00     0.13  -0.31   0.02
    25   1    -0.04   0.33  -0.04     0.00  -0.00   0.00    -0.01  -0.06  -0.05
    26   1     0.19   0.12   0.01    -0.00  -0.00  -0.00    -0.25  -0.20  -0.28
    27   1    -0.13  -0.20  -0.16     0.00   0.00   0.00    -0.01   0.19  -0.08
    28   1     0.14  -0.08  -0.03    -0.00   0.00  -0.00    -0.07   0.21   0.11
    29   1     0.16   0.07  -0.06    -0.00  -0.00   0.00    -0.07  -0.32   0.03
    30   1     0.02  -0.32   0.05    -0.00   0.00   0.00     0.01  -0.06  -0.05
    31   1     0.14   0.15   0.06    -0.00  -0.00  -0.00    -0.09  -0.09  -0.04
    32   1     0.13   0.10   0.02     0.00  -0.00  -0.00     0.05   0.22   0.10
    33   1     0.19  -0.08  -0.03    -0.00  -0.00  -0.00     0.24  -0.16  -0.31
    34   1    -0.14   0.18   0.18     0.00  -0.00  -0.00    -0.03   0.19  -0.09
    35   6    -0.01   0.00   0.00    -0.01   0.01  -0.12    -0.00   0.00   0.00
    36   1    -0.01  -0.02  -0.00     0.35   0.16   0.10    -0.00  -0.00  -0.00
    37   1     0.01   0.01   0.00     0.01  -0.01   0.26     0.00   0.00  -0.00
    38   1    -0.01  -0.02   0.00    -0.34  -0.17   0.12    -0.00  -0.00   0.00
                     58                     59                     60
                      A                      A                      A
 Frequencies --   1205.3986              1229.0663              1268.4519
 Red. masses --      2.6154                 2.9846                 3.1677
 Frc consts  --      2.2390                 2.6563                 3.0029
 IR Inten    --    642.5384                45.8674                 0.4223
  Atom  AN      X      Y      Z        X      Y      Z        X      Y      Z
     1   6    -0.10   0.02   0.01    -0.00   0.00  -0.00    -0.00   0.00   0.00
     2   6     0.05  -0.01  -0.00     0.00  -0.00   0.00    -0.00   0.00  -0.00
     3   1     0.05   0.81   0.04     0.00   0.00   0.00    -0.00   0.00  -0.00
     4   6     0.05  -0.01  -0.00     0.00  -0.00   0.00     0.00  -0.00   0.00
     5   1     0.05  -0.17  -0.01     0.00  -0.00  -0.00     0.00  -0.01  -0.00
     6   1    -0.08  -0.01  -0.04    -0.00  -0.00  -0.00    -0.00  -0.00  -0.00
     7   1    -0.07  -0.02   0.05     0.00   0.00  -0.00     0.00  -0.00   0.00
     8   6    -0.05  -0.20  -0.01    -0.00  -0.00  -0.00    -0.00  -0.01  -0.00
     9   8    -0.00   0.02   0.00    -0.00   0.00   0.00    -0.00   0.00   0.00
    10   8     0.06   0.11   0.00     0.00   0.00  -0.00     0.00   0.00   0.00
    11   6    -0.01  -0.04  -0.00    -0.00  -0.00  -0.00    -0.00  -0.00   0.00
    12   1    -0.01   0.15   0.02    -0.00   0.00   0.00     0.00   0.01   0.00
    13   1    -0.01   0.15  -0.00    -0.00   0.00  -0.00    -0.00   0.00   0.00
    14   5    -0.18  -0.02   0.01    -0.00   0.01   0.01     0.00   0.00  -0.01
    15   8     0.05   0.00   0.06    -0.01  -0.01  -0.03    -0.00  -0.02   0.01
    16   8     0.04   0.01  -0.07     0.01  -0.01  -0.03    -0.01   0.02  -0.00
    17   6     0.05  -0.00  -0.04     0.21   0.08   0.14     0.02   0.30  -0.01
    18   6     0.06   0.02   0.02    -0.20   0.07   0.17     0.05  -0.29   0.01
    19   6    -0.03  -0.00   0.02    -0.08  -0.05  -0.05    -0.02  -0.06  -0.01
    20   6    -0.03   0.01   0.01    -0.06  -0.00  -0.06     0.01  -0.08   0.02
    21   6    -0.03  -0.00  -0.01     0.07  -0.03  -0.06    -0.02   0.05   0.01
    22   6    -0.03  -0.01  -0.01     0.05   0.00  -0.07    -0.00   0.08  -0.03
    23   1     0.05  -0.02  -0.05     0.11  -0.28   0.04     0.15  -0.26   0.03
    24   1     0.07  -0.04   0.01     0.18   0.21   0.04     0.16  -0.15  -0.01
    25   1    -0.02   0.12  -0.03     0.03   0.25   0.16     0.01  -0.09   0.08
    26   1     0.07   0.04  -0.01    -0.06  -0.02   0.00    -0.19  -0.16  -0.29
    27   1    -0.05  -0.06  -0.07    -0.07  -0.22  -0.08    -0.10   0.08  -0.24
    28   1     0.07  -0.01   0.00    -0.11  -0.25  -0.15    -0.13   0.05   0.06
    29   1     0.06   0.03  -0.02    -0.20   0.16   0.07     0.12   0.20  -0.01
    30   1     0.00  -0.12   0.03    -0.04   0.21   0.16    -0.02   0.12  -0.07
    31   1     0.05   0.03   0.04    -0.07  -0.31   0.06     0.10   0.27  -0.05
    32   1     0.07   0.03  -0.01     0.15  -0.22  -0.16    -0.13  -0.09  -0.05
    33   1     0.08  -0.03  -0.00     0.08  -0.02  -0.02    -0.18   0.13   0.31
    34   1    -0.06   0.07   0.07     0.09  -0.20  -0.10    -0.05  -0.11   0.24
    35   6     0.01  -0.01  -0.00     0.00  -0.00   0.00     0.00  -0.00  -0.00
    36   1     0.03   0.03   0.01     0.00   0.00  -0.00     0.00   0.00   0.00
    37   1    -0.02  -0.02   0.00    -0.00  -0.00  -0.00    -0.00  -0.00   0.00
    38   1     0.03   0.03  -0.01     0.00   0.00  -0.00    -0.00  -0.00  -0.00
                     61                     62                     63
                      A                      A                      A
 Frequencies --   1280.0326              1286.3495              1319.0032
 Red. masses --      1.1018                 3.1168                 2.7360
 Frc consts  --      1.0637                 3.0386                 2.8046
 IR Inten    --      1.8185                31.7882               349.0826
  Atom  AN      X      Y      Z        X      Y      Z        X      Y      Z
     1   6    -0.00   0.00  -0.00     0.04  -0.04  -0.00    -0.01  -0.13  -0.00
     2   6     0.00  -0.00   0.00     0.00  -0.00  -0.00     0.07  -0.07  -0.01
     3   1    -0.00  -0.00  -0.00     0.01  -0.01  -0.00     0.10   0.57   0.02
     4   6     0.00  -0.00  -0.00    -0.02   0.02   0.00     0.00   0.06   0.00
     5   1     0.00  -0.00   0.00    -0.02   0.06   0.00    -0.00   0.02   0.00
     6   1    -0.00   0.00   0.00     0.01   0.02   0.01    -0.09   0.00  -0.06
     7   1     0.00  -0.00   0.00     0.00   0.02  -0.01    -0.09  -0.00   0.07
     8   6    -0.00  -0.00   0.00     0.02   0.07   0.00     0.06   0.23   0.01
     9   8    -0.00   0.00  -0.00     0.00  -0.01  -0.00    -0.01  -0.02  -0.00
    10   8    -0.00   0.00  -0.04    -0.02  -0.03  -0.00    -0.06  -0.08  -0.00
    11   6    -0.00   0.00  -0.02     0.00   0.02   0.00     0.03   0.09   0.00
    12   1    -0.11  -0.65  -0.04    -0.01  -0.09  -0.01    -0.06  -0.45  -0.01
    13   1     0.11   0.65   0.02    -0.00  -0.08  -0.00    -0.06  -0.45  -0.03
    14   5     0.00   0.00   0.00    -0.04   0.00  -0.00    -0.17  -0.01  -0.02
    15   8    -0.00  -0.00  -0.00     0.03   0.00   0.04     0.05   0.00   0.04
    16   8    -0.00   0.00   0.00     0.02   0.00  -0.04     0.03   0.01  -0.02
    17   6     0.00   0.00   0.00    -0.09  -0.01  -0.25     0.03   0.00   0.05
    18   6     0.00  -0.00  -0.00    -0.06  -0.00   0.26     0.02  -0.00  -0.06
    19   6    -0.00  -0.00  -0.00     0.03   0.01   0.09    -0.02   0.00  -0.02
    20   6    -0.00  -0.00  -0.00     0.01  -0.02   0.08    -0.01   0.01  -0.01
    21   6    -0.00   0.00   0.00     0.02   0.00  -0.09    -0.01  -0.00   0.02
    22   6    -0.00   0.00   0.00    -0.00   0.02  -0.08    -0.00  -0.01   0.02
    23   1    -0.00  -0.00   0.00     0.05   0.20  -0.17     0.02  -0.05   0.02
    24   1     0.00  -0.00  -0.00    -0.08  -0.23   0.01     0.05   0.04   0.00
    25   1     0.00   0.00   0.00    -0.09  -0.05  -0.28     0.01   0.02   0.06
    26   1    -0.00  -0.00   0.00     0.14   0.04  -0.14    -0.03  -0.00   0.01
    27   1     0.00  -0.00  -0.00    -0.04   0.19  -0.07    -0.01  -0.07  -0.01
    28   1    -0.00  -0.00  -0.00     0.17   0.22   0.15    -0.02  -0.06  -0.03
    29   1     0.00  -0.00  -0.00    -0.11   0.20   0.00     0.04  -0.03  -0.00
    30   1     0.00   0.00  -0.00    -0.04   0.02   0.28     0.01  -0.02  -0.07
    31   1    -0.00   0.00  -0.00     0.09  -0.20   0.16    -0.02   0.04  -0.03
    32   1    -0.00   0.00   0.00     0.18  -0.19  -0.17    -0.04   0.04   0.04
    33   1    -0.00   0.00   0.00     0.16  -0.02   0.12    -0.05   0.01  -0.02
    34   1    -0.00   0.00   0.00     0.00  -0.19   0.08    -0.01   0.06  -0.00
    35   6     0.00  -0.00   0.08     0.00  -0.00   0.00     0.02  -0.01  -0.00
    36   1    -0.21  -0.10  -0.05    -0.02  -0.00  -0.01    -0.09  -0.02  -0.06
    37   1    -0.01   0.01  -0.11    -0.01  -0.01  -0.00    -0.10  -0.06   0.00
    38   1     0.20   0.10  -0.06    -0.01  -0.00   0.01    -0.08  -0.03   0.07
                     64                     65                     66
                      A                      A                      A
 Frequencies --   1328.3990              1374.8984              1377.6043
 Red. masses --      7.2840                 1.2874                 1.4243
 Frc consts  --      7.5732                 1.4338                 1.5926
 IR Inten    --    327.3465                33.4748                22.9398
  Atom  AN      X      Y      Z        X      Y      Z        X      Y      Z
     1   6    -0.01  -0.01  -0.05     0.03  -0.01  -0.00     0.04  -0.05  -0.01
     2   6     0.01  -0.02   0.00     0.00   0.01   0.00     0.01   0.01  -0.00
     3   1     0.02   0.08   0.12     0.01  -0.09  -0.01     0.02  -0.02  -0.00
     4   6     0.00   0.01   0.02     0.03  -0.11  -0.01    -0.03   0.07   0.01
     5   1    -0.00   0.00  -0.08     0.00   0.40   0.03    -0.02  -0.13  -0.01
     6   1    -0.06  -0.01  -0.02    -0.12   0.47   0.34     0.06  -0.21  -0.16
     7   1     0.02   0.01   0.00    -0.17   0.50  -0.27     0.09  -0.23   0.12
     8   6     0.01   0.03  -0.00     0.01   0.03   0.00     0.01   0.08   0.00
     9   8    -0.00  -0.00  -0.00    -0.00  -0.00  -0.00     0.00  -0.01  -0.00
    10   8    -0.01  -0.01   0.00     0.00  -0.02  -0.00     0.01  -0.04  -0.00
    11   6     0.01   0.01   0.00    -0.01  -0.02  -0.00    -0.04  -0.07  -0.00
    12   1    -0.01  -0.07  -0.00     0.05   0.13  -0.02     0.14   0.35  -0.06
    13   1    -0.01  -0.07  -0.01     0.05   0.13   0.03     0.14   0.34   0.08
    14   5     0.02  -0.01   0.62    -0.08  -0.00   0.01    -0.06   0.00   0.01
    15   8    -0.12  -0.01  -0.21     0.02   0.00   0.01     0.01  -0.00   0.01
    16   8     0.10   0.02  -0.23     0.02   0.00  -0.02     0.01   0.00  -0.01
    17   6    -0.10   0.00   0.08     0.01  -0.00   0.01     0.01  -0.00   0.01
    18   6     0.11   0.00   0.06     0.01   0.00  -0.01     0.00   0.00  -0.01
    19   6     0.06  -0.01  -0.04    -0.00   0.00  -0.00    -0.00  -0.00  -0.00
    20   6     0.07   0.00  -0.04     0.00   0.01   0.00     0.00   0.00   0.00
    21   6    -0.06  -0.03  -0.03    -0.00  -0.00   0.00    -0.00  -0.01   0.00
    22   6    -0.07  -0.00  -0.03     0.00  -0.01  -0.00     0.00  -0.01  -0.00
    23   1    -0.17   0.07   0.11     0.01  -0.01   0.00    -0.01   0.01  -0.00
    24   1    -0.12   0.09  -0.02     0.02  -0.01  -0.00     0.01   0.01   0.00
    25   1     0.07  -0.07   0.09     0.00  -0.01   0.02     0.01   0.02   0.01
    26   1    -0.16  -0.08   0.12    -0.03  -0.01  -0.01    -0.01  -0.00  -0.00
    27   1     0.09   0.06   0.07    -0.01  -0.04  -0.02    -0.00  -0.02  -0.01
    28   1    -0.21   0.01  -0.03    -0.01  -0.03  -0.01    -0.01  -0.02  -0.01
    29   1     0.11   0.13  -0.04     0.02   0.01   0.00     0.02   0.02   0.00
    30   1    -0.05  -0.06   0.09    -0.00   0.01  -0.02    -0.01   0.02  -0.02
    31   1     0.19   0.12   0.08     0.00   0.02  -0.01     0.01   0.02  -0.01
    32   1     0.19   0.04  -0.05    -0.01   0.02   0.01    -0.01   0.02   0.01
    33   1     0.16  -0.04   0.11    -0.02   0.00   0.01    -0.02   0.00   0.01
    34   1    -0.09   0.04   0.10    -0.01   0.03   0.02    -0.01   0.03   0.02
    35   6     0.00  -0.00  -0.00    -0.03  -0.01   0.00    -0.09  -0.04   0.00
    36   1    -0.02  -0.00  -0.01     0.08   0.09   0.05     0.22   0.26   0.16
    37   1    -0.02  -0.01   0.00     0.15   0.06  -0.00     0.44   0.16  -0.01
    38   1    -0.01  -0.00   0.01     0.07   0.09  -0.05     0.21   0.27  -0.15
                     67                     68                     69
                      A                      A                      A
 Frequencies --   1384.4421              1385.6053              1393.1819
 Red. masses --      1.3992                 1.3056                 1.2718
 Frc consts  --      1.5801                 1.4768                 1.4544
 IR Inten    --      2.6345                24.5416                23.6374
  Atom  AN      X      Y      Z        X      Y      Z        X      Y      Z
     1   6    -0.01  -0.00  -0.00    -0.00   0.00   0.00    -0.00   0.00  -0.00
     2   6     0.00  -0.00  -0.00     0.00  -0.00  -0.00    -0.00  -0.00   0.00
     3   1     0.00   0.02   0.00     0.00   0.01  -0.00     0.00   0.00   0.00
     4   6     0.00  -0.01  -0.00     0.00  -0.00  -0.00     0.00   0.00   0.00
     5   1     0.00   0.02   0.00     0.00   0.01   0.00    -0.00  -0.00  -0.01
     6   1    -0.02   0.02   0.01    -0.01   0.02   0.01    -0.01  -0.00  -0.00
     7   1    -0.02   0.02  -0.01    -0.01   0.02  -0.01     0.00  -0.00   0.00
     8   6     0.00   0.01   0.00    -0.00   0.00   0.00     0.00   0.00  -0.00
     9   8    -0.00  -0.00  -0.00     0.00  -0.00  -0.00    -0.00   0.00  -0.00
    10   8    -0.00  -0.00  -0.00    -0.00  -0.00  -0.00     0.00   0.00   0.00
    11   6    -0.00  -0.00  -0.00     0.00   0.00   0.00     0.00  -0.00  -0.00
    12   1     0.01   0.02  -0.01    -0.00  -0.00   0.00     0.00   0.00  -0.00
    13   1     0.01   0.02   0.01    -0.00  -0.00  -0.00     0.00  -0.00   0.00
    14   5    -0.00  -0.00   0.00    -0.00  -0.00  -0.01     0.00   0.00   0.02
    15   8    -0.00  -0.00  -0.00     0.00  -0.00   0.00    -0.00  -0.00  -0.01
    16   8    -0.00   0.00  -0.00    -0.00   0.00   0.00     0.00  -0.00  -0.01
    17   6     0.00   0.04   0.02     0.01   0.04   0.01     0.01   0.00   0.02
    18   6     0.02  -0.06  -0.03    -0.01   0.00   0.00    -0.01   0.00   0.02
    19   6     0.01  -0.05  -0.00     0.03  -0.10   0.01    -0.02   0.06  -0.02
    20   6    -0.02  -0.04  -0.02    -0.05  -0.06  -0.05    -0.05  -0.04  -0.04
    21   6     0.00   0.12  -0.01    -0.00  -0.04   0.01     0.01   0.06  -0.02
    22   6    -0.06   0.06   0.06     0.02  -0.02  -0.02     0.06  -0.04  -0.06
    23   1    -0.09   0.10  -0.06    -0.24   0.27  -0.13     0.11  -0.16   0.09
    24   1    -0.02   0.15   0.04    -0.14   0.34   0.09     0.16  -0.21  -0.06
    25   1     0.03   0.14  -0.01     0.06   0.41  -0.10    -0.01  -0.23   0.16
    26   1     0.10   0.01   0.08     0.29   0.07   0.14     0.18   0.05   0.13
    27   1     0.02   0.12   0.09     0.06   0.28   0.26     0.07   0.14   0.26
    28   1     0.05   0.13   0.04     0.19   0.22   0.05     0.22   0.17   0.03
    29   1    -0.06  -0.40  -0.10     0.05   0.14   0.03    -0.13  -0.26  -0.05
    30   1     0.14  -0.39   0.07    -0.06   0.18  -0.05     0.08  -0.24   0.16
    31   1    -0.15  -0.30   0.18     0.07   0.13  -0.06    -0.07  -0.19   0.11
    32   1     0.19  -0.22  -0.08    -0.11   0.05   0.03    -0.28   0.16   0.07
    33   1     0.26  -0.02  -0.19    -0.13   0.02   0.06    -0.22   0.03   0.18
    34   1     0.07  -0.27  -0.24    -0.03   0.11   0.13    -0.07   0.18   0.32
    35   6    -0.01  -0.01   0.00     0.00   0.00  -0.00    -0.00  -0.00  -0.00
    36   1     0.02   0.03   0.01    -0.00  -0.00  -0.00     0.00   0.01   0.00
    37   1     0.05   0.02  -0.00    -0.00  -0.00   0.00     0.01   0.00  -0.00
    38   1     0.02   0.03  -0.01    -0.00  -0.00   0.00     0.00   0.01  -0.00
                     70                     71                     72
                      A                      A                      A
 Frequencies --   1400.1635              1401.8780              1416.4447
 Red. masses --      1.5664                 1.4844                 1.8865
 Frc consts  --      1.8092                 1.7188                 2.2300
 IR Inten    --    184.0841                44.1139                94.6816
  Atom  AN      X      Y      Z        X      Y      Z        X      Y      Z
     1   6    -0.09   0.04   0.01    -0.07   0.03   0.01    -0.12   0.00   0.01
     2   6     0.02  -0.05  -0.00     0.01  -0.04  -0.00     0.05  -0.07  -0.01
     3   1     0.02   0.25   0.01     0.01   0.19   0.01     0.06   0.36   0.01
     4   6     0.04  -0.03  -0.00     0.03  -0.02  -0.00     0.06  -0.02  -0.01
     5   1     0.03   0.04   0.01     0.02   0.03   0.01     0.04   0.18   0.02
     6   1    -0.11   0.04  -0.01    -0.08   0.02  -0.01    -0.25  -0.01  -0.10
     7   1    -0.12   0.04   0.03    -0.09   0.02   0.02    -0.26  -0.02   0.13
     8   6     0.00   0.00  -0.00    -0.00  -0.01  -0.00     0.02   0.12   0.01
     9   8    -0.00   0.00   0.00    -0.00   0.00   0.00    -0.01  -0.01  -0.00
    10   8    -0.01   0.01   0.00    -0.01   0.01   0.00     0.01  -0.04  -0.00
    11   6     0.03   0.04   0.00     0.03   0.04   0.00    -0.07  -0.10  -0.00
    12   1    -0.02  -0.17   0.00    -0.02  -0.16   0.01     0.15   0.39  -0.09
    13   1    -0.02  -0.17  -0.02    -0.02  -0.15  -0.02     0.16   0.37   0.12
    14   5     0.12   0.00  -0.01     0.10  -0.00  -0.01     0.12  -0.00  -0.01
    15   8    -0.02  -0.00  -0.02    -0.02   0.00  -0.01    -0.02  -0.00  -0.01
    16   8    -0.02  -0.00   0.02    -0.01  -0.00   0.02    -0.02  -0.00   0.02
    17   6    -0.01  -0.00  -0.00    -0.02  -0.00  -0.02    -0.01  -0.00  -0.01
    18   6    -0.01   0.00   0.00    -0.01   0.00   0.02    -0.01   0.00   0.01
    19   6    -0.02   0.05  -0.01     0.03  -0.05   0.02     0.01   0.00   0.00
    20   6    -0.03  -0.03  -0.03     0.05   0.04   0.04     0.01   0.00   0.00
    21   6    -0.00  -0.05   0.01     0.01   0.05  -0.01     0.01  -0.00  -0.00
    22   6    -0.03   0.02   0.03     0.04  -0.03  -0.04     0.01   0.00  -0.00
    23   1     0.13  -0.14   0.05    -0.12   0.15  -0.05     0.01  -0.01   0.01
    24   1     0.10  -0.17  -0.05    -0.18   0.17   0.04    -0.04  -0.00  -0.00
    25   1    -0.03  -0.23   0.07     0.01   0.23  -0.15    -0.01  -0.01  -0.04
    26   1     0.19   0.05   0.08    -0.22  -0.06  -0.11    -0.00  -0.00  -0.01
    27   1     0.05   0.17   0.19    -0.06  -0.18  -0.24    -0.00   0.01  -0.02
    28   1     0.15   0.13   0.03    -0.20  -0.15  -0.03    -0.02   0.00   0.00
    29   1     0.06   0.18   0.04    -0.12  -0.16  -0.02    -0.04   0.00   0.01
    30   1    -0.07   0.20  -0.05     0.06  -0.19   0.11    -0.00   0.01   0.03
    31   1     0.08   0.14  -0.07    -0.08  -0.14   0.06    -0.00   0.01  -0.01
    32   1     0.14  -0.10  -0.04    -0.18   0.10   0.05    -0.02  -0.01  -0.00
    33   1     0.17  -0.02  -0.09    -0.19   0.03   0.12     0.00   0.00   0.00
    34   1     0.05  -0.15  -0.16    -0.05   0.16   0.21     0.00  -0.01   0.02
    35   6    -0.05  -0.07  -0.00    -0.04  -0.06  -0.00     0.04   0.08   0.00
    36   1     0.08   0.26   0.05     0.05   0.21   0.03     0.02  -0.27   0.02
    37   1     0.33   0.08  -0.01     0.26   0.06  -0.01    -0.29  -0.05   0.01
    38   1     0.07   0.26  -0.03     0.05   0.21  -0.02     0.01  -0.27  -0.05
                     73                     74                     75
                      A                      A                      A
 Frequencies --   1434.8007              1438.5259              1445.7006
 Red. masses --      1.0427                 1.0554                 1.0505
 Frc consts  --      1.2647                 1.2868                 1.2936
 IR Inten    --     15.7595                 0.8492                 3.5579
  Atom  AN      X      Y      Z        X      Y      Z        X      Y      Z
     1   6     0.00   0.00  -0.02     0.00  -0.00  -0.00     0.00  -0.00  -0.00
     2   6    -0.00   0.00   0.00    -0.00   0.00   0.00    -0.00   0.00   0.00
     3   1    -0.00  -0.01  -0.00    -0.00  -0.00  -0.00    -0.00  -0.01   0.00
     4   6    -0.00   0.00  -0.05    -0.00   0.00  -0.00    -0.00   0.00  -0.00
     5   1     0.04  -0.04   0.70    -0.00  -0.01   0.01     0.00   0.00   0.01
     6   1     0.47  -0.16   0.01     0.01  -0.00   0.00     0.01  -0.00  -0.00
     7   1    -0.47   0.13   0.09     0.00   0.00  -0.00    -0.01   0.00   0.00
     8   6    -0.00  -0.00   0.00     0.00  -0.00  -0.00     0.00  -0.00  -0.00
     9   8     0.00   0.00  -0.00    -0.00   0.00   0.00    -0.00   0.00  -0.00
    10   8    -0.00   0.00   0.00     0.00   0.00  -0.00     0.00   0.00   0.00
    11   6     0.00   0.00  -0.00    -0.00  -0.00  -0.00     0.00   0.00   0.00
    12   1    -0.00  -0.00   0.00     0.00   0.00  -0.00    -0.00  -0.00   0.00
    13   1    -0.00  -0.00  -0.00     0.00   0.00   0.00    -0.00  -0.00  -0.00
    14   5    -0.00  -0.00   0.01    -0.00   0.00   0.00    -0.00   0.00   0.00
    15   8    -0.00  -0.00  -0.00    -0.00  -0.00  -0.00    -0.00  -0.00  -0.00
    16   8     0.00  -0.00  -0.00    -0.00   0.00  -0.00     0.00  -0.00  -0.00
    17   6    -0.00   0.00   0.00     0.01   0.03   0.01    -0.01   0.02  -0.01
    18   6     0.00   0.00   0.00     0.01  -0.03  -0.00     0.01   0.00  -0.01
    19   6    -0.00  -0.00  -0.00     0.00   0.00   0.02     0.01  -0.01   0.01
    20   6     0.00  -0.00  -0.00    -0.01   0.01  -0.03    -0.01   0.03  -0.01
    21   6    -0.00   0.00  -0.00    -0.00  -0.00  -0.02     0.02  -0.01   0.01
    22   6    -0.00  -0.00  -0.00     0.00  -0.01   0.03    -0.01   0.02  -0.02
    23   1    -0.01   0.00   0.00     0.23  -0.11  -0.11     0.02  -0.00  -0.02
    24   1     0.01  -0.00  -0.00    -0.16   0.13   0.03    -0.07   0.03   0.01
    25   1     0.00   0.00   0.01    -0.11  -0.11  -0.31    -0.02   0.02  -0.09
    26   1     0.00   0.00   0.01    -0.24  -0.08   0.14    -0.27  -0.08  -0.08
    27   1    -0.00   0.00  -0.01     0.07  -0.30   0.19     0.12  -0.32   0.33
    28   1    -0.01   0.01   0.00     0.21   0.14   0.02     0.39  -0.05  -0.04
    29   1     0.01  -0.01  -0.00    -0.12  -0.14  -0.01    -0.22   0.18   0.12
    30   1    -0.00   0.00   0.00    -0.07   0.09   0.28     0.07  -0.16  -0.02
    31   1     0.01  -0.00   0.01     0.21   0.12   0.08    -0.22   0.07  -0.27
    32   1    -0.00   0.00   0.00     0.23  -0.11  -0.05    -0.16   0.12   0.05
    33   1     0.00  -0.00   0.00    -0.28   0.04  -0.11     0.30  -0.04   0.13
    34   1    -0.00  -0.00   0.00     0.00   0.31  -0.19     0.00  -0.32   0.14
    35   6    -0.00  -0.00   0.00    -0.00   0.00   0.00    -0.00  -0.00   0.00
    36   1    -0.00   0.00  -0.00     0.00  -0.00   0.00    -0.00   0.00  -0.00
    37   1     0.00   0.00  -0.00     0.00   0.00  -0.00     0.00   0.00  -0.00
    38   1    -0.00   0.00   0.00     0.00  -0.00  -0.00    -0.00   0.00   0.00
                     76                     77                     78
                      A                      A                      A
 Frequencies --   1446.1590              1446.7874              1447.2520
 Red. masses --      1.0366                 1.0521                 1.1358
 Frc consts  --      1.2773                 1.2976                 1.4017
 IR Inten    --      8.6993                 5.6364               112.9113
  Atom  AN      X      Y      Z        X      Y      Z        X      Y      Z
     1   6    -0.00   0.00  -0.00    -0.01   0.00   0.00     0.04  -0.01  -0.00
     2   6    -0.00  -0.00  -0.00     0.00  -0.01  -0.00    -0.00   0.06   0.00
     3   1    -0.00   0.00   0.00     0.00   0.03   0.00    -0.00  -0.20  -0.01
     4   6    -0.00   0.00  -0.00    -0.01   0.00   0.00     0.05  -0.02  -0.00
     5   1     0.00  -0.00   0.00    -0.00  -0.09   0.00     0.01   0.54   0.02
     6   1     0.00   0.00   0.00     0.07   0.04   0.05    -0.42  -0.22  -0.29
     7   1     0.00   0.00  -0.00     0.06   0.04  -0.05    -0.37  -0.26   0.31
     8   6     0.00   0.00   0.00    -0.00   0.01   0.00    -0.00  -0.04  -0.00
     9   8     0.00  -0.00   0.00     0.00  -0.00  -0.00     0.00   0.00   0.00
    10   8     0.00  -0.00   0.00    -0.00  -0.00  -0.00     0.00   0.01   0.00
    11   6    -0.00   0.00  -0.03    -0.00  -0.00   0.00     0.02   0.01  -0.00
    12   1    -0.05  -0.01   0.00     0.01   0.01  -0.00    -0.06  -0.04   0.05
    13   1     0.05   0.01   0.00     0.01   0.01   0.00    -0.06  -0.04  -0.04
    14   5     0.00  -0.00  -0.00     0.00  -0.00  -0.00    -0.04  -0.00   0.00
    15   8    -0.00  -0.00  -0.00    -0.00  -0.00   0.00     0.01   0.00   0.00
    16   8    -0.00   0.00   0.00    -0.00   0.00   0.00     0.01   0.00  -0.01
    17   6     0.00   0.00  -0.00     0.00   0.01   0.00     0.00   0.00   0.00
    18   6     0.00  -0.00   0.00     0.00  -0.03   0.00     0.00  -0.01   0.00
    19   6     0.00   0.00  -0.00     0.02   0.01  -0.02     0.00   0.00  -0.00
    20   6    -0.00  -0.00   0.00    -0.02  -0.00   0.02    -0.00  -0.00   0.00
    21   6     0.00   0.00  -0.00     0.02   0.01  -0.01     0.00   0.00   0.00
    22   6    -0.00  -0.00   0.00    -0.02  -0.03   0.01    -0.00  -0.01   0.00
    23   1    -0.00  -0.00   0.00    -0.18  -0.07   0.29    -0.03  -0.01   0.04
    24   1    -0.00  -0.00  -0.00    -0.17  -0.21  -0.08    -0.02  -0.03  -0.01
    25   1     0.00   0.00  -0.00     0.05   0.17   0.04     0.01   0.03   0.01
    26   1     0.00   0.00  -0.00     0.13   0.05  -0.24     0.02   0.01  -0.04
    27   1     0.00   0.00   0.00     0.00   0.16   0.05     0.00   0.02   0.02
    28   1     0.00  -0.00  -0.00     0.08  -0.19  -0.06     0.03  -0.04  -0.01
    29   1    -0.00   0.00   0.00    -0.25   0.07   0.09    -0.02   0.01   0.01
    30   1     0.00  -0.00   0.00     0.04  -0.13   0.13     0.01  -0.02  -0.00
    31   1    -0.00   0.00  -0.00    -0.11   0.07  -0.17    -0.02   0.00  -0.02
    32   1     0.00   0.00   0.00     0.38   0.23   0.03     0.08   0.04   0.00
    33   1    -0.00   0.00   0.00    -0.14   0.02   0.24    -0.04   0.01   0.04
    34   1     0.00   0.00  -0.00     0.04   0.20  -0.34     0.01   0.06  -0.07
    35   6    -0.00   0.00  -0.04     0.00   0.00   0.00    -0.00  -0.01  -0.00
    36   1    -0.01  -0.50   0.01     0.00  -0.00   0.00    -0.02   0.02  -0.02
    37   1     0.04  -0.04   0.70    -0.01  -0.00  -0.01     0.02   0.00   0.00
    38   1     0.01   0.50   0.07     0.00  -0.01  -0.00    -0.02   0.03   0.02
                     79                     80                     81
                      A                      A                      A
 Frequencies --   1453.5645              1458.5411              1463.9148
 Red. masses --      1.0573                 1.0595                 1.0463
 Frc consts  --      1.3162                 1.3279                 1.3212
 IR Inten    --      5.4708                 1.3446                 2.5303
  Atom  AN      X      Y      Z        X      Y      Z        X      Y      Z
     1   6    -0.00   0.00   0.00    -0.00  -0.00   0.00    -0.00   0.00   0.00
     2   6     0.00  -0.00  -0.00     0.00  -0.00  -0.00     0.00  -0.00  -0.00
     3   1     0.00   0.00  -0.00     0.00   0.01   0.00     0.00   0.00  -0.00
     4   6     0.00  -0.00   0.00    -0.00   0.00   0.00     0.00  -0.00   0.00
     5   1     0.00   0.01  -0.01     0.00  -0.01  -0.00     0.00   0.00  -0.00
     6   1    -0.02   0.00  -0.00     0.01   0.00   0.00    -0.00   0.00  -0.00
     7   1    -0.00  -0.01   0.00     0.00   0.00  -0.00    -0.00   0.00   0.00
     8   6    -0.00   0.00   0.00     0.00   0.00   0.00    -0.00   0.00   0.00
     9   8     0.00  -0.00   0.00    -0.00  -0.00  -0.00     0.00  -0.00  -0.00
    10   8    -0.00  -0.00  -0.00     0.00  -0.01  -0.00    -0.00  -0.00   0.00
    11   6     0.00   0.00  -0.00     0.04   0.03  -0.00     0.00  -0.00  -0.00
    12   1    -0.01  -0.00   0.01    -0.28  -0.01   0.24    -0.00   0.00   0.00
    13   1    -0.01   0.00  -0.01    -0.30   0.02  -0.20    -0.00   0.00  -0.00
    14   5     0.00  -0.00  -0.02     0.00   0.00  -0.00     0.00  -0.00  -0.01
    15   8     0.00   0.00   0.01    -0.00  -0.00  -0.00     0.00  -0.00   0.00
    16   8    -0.00   0.00   0.01    -0.00  -0.00   0.00    -0.00  -0.00   0.00
    17   6    -0.01  -0.01  -0.03     0.00   0.00   0.00    -0.00   0.01  -0.01
    18   6     0.00  -0.00  -0.02    -0.00   0.00   0.00    -0.01   0.01  -0.01
    19   6    -0.02  -0.02  -0.02     0.00   0.00   0.00     0.02  -0.00  -0.02
    20   6     0.02   0.00  -0.00    -0.00   0.00  -0.00    -0.01   0.02   0.01
    21   6     0.01  -0.02  -0.03    -0.00   0.00   0.00    -0.02  -0.00  -0.01
    22   6    -0.01   0.00   0.00     0.00   0.00   0.00     0.01   0.02   0.01
    23   1    -0.22   0.22  -0.06     0.00  -0.00   0.00    -0.25  -0.04   0.32
    24   1     0.36  -0.04   0.02    -0.01  -0.00  -0.00    -0.15  -0.25  -0.09
    25   1     0.12   0.06   0.41    -0.00   0.00  -0.00     0.08   0.22   0.11
    26   1    -0.11  -0.04   0.20    -0.00  -0.00  -0.00    -0.10  -0.02  -0.25
    27   1    -0.02  -0.14  -0.08     0.00  -0.00   0.00     0.06  -0.09   0.19
    28   1    -0.07   0.18   0.07     0.00  -0.00  -0.00     0.26  -0.20  -0.07
    29   1    -0.29  -0.12   0.04     0.01  -0.00  -0.00     0.19  -0.21  -0.12
    30   1    -0.09   0.08   0.42    -0.00   0.00  -0.00    -0.10   0.21   0.09
    31   1     0.22   0.23  -0.02     0.00  -0.00   0.00     0.29  -0.01   0.28
    32   1     0.02   0.12   0.04    -0.00  -0.00  -0.00    -0.16  -0.17  -0.03
    33   1     0.10  -0.01   0.11    -0.00   0.00  -0.01     0.04  -0.00  -0.19
    34   1     0.02  -0.10  -0.06    -0.00  -0.00   0.00    -0.01  -0.07   0.13
    35   6    -0.00  -0.00  -0.00    -0.05   0.01   0.00     0.00  -0.00  -0.00
    36   1     0.00  -0.00   0.00     0.45  -0.16   0.32    -0.01   0.00  -0.01
    37   1    -0.00  -0.00   0.00    -0.25  -0.08   0.01     0.00   0.00  -0.00
    38   1     0.00  -0.00  -0.00     0.42  -0.12  -0.38    -0.01   0.00   0.01
                     82                     83                     84
                      A                      A                      A
 Frequencies --   1469.4558              1471.3552              1486.3913
 Red. masses --      1.0651                 1.0810                 1.0829
 Frc consts  --      1.3551                 1.3788                 1.4096
 IR Inten    --      3.9292                 8.2689                14.1864
  Atom  AN      X      Y      Z        X      Y      Z        X      Y      Z
     1   6    -0.01   0.00   0.00    -0.01   0.01   0.00     0.01   0.01  -0.00
     2   6     0.00  -0.00  -0.00     0.00  -0.01  -0.00    -0.01   0.01   0.00
     3   1     0.00   0.02  -0.00     0.00   0.02   0.00    -0.01  -0.03  -0.00
     4   6     0.00  -0.00   0.00     0.00  -0.00  -0.00     0.00  -0.00  -0.00
     5   1     0.00  -0.01  -0.00     0.00  -0.02   0.00    -0.00   0.02   0.00
     6   1    -0.00   0.00   0.00     0.01   0.01   0.01    -0.01  -0.01  -0.01
     7   1     0.01   0.00  -0.00     0.00   0.01  -0.01    -0.01  -0.01   0.01
     8   6    -0.00   0.00   0.00    -0.00   0.00   0.00     0.00  -0.03  -0.00
     9   8     0.00  -0.00  -0.00     0.00  -0.00   0.00    -0.00   0.00   0.00
    10   8    -0.00  -0.00  -0.00    -0.00  -0.00   0.00    -0.01   0.02   0.00
    11   6    -0.00  -0.00   0.00    -0.00  -0.00   0.00    -0.04   0.03   0.00
    12   1     0.00   0.00  -0.00     0.01  -0.00  -0.00     0.28  -0.17  -0.28
    13   1     0.00   0.00   0.00     0.01  -0.00   0.00     0.31  -0.20   0.23
    14   5     0.01   0.00  -0.01     0.02   0.00   0.01    -0.00  -0.00   0.00
    15   8     0.00  -0.00   0.00    -0.00  -0.00  -0.00     0.00   0.00  -0.00
    16   8    -0.00   0.00   0.00     0.00   0.00  -0.00     0.00  -0.00   0.00
    17   6     0.01   0.01  -0.02    -0.04   0.01  -0.03    -0.01  -0.00   0.02
    18   6    -0.04  -0.01   0.02     0.00  -0.01   0.04    -0.01   0.00  -0.02
    19   6     0.01   0.00  -0.00    -0.02  -0.02  -0.01    -0.01  -0.01   0.01
    20   6     0.01   0.00  -0.02    -0.00   0.02   0.01    -0.01   0.01   0.01
    21   6    -0.02   0.01   0.01    -0.00   0.01   0.01    -0.01   0.00  -0.01
    22   6    -0.01  -0.02  -0.02     0.01  -0.01   0.01    -0.01  -0.01  -0.01
    23   1    -0.08  -0.01   0.10    -0.08   0.25  -0.23     0.13   0.04  -0.20
    24   1    -0.04  -0.10  -0.03     0.42   0.09   0.07     0.08   0.18   0.06
    25   1     0.02   0.08   0.03     0.08  -0.08   0.34    -0.04  -0.12  -0.06
    26   1    -0.19  -0.07   0.28    -0.12  -0.03  -0.22     0.08   0.03  -0.24
    27   1     0.02  -0.25   0.02     0.07  -0.10   0.20     0.01   0.12   0.06
    28   1     0.03   0.26   0.08     0.25  -0.16  -0.05     0.06  -0.22  -0.07
    29   1     0.38  -0.03  -0.12     0.15   0.11  -0.01     0.06  -0.15  -0.06
    30   1     0.01   0.10  -0.31     0.05  -0.06  -0.24    -0.05   0.10   0.09
    31   1     0.00  -0.21   0.20    -0.14  -0.13  -0.01     0.16   0.00   0.15
    32   1     0.19   0.35   0.08     0.15  -0.14  -0.06     0.03   0.22   0.06
    33   1     0.05  -0.01   0.38    -0.25   0.04  -0.12     0.11  -0.02   0.23
    34   1     0.04  -0.04  -0.19    -0.01   0.27  -0.10     0.02  -0.11  -0.06
    35   6     0.00   0.00  -0.00    -0.00   0.00   0.00    -0.01   0.00   0.00
    36   1     0.00  -0.00   0.00     0.00  -0.00   0.00     0.18  -0.06   0.13
    37   1    -0.00  -0.00  -0.00    -0.00  -0.00   0.00    -0.11  -0.04   0.00
    38   1     0.00  -0.00  -0.00     0.00  -0.00  -0.00     0.17  -0.04  -0.15
                     85                     86                     87
                      A                      A                      A
 Frequencies --   1486.8271              1685.9797              1734.2876
 Red. masses --      1.0819                 8.9930                10.5149
 Frc consts  --      1.4091                15.0612                18.6336
 IR Inten    --      3.0897               220.3049               309.9631
  Atom  AN      X      Y      Z        X      Y      Z        X      Y      Z
     1   6     0.01   0.00  -0.00    -0.32  -0.45  -0.00     0.15   0.20   0.00
     2   6    -0.01   0.01   0.00     0.20   0.50   0.01    -0.17  -0.15   0.00
     3   1    -0.01  -0.03  -0.00     0.25  -0.25  -0.03    -0.20   0.29   0.03
     4   6     0.00  -0.00  -0.00    -0.01   0.05   0.00    -0.01  -0.03  -0.00
     5   1    -0.00   0.02   0.00    -0.01  -0.25  -0.01    -0.01   0.10   0.01
     6   1    -0.01  -0.01  -0.01     0.07   0.17   0.12     0.01  -0.09  -0.04
     7   1    -0.01  -0.01   0.01     0.06   0.18  -0.11     0.02  -0.09   0.03
     8   6     0.00  -0.03  -0.00     0.24  -0.13  -0.02     0.69  -0.10  -0.04
     9   8    -0.00   0.00   0.00    -0.15   0.04   0.01    -0.42   0.06   0.03
    10   8    -0.01   0.02   0.00    -0.02  -0.02  -0.00    -0.05   0.00   0.00
    11   6    -0.04   0.03   0.00     0.01   0.01  -0.00     0.02  -0.03  -0.00
    12   1     0.28  -0.17  -0.27     0.01   0.02   0.00     0.01   0.13   0.06
    13   1     0.30  -0.20   0.22     0.01   0.02  -0.00     0.01   0.13  -0.04
    14   5    -0.01  -0.00  -0.00     0.12   0.02  -0.01    -0.04  -0.03   0.00
    15   8     0.00  -0.00   0.00    -0.01  -0.00  -0.01     0.00   0.01   0.00
    16   8    -0.00   0.00  -0.00    -0.01  -0.00   0.01     0.00   0.01  -0.00
    17   6     0.01   0.00  -0.02    -0.01  -0.00  -0.00     0.00  -0.00  -0.00
    18   6     0.01  -0.00   0.02    -0.01  -0.00   0.01    -0.00   0.00  -0.00
    19   6     0.01   0.01  -0.01     0.00  -0.00  -0.00     0.00  -0.00  -0.00
    20   6     0.01  -0.01  -0.01     0.00   0.00   0.00    -0.00   0.00   0.00
    21   6     0.01  -0.00   0.01     0.00   0.00  -0.00     0.00  -0.00  -0.00
    22   6     0.01   0.01   0.01     0.00  -0.00  -0.00     0.00  -0.00  -0.00
    23   1    -0.15  -0.04   0.21    -0.02   0.01   0.01    -0.04   0.02   0.02
    24   1    -0.08  -0.19  -0.06     0.00  -0.00  -0.00     0.00  -0.00  -0.00
    25   1     0.05   0.13   0.07     0.01   0.01   0.01     0.01   0.03   0.02
    26   1    -0.08  -0.03   0.25    -0.00   0.00   0.00     0.00   0.00   0.00
    27   1    -0.01  -0.12  -0.06    -0.00  -0.00  -0.00    -0.00  -0.00   0.00
    28   1    -0.06   0.22   0.07     0.00   0.00   0.00     0.00   0.00  -0.00
    29   1    -0.06   0.15   0.06     0.00   0.00  -0.00     0.00   0.00   0.00
    30   1     0.05  -0.10  -0.09     0.00   0.00  -0.00    -0.00   0.00  -0.00
    31   1    -0.16  -0.00  -0.15    -0.00  -0.01   0.00     0.00  -0.00   0.00
    32   1    -0.04  -0.22  -0.06     0.00  -0.00  -0.00     0.00   0.00   0.00
    33   1    -0.11   0.02  -0.23    -0.01   0.00   0.01    -0.00   0.00   0.00
    34   1    -0.02   0.11   0.06     0.00   0.00  -0.00    -0.00   0.00  -0.00
    35   6    -0.01   0.00   0.00    -0.00   0.00   0.00    -0.01   0.01   0.00
    36   1     0.18  -0.05   0.12    -0.01  -0.00  -0.00    -0.02  -0.01  -0.00
    37   1    -0.11  -0.04   0.00     0.01   0.01  -0.00     0.06   0.03  -0.00
    38   1     0.16  -0.04  -0.15    -0.01  -0.00   0.00    -0.02  -0.01   0.00
                     88                     89                     90
                      A                      A                      A
 Frequencies --   3017.7066              3041.6962              3041.9002
 Red. masses --      1.0365                 1.0357                 1.0357
 Frc consts  --      5.5613                 5.6457                 5.6465
 IR Inten    --     24.3404                27.1474                10.5273
  Atom  AN      X      Y      Z        X      Y      Z        X      Y      Z
     1   6    -0.00   0.00   0.00     0.00  -0.00  -0.00     0.00  -0.00  -0.00
     2   6    -0.00   0.00   0.00     0.00  -0.00  -0.00     0.00  -0.00  -0.00
     3   1     0.01  -0.00  -0.00    -0.00  -0.00   0.00    -0.00  -0.00   0.00
     4   6     0.01  -0.05  -0.00    -0.00   0.00   0.00    -0.00   0.00   0.00
     5   1    -0.47  -0.03   0.03     0.00   0.00  -0.00     0.00   0.00  -0.00
     6   1     0.16   0.35  -0.50    -0.00  -0.00   0.00    -0.00  -0.00   0.00
     7   1     0.22   0.28   0.50    -0.00  -0.00  -0.00    -0.00  -0.00  -0.00
     8   6    -0.00   0.00   0.00     0.00   0.00  -0.00    -0.00  -0.00   0.00
     9   8     0.00  -0.00  -0.00    -0.00  -0.00  -0.00    -0.00  -0.00  -0.00
    10   8    -0.00  -0.00  -0.00    -0.00   0.00   0.00     0.00   0.00   0.00
    11   6     0.00   0.00  -0.00    -0.01   0.00   0.00    -0.00   0.00  -0.00
    12   1    -0.00   0.00  -0.00     0.04  -0.01   0.06     0.00  -0.00   0.00
    13   1    -0.00  -0.00   0.00     0.04  -0.01  -0.06     0.00  -0.00  -0.00
    14   5    -0.00  -0.00   0.00     0.00   0.00  -0.00    -0.00   0.00   0.00
    15   8     0.00   0.00   0.00    -0.00  -0.00  -0.00    -0.00  -0.00  -0.00
    16   8     0.00   0.00  -0.00    -0.00  -0.00   0.00     0.00   0.00  -0.00
    17   6    -0.00   0.00   0.00     0.00  -0.00  -0.00     0.00   0.00   0.00
    18   6    -0.00  -0.00  -0.00     0.00   0.00   0.00     0.00  -0.00  -0.00
    19   6     0.00  -0.00   0.00    -0.00   0.00  -0.00     0.00  -0.01   0.00
    20   6     0.00   0.00   0.00     0.00   0.00   0.00    -0.01  -0.01  -0.01
    21   6     0.00   0.00   0.00    -0.00  -0.00   0.00     0.00   0.04  -0.01
    22   6     0.00  -0.00  -0.00     0.00  -0.00  -0.00    -0.02   0.01   0.02
    23   1     0.00   0.00   0.00    -0.00  -0.00  -0.00     0.05   0.05   0.04
    24   1     0.00   0.00  -0.00    -0.00  -0.00   0.00     0.01   0.02  -0.11
    25   1    -0.00   0.00   0.00     0.00  -0.00  -0.00    -0.11   0.01   0.03
    26   1     0.00  -0.00   0.00     0.00  -0.00   0.00    -0.05   0.14  -0.00
    27   1    -0.00   0.00   0.00    -0.00  -0.00   0.00     0.18   0.00  -0.07
    28   1    -0.00   0.00  -0.00    -0.00   0.00  -0.00     0.00  -0.06   0.16
    29   1     0.00  -0.00   0.00    -0.00   0.00  -0.01     0.13  -0.09   0.44
    30   1    -0.00  -0.00  -0.00     0.01   0.00   0.00    -0.43  -0.13  -0.06
    31   1     0.00  -0.00  -0.00    -0.01   0.01   0.01     0.28  -0.24  -0.30
    32   1     0.00  -0.00   0.00     0.00  -0.00   0.01    -0.05   0.10  -0.27
    33   1     0.00   0.00  -0.00     0.00   0.00  -0.00    -0.05  -0.21   0.01
    34   1    -0.00  -0.00  -0.00    -0.01  -0.00  -0.00     0.30   0.04   0.08
    35   6    -0.00  -0.00   0.00    -0.04  -0.03   0.00    -0.00  -0.00   0.00
    36   1     0.00  -0.00  -0.00     0.30  -0.05  -0.50     0.01  -0.00  -0.01
    37   1    -0.00   0.00   0.00    -0.20   0.51   0.04    -0.00   0.01   0.00
    38   1     0.00  -0.00   0.00     0.35  -0.10   0.46     0.01  -0.00   0.01
                     91                     92                     93
                      A                      A                      A
 Frequencies --   3045.2867              3046.4889              3051.3907
 Red. masses --      1.0372                 1.0371                 1.0377
 Frc consts  --      5.6674                 5.6710                 5.6929
 IR Inten    --     22.6007                27.1880                32.6240
  Atom  AN      X      Y      Z        X      Y      Z        X      Y      Z
     1   6     0.00   0.00  -0.00     0.00   0.00   0.00    -0.00   0.00  -0.00
     2   6     0.00  -0.00   0.00    -0.00  -0.00   0.00    -0.00  -0.00   0.00
     3   1    -0.00  -0.00   0.00     0.00  -0.00  -0.00     0.00  -0.00  -0.00
     4   6     0.00  -0.00  -0.00    -0.00  -0.00  -0.00    -0.00  -0.00  -0.00
     5   1    -0.00   0.00   0.00    -0.00   0.00   0.00    -0.00   0.00   0.00
     6   1     0.00   0.00  -0.00     0.00   0.00  -0.00     0.00   0.00  -0.00
     7   1     0.00   0.00   0.00     0.00   0.00   0.00     0.00   0.00   0.00
     8   6    -0.00  -0.00   0.00    -0.00   0.00   0.00     0.00   0.00  -0.00
     9   8    -0.00  -0.00  -0.00    -0.00  -0.00  -0.00    -0.00  -0.00   0.00
    10   8     0.00   0.00   0.00     0.00   0.00   0.00    -0.00  -0.00  -0.00
    11   6    -0.00   0.00  -0.00    -0.00   0.00  -0.00     0.00  -0.00  -0.00
    12   1     0.00  -0.00   0.00     0.00  -0.00   0.00    -0.01   0.00  -0.01
    13   1     0.00  -0.00  -0.00     0.00  -0.00  -0.00    -0.01   0.00   0.01
    14   5     0.00  -0.00   0.00     0.00   0.00  -0.00     0.00   0.00   0.00
    15   8     0.00  -0.00  -0.00    -0.00  -0.00   0.00    -0.00   0.00  -0.00
    16   8    -0.00   0.00  -0.00    -0.00  -0.00   0.00    -0.00  -0.00  -0.00
    17   6     0.00   0.00   0.00    -0.00   0.00  -0.00     0.00  -0.00  -0.00
    18   6    -0.00   0.00   0.00     0.00  -0.00  -0.00     0.00  -0.00   0.00
    19   6     0.01  -0.02   0.01     0.01  -0.02   0.01    -0.01   0.03  -0.01
    20   6    -0.03  -0.01  -0.02     0.01   0.01   0.01    -0.02  -0.01  -0.02
    21   6    -0.00  -0.01   0.00    -0.00  -0.02   0.00    -0.00  -0.02   0.00
    22   6     0.01  -0.00  -0.01    -0.03   0.01   0.02    -0.02   0.00   0.02
    23   1     0.15   0.15   0.14     0.12   0.13   0.11    -0.17  -0.17  -0.16
    24   1     0.04   0.08  -0.37     0.03   0.06  -0.29    -0.04  -0.10   0.42
    25   1    -0.33   0.04   0.10    -0.27   0.04   0.08     0.37  -0.05  -0.11
    26   1    -0.12   0.30  -0.01     0.05  -0.12   0.00    -0.09   0.23  -0.00
    27   1     0.44   0.00  -0.17    -0.16  -0.00   0.06     0.33   0.00  -0.13
    28   1     0.00  -0.16   0.43    -0.00   0.05  -0.14     0.00  -0.12   0.32
    29   1    -0.04   0.03  -0.14    -0.07   0.05  -0.24    -0.05   0.04  -0.17
    30   1     0.13   0.04   0.02     0.23   0.07   0.03     0.16   0.05   0.02
    31   1    -0.08   0.07   0.09    -0.16   0.14   0.17    -0.11   0.09   0.12
    32   1     0.03  -0.05   0.15    -0.07   0.15  -0.41    -0.04   0.09  -0.25
    33   1     0.02   0.10  -0.01    -0.07  -0.32   0.02    -0.04  -0.18   0.01
    34   1    -0.15  -0.02  -0.04     0.45   0.07   0.11     0.26   0.04   0.07
    35   6    -0.00  -0.00   0.00    -0.00  -0.00  -0.00    -0.00   0.00   0.00
    36   1     0.00  -0.00  -0.00     0.00  -0.00  -0.00    -0.00   0.00   0.00
    37   1    -0.00   0.00   0.00    -0.00   0.00   0.00     0.00  -0.00  -0.00
    38   1     0.00  -0.00   0.00     0.00  -0.00   0.00    -0.00   0.00  -0.00
                     94                     95                     96
                      A                      A                      A
 Frequencies --   3053.8555              3073.7809              3096.3731
 Red. masses --      1.0584                 1.0982                 1.1073
 Frc consts  --      5.8154                 6.1134                 6.2549
 IR Inten    --     25.7472                14.4259                11.1589
  Atom  AN      X      Y      Z        X      Y      Z        X      Y      Z
     1   6     0.00   0.00  -0.00    -0.00   0.00  -0.00     0.00   0.00   0.00
     2   6    -0.00  -0.00  -0.00    -0.00   0.00  -0.00    -0.00   0.00  -0.00
     3   1     0.00   0.00   0.00     0.00  -0.00  -0.00     0.00  -0.00   0.00
     4   6     0.00   0.00   0.00    -0.01   0.01  -0.09    -0.00   0.00  -0.00
     5   1     0.00   0.00  -0.00    -0.01   0.00  -0.02     0.00   0.00  -0.00
     6   1    -0.00  -0.00   0.00    -0.19  -0.41   0.54    -0.00  -0.00   0.00
     7   1    -0.00  -0.00  -0.00     0.25   0.34   0.56     0.00   0.00   0.00
     8   6     0.00   0.00  -0.00     0.00  -0.00  -0.00     0.00  -0.00   0.00
     9   8    -0.00   0.00   0.00    -0.00   0.00  -0.00    -0.00  -0.00   0.00
    10   8    -0.00  -0.00  -0.00     0.00   0.00   0.00     0.00  -0.00   0.00
    11   6     0.07  -0.01  -0.00     0.00  -0.00   0.00    -0.00   0.00  -0.09
    12   1    -0.42   0.09  -0.56    -0.00   0.00  -0.00     0.40  -0.08   0.49
    13   1    -0.36   0.03   0.59     0.00  -0.00  -0.00    -0.35   0.03   0.54
    14   5     0.00   0.00  -0.00     0.00  -0.00   0.00    -0.00  -0.00  -0.00
    15   8    -0.00  -0.00  -0.00    -0.00   0.00   0.00    -0.00  -0.00   0.00
    16   8    -0.00  -0.00   0.00    -0.00  -0.00   0.00     0.00   0.00   0.00
    17   6     0.00   0.00   0.00     0.00   0.00  -0.00     0.00  -0.00  -0.00
    18   6     0.00   0.00  -0.00    -0.00  -0.00  -0.00    -0.00   0.00  -0.00
    19   6     0.00  -0.00   0.00    -0.00  -0.00   0.00    -0.00   0.00   0.00
    20   6     0.00   0.00   0.00    -0.00  -0.00   0.00    -0.00  -0.00   0.00
    21   6    -0.00   0.00  -0.00     0.00   0.00  -0.00     0.00  -0.00   0.00
    22   6     0.00  -0.00  -0.00     0.00  -0.00   0.00     0.00   0.00   0.00
    23   1     0.00   0.00   0.00     0.00   0.00   0.00     0.00   0.00   0.00
    24   1     0.00   0.00  -0.01     0.00   0.00  -0.00    -0.00  -0.00   0.00
    25   1    -0.01   0.00   0.00     0.00   0.00  -0.00     0.00  -0.00  -0.00
    26   1     0.00  -0.01   0.00     0.00  -0.00  -0.00    -0.00   0.00   0.00
    27   1    -0.01  -0.00   0.00     0.00   0.00  -0.00     0.00  -0.00  -0.00
    28   1    -0.00   0.00  -0.01     0.00   0.00  -0.00    -0.00   0.00  -0.00
    29   1     0.00  -0.00   0.00     0.00  -0.00   0.00    -0.00   0.00  -0.00
    30   1    -0.00  -0.00  -0.00    -0.00  -0.00  -0.00    -0.00   0.00   0.00
    31   1     0.00  -0.00  -0.00    -0.00  -0.00  -0.00     0.00  -0.00  -0.00
    32   1     0.00  -0.00   0.01    -0.00   0.00  -0.00    -0.00   0.00  -0.00
    33   1     0.00   0.00  -0.00     0.00   0.00  -0.00    -0.00  -0.00   0.00
    34   1    -0.01  -0.00  -0.00    -0.00  -0.00  -0.00    -0.00  -0.00  -0.00
    35   6    -0.01   0.00   0.00    -0.00   0.00  -0.00     0.00  -0.00   0.04
    36   1     0.05  -0.01  -0.08    -0.00   0.00   0.00     0.16  -0.03  -0.25
    37   1     0.01  -0.01  -0.00    -0.00   0.00  -0.00     0.00  -0.00   0.01
    38   1     0.05  -0.01   0.07     0.00  -0.00   0.00    -0.19   0.05  -0.23
                     97                     98                     99
                      A                      A                      A
 Frequencies --   3114.0053              3114.3379              3115.7068
 Red. masses --      1.1029                 1.1035                 1.1023
 Frc consts  --      6.3014                 6.3060                 6.3048
 IR Inten    --      1.9516                32.7968                14.9982
  Atom  AN      X      Y      Z        X      Y      Z        X      Y      Z
     1   6     0.00   0.00   0.00    -0.00  -0.00  -0.00     0.00   0.00   0.00
     2   6     0.00  -0.00  -0.00     0.00   0.00  -0.00    -0.00  -0.00   0.00
     3   1    -0.00  -0.00  -0.00    -0.00   0.00   0.00     0.00  -0.00  -0.00
     4   6     0.00   0.00  -0.00    -0.09  -0.03   0.00     0.00   0.00  -0.00
     5   1    -0.01  -0.00   0.00     0.88   0.04  -0.05    -0.02  -0.00   0.00
     6   1    -0.00  -0.00   0.00     0.07   0.18  -0.26    -0.00  -0.00   0.01
     7   1    -0.00  -0.00  -0.00     0.10   0.15   0.28    -0.00  -0.00  -0.01
     8   6    -0.00  -0.00   0.00     0.00  -0.00  -0.00     0.00   0.00   0.00
     9   8    -0.00  -0.00  -0.00    -0.00  -0.00   0.00     0.00   0.00   0.00
    10   8     0.00   0.00   0.00     0.00   0.00   0.00    -0.00  -0.00  -0.00
    11   6     0.00  -0.00  -0.00     0.00  -0.00  -0.00    -0.00   0.00  -0.00
    12   1     0.00  -0.00   0.00    -0.00   0.00  -0.00     0.00  -0.00   0.00
    13   1    -0.00   0.00   0.00    -0.00   0.00   0.00     0.00  -0.00  -0.00
    14   5    -0.00   0.00  -0.00     0.00  -0.00  -0.00     0.00   0.00  -0.00
    15   8     0.00  -0.00   0.00    -0.00   0.00  -0.00    -0.00  -0.00   0.00
    16   8     0.00   0.00   0.00    -0.00   0.00   0.00     0.00  -0.00   0.00
    17   6    -0.00   0.00   0.00     0.00  -0.00  -0.00     0.00   0.00  -0.00
    18   6    -0.00  -0.00  -0.00     0.00   0.00   0.00    -0.00   0.00  -0.00
    19   6     0.03  -0.00  -0.04    -0.00  -0.00   0.00    -0.01   0.00   0.02
    20   6    -0.02  -0.01   0.04     0.00   0.00  -0.00     0.03   0.01  -0.05
    21   6     0.01   0.00   0.02    -0.00   0.00   0.00     0.00   0.00   0.02
    22   6    -0.04   0.01  -0.04    -0.00   0.00  -0.00    -0.04   0.01  -0.05
    23   1     0.04   0.04   0.03     0.00   0.00   0.00    -0.04  -0.04  -0.03
    24   1    -0.03  -0.08   0.35     0.00   0.00  -0.00     0.02   0.05  -0.19
    25   1    -0.32   0.04   0.09     0.00  -0.00  -0.00     0.18  -0.03  -0.05
    26   1    -0.02   0.04   0.01    -0.00   0.00  -0.00     0.01   0.00  -0.01
    27   1     0.32  -0.00  -0.11    -0.01  -0.00   0.00    -0.41  -0.00   0.15
    28   1    -0.01   0.14  -0.37     0.00  -0.00   0.00     0.01  -0.16   0.43
    29   1    -0.06   0.05  -0.22    -0.00   0.00  -0.01    -0.05   0.04  -0.18
    30   1    -0.15  -0.04  -0.02     0.00   0.00   0.00    -0.06  -0.02  -0.00
    31   1     0.04  -0.04  -0.04     0.01  -0.01  -0.01     0.08  -0.07  -0.08
    32   1     0.07  -0.15   0.44     0.00  -0.00   0.01     0.07  -0.16   0.45
    33   1    -0.02  -0.05  -0.01    -0.00   0.00  -0.00    -0.01  -0.01  -0.01
    34   1     0.39   0.06   0.09     0.01   0.00   0.00     0.45   0.07   0.10
    35   6    -0.00   0.00   0.00    -0.00   0.00   0.00     0.00  -0.00   0.00
    36   1     0.00  -0.00  -0.00     0.00  -0.00  -0.00     0.00  -0.00  -0.00
    37   1     0.00  -0.00   0.00     0.00  -0.00  -0.00    -0.00   0.00   0.00
    38   1    -0.00   0.00  -0.00     0.00  -0.00   0.00    -0.00   0.00  -0.00
                    100                    101                    102
                      A                      A                      A
 Frequencies --   3121.2452              3121.6384              3123.2087
 Red. masses --      1.1021                 1.1024                 1.1019
 Frc consts  --      6.3258                 6.3293                 6.3329
 IR Inten    --     88.8611                17.5699                29.2265
  Atom  AN      X      Y      Z        X      Y      Z        X      Y      Z
     1   6     0.00  -0.00   0.00    -0.00  -0.00  -0.00     0.00   0.00  -0.00
     2   6     0.00  -0.00  -0.00     0.00   0.00   0.00    -0.00  -0.00  -0.00
     3   1    -0.00   0.00  -0.00    -0.00   0.00   0.00     0.00   0.00  -0.00
     4   6    -0.00  -0.00   0.00    -0.00  -0.00   0.00    -0.00  -0.00   0.00
     5   1     0.01   0.00  -0.00     0.01   0.00  -0.00     0.00   0.00  -0.00
     6   1     0.00   0.00  -0.00     0.00   0.00  -0.00     0.00   0.00  -0.00
     7   1     0.00   0.00   0.00     0.00   0.00   0.00     0.00   0.00   0.00
     8   6    -0.00  -0.00   0.00     0.00  -0.00  -0.00     0.00   0.00   0.00
     9   8    -0.00  -0.00  -0.00     0.00   0.00   0.00    -0.00  -0.00   0.00
    10   8     0.00   0.00   0.00    -0.00   0.00  -0.00    -0.00   0.00   0.00
    11   6     0.00  -0.00   0.00     0.00  -0.00   0.00     0.01  -0.00  -0.00
    12   1    -0.00   0.00  -0.00    -0.00   0.00  -0.00    -0.04   0.01  -0.04
    13   1     0.00  -0.00  -0.00     0.00   0.00  -0.00    -0.03   0.00   0.05
    14   5    -0.00  -0.00  -0.00    -0.00  -0.00   0.00     0.00   0.00  -0.00
    15   8    -0.00  -0.00   0.00     0.00   0.00  -0.00    -0.00  -0.00  -0.00
    16   8    -0.00  -0.00   0.00     0.00   0.00   0.00    -0.00  -0.00   0.00
    17   6     0.00   0.00  -0.00    -0.00  -0.00   0.00     0.00   0.00  -0.00
    18   6     0.00  -0.00  -0.00    -0.00   0.00  -0.00     0.00   0.00  -0.00
    19   6     0.04  -0.00  -0.06    -0.02   0.00   0.03     0.00  -0.00  -0.00
    20   6     0.02   0.02  -0.04    -0.02   0.00   0.02     0.00   0.00  -0.00
    21   6    -0.01  -0.01  -0.04     0.02  -0.01  -0.07    -0.00  -0.00  -0.00
    22   6     0.00   0.00  -0.00    -0.02   0.00  -0.02    -0.00   0.00  -0.00
    23   1     0.07   0.07   0.05    -0.05  -0.04  -0.03     0.00   0.00   0.00
    24   1    -0.04  -0.12   0.51     0.02   0.06  -0.24    -0.00  -0.00   0.00
    25   1    -0.47   0.07   0.12     0.22  -0.03  -0.06    -0.00   0.00   0.00
    26   1     0.03  -0.07  -0.01     0.03  -0.08   0.00     0.00  -0.00  -0.00
    27   1    -0.28   0.00   0.10     0.19   0.00  -0.07    -0.00  -0.00   0.00
    28   1     0.01  -0.13   0.35    -0.01   0.05  -0.12     0.00  -0.00   0.00
    29   1     0.11  -0.08   0.36     0.16  -0.12   0.53     0.00  -0.00   0.00
    30   1     0.16   0.05   0.01    -0.04  -0.01  -0.02     0.00   0.00   0.00
    31   1    -0.13   0.11   0.13    -0.35   0.31   0.37     0.00  -0.00  -0.00
    32   1     0.01  -0.01   0.04     0.04  -0.08   0.24     0.00  -0.00   0.00
    33   1    -0.01  -0.03   0.00    -0.00   0.01  -0.01     0.00  -0.00  -0.00
    34   1    -0.00  -0.00  -0.00     0.24   0.04   0.05     0.00   0.00   0.00
    35   6    -0.00   0.00   0.00    -0.00   0.00   0.00     0.06  -0.07  -0.01
    36   1     0.00  -0.00  -0.00     0.00  -0.00  -0.00    -0.20   0.02   0.33
    37   1     0.00  -0.00  -0.00     0.00  -0.00   0.00    -0.29   0.78   0.06
    38   1    -0.00   0.00  -0.00    -0.00   0.00  -0.00    -0.22   0.05  -0.30
                    103                    104                    105
                      A                      A                      A
 Frequencies --   3124.8289              3127.9685              3141.9872
 Red. masses --      1.1055                 1.1026                 1.1012
 Frc consts  --      6.3598                 6.3559                 6.4049
 IR Inten    --     57.0120                40.8360                31.8538
  Atom  AN      X      Y      Z        X      Y      Z        X      Y      Z
     1   6     0.00  -0.00   0.00    -0.00   0.00   0.00     0.00  -0.00  -0.00
     2   6    -0.00   0.00  -0.00    -0.00  -0.00   0.00     0.00   0.00  -0.00
     3   1    -0.00  -0.00   0.00     0.00  -0.00  -0.00    -0.00   0.00   0.00
     4   6     0.00   0.00  -0.00     0.00   0.00  -0.00    -0.00  -0.00   0.00
     5   1    -0.00   0.00  -0.00    -0.01  -0.00   0.00     0.00   0.00  -0.00
     6   1    -0.00  -0.00   0.00    -0.00  -0.00   0.00     0.00   0.00  -0.00
     7   1     0.00   0.00   0.00    -0.00  -0.00  -0.00     0.00   0.00   0.00
     8   6     0.00  -0.00   0.00     0.00   0.00   0.00     0.00  -0.00  -0.00
     9   8     0.00  -0.00   0.00    -0.00  -0.00   0.00    -0.00   0.00  -0.00
    10   8     0.00  -0.00   0.00    -0.00  -0.00  -0.00    -0.00   0.00   0.00
    11   6    -0.00   0.00  -0.04    -0.00   0.00  -0.00     0.00  -0.00   0.00
    12   1     0.19  -0.04   0.23     0.00  -0.00   0.00    -0.00   0.00  -0.00
    13   1    -0.16   0.01   0.25     0.00  -0.00  -0.00    -0.00   0.00   0.00
    14   5    -0.00  -0.00  -0.00     0.00   0.00  -0.00    -0.00  -0.00  -0.00
    15   8    -0.00  -0.00   0.00     0.00  -0.00  -0.00    -0.00   0.00   0.00
    16   8     0.00   0.00   0.00     0.00  -0.00   0.00    -0.00   0.00   0.00
    17   6     0.00  -0.00  -0.00    -0.00  -0.00   0.00     0.00  -0.00   0.00
    18   6    -0.00   0.00  -0.00    -0.00   0.00  -0.00     0.00  -0.00  -0.00
    19   6     0.00  -0.00  -0.00    -0.00   0.00   0.01     0.00  -0.00  -0.00
    20   6     0.00   0.00  -0.00    -0.00  -0.01   0.01     0.05  -0.07   0.01
    21   6     0.00  -0.00  -0.00    -0.09   0.01  -0.01     0.01  -0.00  -0.01
    22   6    -0.00   0.00  -0.00    -0.01   0.00  -0.01     0.00   0.00   0.00
    23   1     0.00   0.00   0.00    -0.01  -0.01  -0.01     0.01   0.00   0.00
    24   1    -0.00  -0.00   0.00     0.01   0.02  -0.07    -0.00  -0.00   0.01
    25   1    -0.00   0.00   0.00     0.06  -0.01  -0.02    -0.01   0.00   0.00
    26   1     0.00  -0.00  -0.00    -0.03   0.07   0.00    -0.31   0.82  -0.00
    27   1    -0.00   0.00   0.00     0.09  -0.00  -0.03    -0.33  -0.02   0.13
    28   1     0.00  -0.00   0.00    -0.00   0.05  -0.14     0.01   0.08  -0.25
    29   1     0.00  -0.00   0.00     0.07  -0.06   0.29     0.02  -0.01   0.06
    30   1     0.00   0.00  -0.00     0.75   0.23   0.11    -0.04  -0.01  -0.01
    31   1    -0.00   0.00   0.00     0.25  -0.23  -0.29    -0.08   0.07   0.09
    32   1     0.00  -0.00   0.00     0.02  -0.05   0.13     0.00   0.00   0.00
    33   1    -0.00  -0.00   0.00    -0.01  -0.03  -0.00    -0.00  -0.02   0.00
    34   1     0.00   0.00   0.00     0.12   0.02   0.03    -0.02  -0.00  -0.00
    35   6    -0.00   0.01  -0.08    -0.00   0.00  -0.00     0.00  -0.00   0.00
    36   1    -0.34   0.05   0.53     0.00   0.00  -0.00    -0.00  -0.00   0.00
    37   1     0.00  -0.01  -0.02     0.00  -0.00  -0.00    -0.00   0.00   0.00
    38   1     0.40  -0.11   0.49     0.00  -0.00   0.00    -0.00   0.00  -0.00
                    106                    107                    108
                      A                      A                      A
 Frequencies --   3142.3173              3152.7674              3172.7154
 Red. masses --      1.1016                 1.1016                 1.0919
 Frc consts  --      6.4086                 6.4513                 6.4760
 IR Inten    --     22.8670                13.6553                16.8350
  Atom  AN      X      Y      Z        X      Y      Z        X      Y      Z
     1   6    -0.00  -0.00   0.00    -0.00   0.00   0.00     0.00   0.01   0.00
     2   6    -0.00   0.00   0.00    -0.00  -0.00   0.00    -0.09  -0.00   0.01
     3   1     0.00   0.00  -0.00     0.00  -0.00  -0.00     0.99  -0.01  -0.06
     4   6    -0.00  -0.00  -0.00     0.00   0.00   0.00     0.00   0.00   0.00
     5   1    -0.00  -0.00  -0.00    -0.00  -0.00   0.00     0.00  -0.00  -0.00
     6   1     0.00   0.00  -0.00     0.00  -0.00   0.00    -0.00  -0.00   0.00
     7   1     0.00   0.00   0.00    -0.00  -0.00  -0.00    -0.00  -0.00  -0.00
     8   6     0.00   0.00  -0.00    -0.00  -0.00  -0.00     0.00  -0.00  -0.00
     9   8     0.00   0.00   0.00    -0.00  -0.00  -0.00     0.00   0.00  -0.00
    10   8    -0.00  -0.00  -0.00    -0.00  -0.00   0.00     0.00   0.00   0.00
    11   6    -0.00   0.00  -0.00    -0.00   0.00   0.00     0.00   0.00  -0.00
    12   1     0.00  -0.00   0.00    -0.00   0.00  -0.00     0.00  -0.00   0.00
    13   1    -0.00   0.00   0.00     0.00  -0.00  -0.00     0.00  -0.00  -0.00
    14   5     0.00   0.00  -0.00     0.00  -0.00   0.00     0.00   0.00  -0.00
    15   8    -0.00   0.00   0.00     0.00   0.00   0.00    -0.00  -0.00  -0.00
    16   8     0.00   0.00  -0.00     0.00   0.00   0.00    -0.00  -0.00   0.00
    17   6     0.00  -0.00   0.00    -0.00  -0.00  -0.00     0.00  -0.00  -0.00
    18   6    -0.00  -0.00   0.00    -0.00  -0.00   0.00     0.00   0.00   0.00
    19   6     0.02   0.01   0.01    -0.07  -0.04  -0.04     0.00  -0.00   0.00
    20   6     0.00  -0.00   0.00    -0.00  -0.00   0.00     0.00   0.00   0.00
    21   6    -0.00   0.00   0.00    -0.00  -0.00  -0.00     0.00   0.00  -0.00
    22   6    -0.04  -0.08   0.02    -0.01  -0.02   0.00     0.00   0.00  -0.00
    23   1    -0.13  -0.13  -0.12     0.50   0.53   0.46     0.00  -0.00  -0.00
    24   1     0.01   0.01  -0.02    -0.03  -0.05   0.19     0.00   0.00  -0.00
    25   1    -0.15   0.02   0.04     0.37  -0.06  -0.11    -0.00   0.00   0.00
    26   1    -0.01   0.03   0.00    -0.00   0.01   0.00     0.00  -0.00  -0.00
    27   1    -0.01  -0.00   0.00     0.01   0.00  -0.00    -0.00  -0.00   0.00
    28   1     0.00   0.00  -0.01     0.00   0.00  -0.00    -0.00   0.00  -0.00
    29   1    -0.00   0.00   0.00     0.00  -0.00   0.01     0.00  -0.00   0.00
    30   1     0.02   0.01   0.00     0.01   0.00   0.00    -0.00  -0.00  -0.00
    31   1     0.01  -0.01  -0.01    -0.00   0.00   0.00    -0.00   0.00   0.00
    32   1    -0.05   0.07  -0.25    -0.01   0.01  -0.05     0.00  -0.00   0.00
    33   1     0.17   0.84  -0.03     0.05   0.23  -0.01    -0.00  -0.00   0.00
    34   1     0.32   0.03   0.08     0.10   0.01   0.02    -0.00  -0.00  -0.00
    35   6     0.00   0.00  -0.00    -0.00   0.00   0.00    -0.00  -0.00   0.00
    36   1    -0.00   0.00   0.00     0.00  -0.00  -0.00     0.00  -0.00  -0.00
    37   1     0.00  -0.00  -0.00     0.00  -0.00  -0.00    -0.00   0.00   0.00
    38   1     0.00  -0.00   0.00    -0.00   0.00  -0.00     0.00  -0.00   0.00

 -------------------
 - Thermochemistry -
 -------------------
 Temperature   298.150 Kelvin.  Pressure   1.00000 Atm.
 Atom     1 has atomic number  6 and mass  12.00000
 Atom     2 has atomic number  6 and mass  12.00000
 Atom     3 has atomic number  1 and mass   1.00783
 Atom     4 has atomic number  6 and mass  12.00000
 Atom     5 has atomic number  1 and mass   1.00783
 Atom     6 has atomic number  1 and mass   1.00783
 Atom     7 has atomic number  1 and mass   1.00783
 Atom     8 has atomic number  6 and mass  12.00000
 Atom     9 has atomic number  8 and mass  15.99491
 Atom    10 has atomic number  8 and mass  15.99491
 Atom    11 has atomic number  6 and mass  12.00000
 Atom    12 has atomic number  1 and mass   1.00783
 Atom    13 has atomic number  1 and mass   1.00783
 Atom    14 has atomic number  5 and mass  11.00931
 Atom    15 has atomic number  8 and mass  15.99491
 Atom    16 has atomic number  8 and mass  15.99491
 Atom    17 has atomic number  6 and mass  12.00000
 Atom    18 has atomic number  6 and mass  12.00000
 Atom    19 has atomic number  6 and mass  12.00000
 Atom    20 has atomic number  6 and mass  12.00000
 Atom    21 has atomic number  6 and mass  12.00000
 Atom    22 has atomic number  6 and mass  12.00000
 Atom    23 has atomic number  1 and mass   1.00783
 Atom    24 has atomic number  1 and mass   1.00783
 Atom    25 has atomic number  1 and mass   1.00783
 Atom    26 has atomic number  1 and mass   1.00783
 Atom    27 has atomic number  1 and mass   1.00783
 Atom    28 has atomic number  1 and mass   1.00783
 Atom    29 has atomic number  1 and mass   1.00783
 Atom    30 has atomic number  1 and mass   1.00783
 Atom    31 has atomic number  1 and mass   1.00783
 Atom    32 has atomic number  1 and mass   1.00783
 Atom    33 has atomic number  1 and mass   1.00783
 Atom    34 has atomic number  1 and mass   1.00783
 Atom    35 has atomic number  6 and mass  12.00000
 Atom    36 has atomic number  1 and mass   1.00783
 Atom    37 has atomic number  1 and mass   1.00783
 Atom    38 has atomic number  1 and mass   1.00783
 Molecular mass:   240.15329 amu.
 Principal axes and moments of inertia in atomic units:
                           1         2         3
     Eigenvalues --  2288.508466892.260947862.86979
           X            0.71049  -0.70290   0.03361
           Y            0.70352   0.71059  -0.01110
           Z           -0.01608   0.03154   0.99937
 This molecule is an asymmetric top.
 Rotational symmetry number  1.
 Warning -- assumption of classical behavior for rotation
           may cause significant error
 Rotational temperatures (Kelvin)      0.03785     0.01257     0.01102
 Rotational constants (GHZ):           0.78861     0.26185     0.22953
 Zero-point vibrational energy     842722.3 (Joules/Mol)
                                  201.41545 (Kcal/Mol)
 Warning -- explicit consideration of  31 degrees of freedom as
           vibrations may cause significant error
 Vibrational temperatures:     26.92    60.33    71.67   110.36   137.32
          (Kelvin)            140.04   156.93   212.93   235.09   244.36
                              313.32   324.45   332.31   355.86   401.62
                              403.88   410.67   431.06   441.12   450.29
                              499.61   512.90   531.11   558.86   598.18
                              626.41   686.90   745.64   802.75   807.11
                              833.96   946.73   967.76  1079.02  1106.12
                             1164.36  1195.51  1205.37  1243.39  1268.81
                             1279.17  1341.87  1346.49  1385.71  1399.32
                             1417.26  1442.41  1455.48  1469.53  1495.93
                             1525.34  1613.82  1626.29  1632.95  1655.69
                             1672.40  1698.34  1734.30  1768.35  1825.02
                             1841.68  1850.77  1897.75  1911.27  1978.17
                             1982.07  1991.90  1993.58  2004.48  2014.52
                             2016.99  2037.95  2064.36  2069.72  2080.04
                             2080.70  2081.60  2082.27  2091.36  2098.52
                             2106.25  2114.22  2116.95  2138.59  2139.21
                             2425.75  2495.25  4341.81  4376.32  4376.62
                             4381.49  4383.22  4390.27  4393.82  4422.49
                             4454.99  4480.36  4480.84  4482.81  4490.78
                             4491.34  4493.60  4495.93  4500.45  4520.62
                             4521.09  4536.13  4564.83
 
 Zero-point correction=                           0.320976 (Hartree/Particle)
 Thermal correction to Energy=                    0.340389
 Thermal correction to Enthalpy=                  0.341333
 Thermal correction to Gibbs Free Energy=         0.273140
 Sum of electronic and zero-point Energies=           -795.583864
 Sum of electronic and thermal Energies=              -795.564451
 Sum of electronic and thermal Enthalpies=            -795.563507
 Sum of electronic and thermal Free Energies=         -795.631701
 
                     E (Thermal)             CV                S
                      KCal/Mol        Cal/Mol-Kelvin    Cal/Mol-Kelvin
 Total                  213.597             72.697            143.526
 Electronic               0.000              0.000              0.000
 Translational            0.889              2.981             42.330
 Rotational               0.889              2.981             33.183
 Vibrational            211.820             66.735             68.013
 Vibration     1          0.593              1.986              6.767
 Vibration     2          0.595              1.980              5.166
 Vibration     3          0.595              1.978              4.825
 Vibration     4          0.599              1.965              3.974
 Vibration     5          0.603              1.952              3.545
 Vibration     6          0.603              1.951              3.507
 Vibration     7          0.606              1.942              3.285
 Vibration     8          0.617              1.905              2.698
 Vibration     9          0.623              1.887              2.510
 Vibration    10          0.625              1.880              2.437
 Vibration    11          0.646              1.814              1.978
 Vibration    12          0.650              1.802              1.914
 Vibration    13          0.653              1.794              1.871
 Vibration    14          0.661              1.767              1.749
 Vibration    15          0.679              1.712              1.539
 Vibration    16          0.680              1.709              1.529
 Vibration    17          0.683              1.701              1.501
 Vibration    18          0.692              1.674              1.419
 Vibration    19          0.697              1.661              1.381
 Vibration    20          0.701              1.649              1.347
 Vibration    21          0.725              1.581              1.179
 Vibration    22          0.732              1.562              1.137
 Vibration    23          0.741              1.536              1.083
 Vibration    24          0.757              1.495              1.006
 Vibration    25          0.779              1.436              0.907
 Vibration    26          0.796              1.393              0.841
 Vibration    27          0.834              1.300              0.717
 Vibration    28          0.873              1.210              0.614
 Vibration    29          0.913              1.122              0.528
 Vibration    30          0.917              1.116              0.522
 Vibration    31          0.936              1.075              0.486
                       Q            Log10(Q)             Ln(Q)
 Total Bot       0.231559-125       -125.635339       -289.286058
 Total V=0       0.100745D+23         22.003222         50.664290
 Vib (Bot)       0.397083-140       -140.401119       -323.285523
 Vib (Bot)    1  0.110736D+02          1.044288          2.404563
 Vib (Bot)    2  0.493373D+01          0.693176          1.596096
 Vib (Bot)    3  0.414990D+01          0.618037          1.423084
 Vib (Bot)    4  0.268629D+01          0.429153          0.988162
 Vib (Bot)    5  0.215212D+01          0.332867          0.766454
 Vib (Bot)    6  0.210963D+01          0.324206          0.746512
 Vib (Bot)    7  0.187812D+01          0.273723          0.630269
 Vib (Bot)    8  0.137093D+01          0.137016          0.315490
 Vib (Bot)    9  0.123598D+01          0.092011          0.211863
 Vib (Bot)   10  0.118661D+01          0.074309          0.171102
 Vib (Bot)   11  0.909171D+00         -0.041355         -0.095223
 Vib (Bot)   12  0.875117D+00         -0.057934         -0.133397
 Vib (Bot)   13  0.852391D+00         -0.069361         -0.159709
 Vib (Bot)   14  0.790090D+00         -0.102323         -0.235608
 Vib (Bot)   15  0.689081D+00         -0.161730         -0.372397
 Vib (Bot)   16  0.684661D+00         -0.164524         -0.378831
 Vib (Bot)   17  0.671637D+00         -0.172865         -0.398037
 Vib (Bot)   18  0.634913D+00         -0.197285         -0.454267
 Vib (Bot)   19  0.617967D+00         -0.209035         -0.481320
 Vib (Bot)   20  0.603147D+00         -0.219577         -0.505595
 Vib (Bot)   21  0.532267D+00         -0.273871         -0.630611
 Vib (Bot)   22  0.515362D+00         -0.287888         -0.662886
 Vib (Bot)   23  0.493486D+00         -0.306725         -0.706260
 Vib (Bot)   24  0.462719D+00         -0.334683         -0.770635
 Vib (Bot)   25  0.423703D+00         -0.372938         -0.858722
 Vib (Bot)   26  0.398513D+00         -0.399557         -0.920014
 Vib (Bot)   27  0.351091D+00         -0.454581         -1.046711
 Vib (Bot)   28  0.311962D+00         -0.505898         -1.164873
 Vib (Bot)   29  0.279125D+00         -0.554201         -1.276095
 Vib (Bot)   30  0.276796D+00         -0.557840         -1.284474
 Vib (Bot)   31  0.262994D+00         -0.580054         -1.335624
 Vib (V=0)       0.172759D+08          7.237442         16.664825
 Vib (V=0)    1  0.115849D+02          1.063891          2.449700
 Vib (V=0)    2  0.545900D+01          0.737113          1.697266
 Vib (V=0)    3  0.467991D+01          0.670237          1.543279
 Vib (V=0)    4  0.323243D+01          0.509529          1.173234
 Vib (V=0)    5  0.270944D+01          0.432879          0.996742
 Vib (V=0)    6  0.266807D+01          0.426198          0.981356
 Vib (V=0)    7  0.244353D+01          0.388018          0.893445
 Vib (V=0)    8  0.195926D+01          0.292093          0.672569
 Vib (V=0)    9  0.183328D+01          0.263230          0.606109
 Vib (V=0)   10  0.178765D+01          0.252283          0.580903
 Vib (V=0)   11  0.153759D+01          0.186840          0.430216
 Vib (V=0)   12  0.150788D+01          0.178368          0.410707
 Vib (V=0)   13  0.148822D+01          0.172666          0.397578
 Vib (V=0)   14  0.143501D+01          0.156855          0.361171
 Vib (V=0)   15  0.135137D+01          0.130775          0.301119
 Vib (V=0)   16  0.134780D+01          0.129625          0.298472
 Vib (V=0)   17  0.133732D+01          0.126234          0.290664
 Vib (V=0)   18  0.130816D+01          0.116659          0.268618
 Vib (V=0)   19  0.129491D+01          0.112240          0.258442
 Vib (V=0)   20  0.128345D+01          0.108377          0.249548
 Vib (V=0)   21  0.123028D+01          0.090004          0.207241
 Vib (V=0)   22  0.121805D+01          0.085666          0.197252
 Vib (V=0)   23  0.120252D+01          0.080091          0.184416
 Vib (V=0)   24  0.118126D+01          0.072344          0.166578
 Vib (V=0)   25  0.115538D+01          0.062725          0.144430
 Vib (V=0)   26  0.113938D+01          0.056670          0.130488
 Vib (V=0)   27  0.111095D+01          0.045696          0.105219
 Vib (V=0)   28  0.108934D+01          0.037163          0.085571
 Vib (V=0)   29  0.107264D+01          0.030452          0.070118
 Vib (V=0)   30  0.107150D+01          0.029994          0.069063
 Vib (V=0)   31  0.106495D+01          0.027328          0.062926
 Electronic      0.100000D+01          0.000000          0.000000
 Translational   0.146281D+09          8.165187         18.801037
 Rotational      0.398651D+07          6.600593         15.198428
 -------------------------------------------------------------------
 Center     Atomic                   Forces (Hartrees/Bohr)
 Number     Number              X              Y              Z
 -------------------------------------------------------------------
      1        6           0.000004526   -0.000010113   -0.000006476
      2        6           0.000003291    0.000009390    0.000000770
      3        1          -0.000004639   -0.000001611   -0.000001045
      4        6          -0.000001417    0.000002065    0.000005708
      5        1          -0.000002079   -0.000001186   -0.000000365
      6        1          -0.000001601    0.000000746   -0.000004042
      7        1          -0.000002473   -0.000001022    0.000000436
      8        6           0.000025677    0.000002900   -0.000004054
      9        8          -0.000009475    0.000001689   -0.000000961
     10        8          -0.000013467   -0.000014974    0.000004500
     11        6           0.000001486    0.000005859   -0.000000402
     12        1          -0.000000608   -0.000001332   -0.000001620
     13        1           0.000002290   -0.000000685   -0.000000511
     14        5          -0.000001667   -0.000003430    0.000013296
     15        8          -0.000000335    0.000001699   -0.000001059
     16        8           0.000005803    0.000004976   -0.000000072
     17        6           0.000007492    0.000000368   -0.000000132
     18        6          -0.000012817    0.000000982   -0.000005441
     19        6          -0.000000906   -0.000001646   -0.000003778
     20        6          -0.000005395    0.000003896   -0.000004097
     21        6           0.000003479    0.000000925    0.000002241
     22        6           0.000004203    0.000000587   -0.000001262
     23        1           0.000001933    0.000001277    0.000001888
     24        1          -0.000000005   -0.000000684    0.000002416
     25        1           0.000000022    0.000001504    0.000001042
     26        1          -0.000000115   -0.000002025    0.000001378
     27        1           0.000000522    0.000000523    0.000000427
     28        1          -0.000000128   -0.000000245    0.000003205
     29        1          -0.000001636    0.000000896    0.000000113
     30        1          -0.000002679    0.000000535    0.000000376
     31        1          -0.000001075   -0.000000562    0.000000198
     32        1          -0.000000199   -0.000000405    0.000002944
     33        1          -0.000000310    0.000001375   -0.000000926
     34        1          -0.000002494    0.000001170   -0.000000584
     35        6           0.000001923   -0.000001768   -0.000006429
     36        1          -0.000000720   -0.000000881    0.000002705
     37        1           0.000001367    0.000000203   -0.000000528
     38        1           0.000002226   -0.000000998    0.000000141
 -------------------------------------------------------------------
 Cartesian Forces:  Max     0.000025677 RMS     0.000004556
 FormGI is forming the generalized inverse of G from B-inverse, IUseBI=4.
 Leave Link  716 at Tue Aug 18 15:37:29 2026, MaxMem=  2684354560 cpu:               0.1 elap:               0.1
 (Enter /mnt/data/applications/G16/g16/l103.exe)

 GradGradGradGradGradGradGradGradGradGradGradGradGradGradGradGradGradGrad
 Berny optimization.
 Red2BG is reusing G-inverse.
 Internal  Forces:  Max     0.000015879 RMS     0.000002593
 Search for a local minimum.
 Step number   1 out of a maximum of    2
 All quantities printed in internal units (Hartrees-Bohrs-Radians)
 Second derivative matrix not updated -- analytic derivatives used.
 ITU=  0
     Eigenvalues ---    0.00212   0.00220   0.00235   0.00277   0.00297
     Eigenvalues ---    0.00330   0.00363   0.00445   0.00541   0.00969
     Eigenvalues ---    0.01415   0.01979   0.02135   0.02162   0.02400
     Eigenvalues ---    0.03291   0.03983   0.04175   0.04188   0.04226
     Eigenvalues ---    0.04276   0.04325   0.04334   0.04377   0.04399
     Eigenvalues ---    0.04455   0.04534   0.04591   0.04955   0.05492
     Eigenvalues ---    0.05546   0.05905   0.06074   0.06974   0.07215
     Eigenvalues ---    0.07622   0.09179   0.09279   0.09376   0.10435
     Eigenvalues ---    0.10969   0.11816   0.11842   0.11886   0.11988
     Eigenvalues ---    0.12165   0.12181   0.12223   0.12420   0.12808
     Eigenvalues ---    0.13265   0.13817   0.13963   0.14133   0.14528
     Eigenvalues ---    0.14612   0.14657   0.15072   0.15156   0.15663
     Eigenvalues ---    0.16310   0.17701   0.18368   0.18494   0.20164
     Eigenvalues ---    0.21297   0.22815   0.22972   0.23385   0.23923
     Eigenvalues ---    0.26080   0.26389   0.27881   0.28510   0.28984
     Eigenvalues ---    0.30028   0.30851   0.31189   0.32272   0.32918
     Eigenvalues ---    0.32944   0.32979   0.33157   0.33249   0.33683
     Eigenvalues ---    0.33756   0.33799   0.33803   0.33911   0.33927
     Eigenvalues ---    0.33989   0.34012   0.34056   0.34186   0.34298
     Eigenvalues ---    0.34385   0.34451   0.34488   0.34910   0.35002
     Eigenvalues ---    0.35191   0.35458   0.35737   0.37706   0.40447
     Eigenvalues ---    0.46820   0.62092   0.80633
 Angle between quadratic step and forces=  76.78 degrees.
 Linear search not attempted -- first point.
 Iteration  1 RMS(Cart)=  0.00056727 RMS(Int)=  0.00000015
 Iteration  2 RMS(Cart)=  0.00000023 RMS(Int)=  0.00000000
 ITry= 1 IFail=0 DXMaxC= 2.82D-03 DCOld= 1.00D+10 DXMaxT= 3.00D-01 DXLimC= 3.00D+00 Rises=F
 Variable       Old X    -DE/DX   Delta X   Delta X   Delta X     New X
                                 (Linear)    (Quad)   (Total)
    R1        2.54508   0.00000   0.00000   0.00001   0.00001   2.54509
    R2        2.84047  -0.00001   0.00000  -0.00003  -0.00003   2.84045
    R3        2.97591   0.00000   0.00000   0.00001   0.00001   2.97592
    R4        2.06621  -0.00000   0.00000  -0.00001  -0.00001   2.06620
    R5        2.78326  -0.00000   0.00000  -0.00001  -0.00001   2.78325
    R6        2.07895  -0.00000   0.00000  -0.00000  -0.00000   2.07894
    R7        2.08640  -0.00000   0.00000  -0.00001  -0.00001   2.08638
    R8        2.08633   0.00000   0.00000   0.00001   0.00001   2.08633
    R9        2.31496   0.00001   0.00000   0.00002   0.00002   2.31499
   R10        2.53916  -0.00002   0.00000  -0.00005  -0.00005   2.53910
   R11        2.73929   0.00001   0.00000   0.00002   0.00002   2.73932
   R12        2.08074   0.00000   0.00000  -0.00001  -0.00001   2.08074
   R13        2.08069  -0.00000   0.00000   0.00000   0.00000   2.08070
   R14        2.85897  -0.00000   0.00000  -0.00000  -0.00000   2.85896
   R15        2.59146   0.00000   0.00000   0.00002   0.00002   2.59148
   R16        2.59107  -0.00000   0.00000  -0.00001  -0.00001   2.59106
   R17        2.76940  -0.00000   0.00000  -0.00003  -0.00003   2.76937
   R18        2.76657   0.00001   0.00000   0.00006   0.00006   2.76663
   R19        2.97815  -0.00000   0.00000  -0.00003  -0.00003   2.97811
   R20        2.89040  -0.00000   0.00000  -0.00000  -0.00000   2.89040
   R21        2.87758   0.00000   0.00000   0.00001   0.00001   2.87759
   R22        2.89025   0.00000   0.00000   0.00000   0.00000   2.89025
   R23        2.87733  -0.00000   0.00000  -0.00001  -0.00001   2.87732
   R24        2.07411   0.00000   0.00000   0.00001   0.00001   2.07412
   R25        2.07962  -0.00000   0.00000  -0.00001  -0.00001   2.07962
   R26        2.07840   0.00000   0.00000   0.00000   0.00000   2.07840
   R27        2.07405   0.00000   0.00000   0.00001   0.00001   2.07406
   R28        2.08050  -0.00000   0.00000  -0.00000  -0.00000   2.08050
   R29        2.07922  -0.00000   0.00000  -0.00001  -0.00001   2.07921
   R30        2.07878  -0.00000   0.00000  -0.00000  -0.00000   2.07878
   R31        2.07831   0.00000   0.00000   0.00001   0.00001   2.07832
   R32        2.07854   0.00000   0.00000   0.00000   0.00000   2.07854
   R33        2.07933   0.00000   0.00000   0.00001   0.00001   2.07934
   R34        2.07388   0.00000   0.00000   0.00000   0.00000   2.07388
   R35        2.08037   0.00000   0.00000   0.00001   0.00001   2.08038
   R36        2.08069  -0.00000   0.00000  -0.00001  -0.00001   2.08068
   R37        2.08026   0.00000   0.00000   0.00000   0.00000   2.08026
   R38        2.08066   0.00000   0.00000   0.00000   0.00000   2.08067
    A1        2.12706   0.00001   0.00000   0.00005   0.00005   2.12711
    A2        2.12095  -0.00001   0.00000  -0.00002  -0.00002   2.12093
    A3        2.03518  -0.00000   0.00000  -0.00003  -0.00003   2.03515
    A4        2.14384   0.00000   0.00000   0.00001   0.00001   2.14384
    A5        2.08866  -0.00001   0.00000  -0.00003  -0.00003   2.08862
    A6        2.05069   0.00000   0.00000   0.00003   0.00003   2.05072
    A7        1.96486   0.00000   0.00000   0.00002   0.00002   1.96489
    A8        1.92460   0.00000   0.00000   0.00001   0.00001   1.92461
    A9        1.92267  -0.00000   0.00000  -0.00003  -0.00003   1.92264
   A10        1.89970   0.00000   0.00000   0.00002   0.00002   1.89973
   A11        1.89954   0.00000   0.00000  -0.00000  -0.00000   1.89953
   A12        1.84858  -0.00000   0.00000  -0.00003  -0.00003   1.84855
   A13        2.17349  -0.00000   0.00000  -0.00003  -0.00003   2.17346
   A14        1.95922   0.00001   0.00000   0.00004   0.00004   1.95927
   A15        2.15047  -0.00000   0.00000  -0.00001  -0.00001   2.15046
   A16        2.02971   0.00000   0.00000   0.00002   0.00002   2.02973
   A17        1.89536  -0.00000   0.00000   0.00000   0.00000   1.89536
   A18        1.89547  -0.00000   0.00000  -0.00003  -0.00003   1.89544
   A19        1.87371   0.00000   0.00000  -0.00000  -0.00000   1.87371
   A20        1.88077   0.00000   0.00000   0.00001   0.00001   1.88077
   A21        1.95833  -0.00000   0.00000   0.00003   0.00003   1.95836
   A22        1.95858   0.00000   0.00000  -0.00001  -0.00001   1.95857
   A23        2.13543  -0.00001   0.00000  -0.00012  -0.00012   2.13530
   A24        2.14297   0.00001   0.00000   0.00012   0.00012   2.14309
   A25        1.98813   0.00000   0.00000  -0.00000  -0.00000   1.98813
   A26        1.86743   0.00000   0.00000  -0.00001  -0.00001   1.86742
   A27        1.87379  -0.00000   0.00000  -0.00003  -0.00003   1.87376
   A28        1.78737   0.00000   0.00000  -0.00000  -0.00000   1.78737
   A29        1.86257  -0.00000   0.00000   0.00002   0.00002   1.86258
   A30        1.89013   0.00000   0.00000   0.00002   0.00002   1.89016
   A31        1.98167  -0.00000   0.00000  -0.00002  -0.00002   1.98165
   A32        2.00222   0.00000   0.00000  -0.00001  -0.00001   2.00221
   A33        1.92707   0.00000   0.00000  -0.00000  -0.00000   1.92707
   A34        1.79357  -0.00000   0.00000  -0.00002  -0.00002   1.79355
   A35        1.85526   0.00000   0.00000  -0.00001  -0.00001   1.85525
   A36        1.89149  -0.00000   0.00000  -0.00000  -0.00000   1.89149
   A37        1.98035   0.00000   0.00000   0.00001   0.00001   1.98035
   A38        2.00187   0.00000   0.00000   0.00002   0.00002   2.00189
   A39        1.92831  -0.00000   0.00000   0.00000   0.00000   1.92831
   A40        1.94009  -0.00000   0.00000  -0.00001  -0.00001   1.94008
   A41        1.89653  -0.00000   0.00000   0.00000   0.00000   1.89653
   A42        1.94180   0.00000   0.00000   0.00001   0.00001   1.94181
   A43        1.88457   0.00000   0.00000   0.00000   0.00000   1.88457
   A44        1.91080  -0.00000   0.00000  -0.00001  -0.00001   1.91080
   A45        1.88837   0.00000   0.00000   0.00001   0.00001   1.88837
   A46        1.95151  -0.00000   0.00000  -0.00000  -0.00000   1.95150
   A47        1.92770  -0.00000   0.00000  -0.00001  -0.00001   1.92770
   A48        1.91303  -0.00000   0.00000   0.00000   0.00000   1.91303
   A49        1.89627  -0.00000   0.00000  -0.00001  -0.00001   1.89627
   A50        1.88868   0.00000   0.00000   0.00001   0.00001   1.88869
   A51        1.88502   0.00000   0.00000   0.00001   0.00001   1.88503
   A52        1.89963   0.00000   0.00000   0.00000   0.00000   1.89963
   A53        1.94646  -0.00000   0.00000  -0.00001  -0.00001   1.94645
   A54        1.94248   0.00000   0.00000   0.00001   0.00001   1.94250
   A55        1.89122  -0.00000   0.00000  -0.00001  -0.00001   1.89122
   A56        1.88680  -0.00000   0.00000   0.00001   0.00001   1.88681
   A57        1.89564  -0.00000   0.00000  -0.00001  -0.00001   1.89564
   A58        1.91421   0.00000   0.00000   0.00001   0.00001   1.91422
   A59        1.94674  -0.00000   0.00000   0.00000   0.00000   1.94674
   A60        1.92888  -0.00000   0.00000  -0.00001  -0.00001   1.92887
   A61        1.88985   0.00000   0.00000   0.00001   0.00001   1.88986
   A62        1.88588  -0.00000   0.00000  -0.00000  -0.00000   1.88588
   A63        1.89681  -0.00000   0.00000  -0.00001  -0.00001   1.89680
   A64        1.93561   0.00000   0.00000  -0.00000  -0.00000   1.93561
   A65        1.91433   0.00000   0.00000  -0.00000  -0.00000   1.91433
   A66        1.93564   0.00000   0.00000   0.00001   0.00001   1.93564
   A67        1.89129  -0.00000   0.00000   0.00001   0.00001   1.89129
   A68        1.89453  -0.00000   0.00000  -0.00000  -0.00000   1.89453
   A69        1.89131  -0.00000   0.00000  -0.00001  -0.00001   1.89130
    D1       -0.00410  -0.00000   0.00000  -0.00001  -0.00001  -0.00411
    D2        3.13431  -0.00000   0.00000  -0.00007  -0.00007   3.13424
    D3        3.13648  -0.00000   0.00000   0.00010   0.00010   3.13659
    D4       -0.00830  -0.00000   0.00000   0.00005   0.00005  -0.00825
    D5        0.00473  -0.00000   0.00000   0.00010   0.00010   0.00483
    D6        2.13001   0.00000   0.00000   0.00015   0.00015   2.13016
    D7       -2.11895  -0.00000   0.00000   0.00011   0.00011  -2.11884
    D8       -3.13590  -0.00000   0.00000  -0.00001  -0.00001  -3.13591
    D9       -1.01062   0.00000   0.00000   0.00005   0.00005  -1.01058
   D10        1.02361  -0.00000   0.00000  -0.00000  -0.00000   1.02361
   D11        1.72923  -0.00000   0.00000  -0.00009  -0.00009   1.72914
   D12       -1.61940   0.00000   0.00000  -0.00014  -0.00014  -1.61954
   D13       -1.41332  -0.00000   0.00000   0.00002   0.00002  -1.41330
   D14        1.52124   0.00000   0.00000  -0.00003  -0.00003   1.52121
   D15       -0.00349  -0.00000   0.00000   0.00002   0.00002  -0.00347
   D16        3.13929   0.00000   0.00000   0.00003   0.00003   3.13932
   D17        3.13509  -0.00000   0.00000  -0.00004  -0.00004   3.13505
   D18       -0.00532  -0.00000   0.00000  -0.00002  -0.00002  -0.00534
   D19        3.14077  -0.00000   0.00000  -0.00015  -0.00015   3.14062
   D20        0.00034  -0.00000   0.00000  -0.00013  -0.00013   0.00021
   D21       -1.02437   0.00000   0.00000   0.00096   0.00096  -1.02341
   D22        1.01636   0.00000   0.00000   0.00095   0.00095   1.01731
   D23        3.13777   0.00000   0.00000   0.00093   0.00093   3.13869
   D24        1.05274  -0.00000   0.00000   0.00008   0.00008   1.05282
   D25        3.14110   0.00000   0.00000   0.00009   0.00009   3.14119
   D26       -1.05368   0.00000   0.00000   0.00008   0.00008  -1.05360
   D27       -1.02836   0.00000   0.00000   0.00007   0.00007  -1.02829
   D28        1.06001   0.00000   0.00000   0.00007   0.00007   1.06008
   D29       -3.13477   0.00000   0.00000   0.00006   0.00006  -3.13471
   D30        3.13412  -0.00000   0.00000   0.00004   0.00004   3.13416
   D31       -1.06071  -0.00000   0.00000   0.00005   0.00005  -1.06066
   D32        1.02770  -0.00000   0.00000   0.00004   0.00004   1.02774
   D33       -3.12295   0.00000   0.00000  -0.00002  -0.00002  -3.12297
   D34        0.20883  -0.00000   0.00000   0.00000   0.00000   0.20884
   D35       -2.85560  -0.00000   0.00000   0.00014   0.00014  -2.85546
   D36        0.09487   0.00000   0.00000   0.00008   0.00008   0.09495
   D37       -0.39272  -0.00000   0.00000  -0.00009  -0.00009  -0.39281
   D38        1.69372  -0.00000   0.00000  -0.00011  -0.00011   1.69361
   D39       -2.51473  -0.00000   0.00000  -0.00009  -0.00009  -2.51482
   D40       -0.32979  -0.00000   0.00000  -0.00012  -0.00012  -0.32991
   D41        1.75495   0.00000   0.00000  -0.00013  -0.00013   1.75482
   D42       -2.45529  -0.00000   0.00000  -0.00013  -0.00013  -2.45542
   D43        0.43553   0.00000   0.00000   0.00013   0.00013   0.43566
   D44       -1.55994  -0.00000   0.00000   0.00015   0.00015  -1.55979
   D45        2.48426  -0.00000   0.00000   0.00013   0.00013   2.48439
   D46       -1.56555   0.00000   0.00000   0.00012   0.00012  -1.56543
   D47        2.72216   0.00000   0.00000   0.00014   0.00014   2.72230
   D48        0.48318   0.00000   0.00000   0.00012   0.00012   0.48330
   D49        2.47888   0.00000   0.00000   0.00015   0.00015   2.47903
   D50        0.48340   0.00000   0.00000   0.00017   0.00017   0.48358
   D51       -1.75558   0.00000   0.00000   0.00015   0.00015  -1.75543
   D52       -1.05509   0.00000   0.00000   0.00000   0.00000  -1.05508
   D53        1.01644   0.00000   0.00000   0.00000   0.00000   1.01644
   D54        3.09365   0.00000   0.00000   0.00002   0.00002   3.09367
   D55        0.90075   0.00000   0.00000  -0.00000  -0.00000   0.90075
   D56        2.97227   0.00000   0.00000  -0.00000  -0.00000   2.97227
   D57       -1.23370   0.00000   0.00000   0.00001   0.00001  -1.23369
   D58       -3.10560  -0.00000   0.00000  -0.00003  -0.00003  -3.10563
   D59       -1.03408  -0.00000   0.00000  -0.00003  -0.00003  -1.03411
   D60        1.04314   0.00000   0.00000  -0.00002  -0.00002   1.04312
   D61        0.94966   0.00000   0.00000   0.00000   0.00000   0.94966
   D62        3.06359   0.00000   0.00000  -0.00001  -0.00001   3.06358
   D63       -1.14471   0.00000   0.00000  -0.00001  -0.00001  -1.14471
   D64       -1.03415  -0.00000   0.00000  -0.00001  -0.00001  -1.03416
   D65        1.07978  -0.00000   0.00000  -0.00002  -0.00002   1.07976
   D66       -3.12852  -0.00000   0.00000  -0.00002  -0.00002  -3.12854
   D67        2.98311   0.00000   0.00000   0.00003   0.00003   2.98314
   D68       -1.18614   0.00000   0.00000   0.00002   0.00002  -1.18613
   D69        0.88874   0.00000   0.00000   0.00003   0.00003   0.88877
   D70        0.98893   0.00000   0.00000  -0.00002  -0.00002   0.98891
   D71        3.07449  -0.00000   0.00000  -0.00003  -0.00003   3.07445
   D72       -1.08874  -0.00000   0.00000  -0.00004  -0.00004  -1.08878
   D73        2.94721   0.00000   0.00000  -0.00004  -0.00004   2.94716
   D74       -1.25042  -0.00000   0.00000  -0.00006  -0.00006  -1.25048
   D75        0.86954  -0.00000   0.00000  -0.00006  -0.00006   0.86948
   D76       -1.05966   0.00000   0.00000  -0.00001  -0.00001  -1.05967
   D77        1.02590   0.00000   0.00000  -0.00003  -0.00003   1.02587
   D78       -3.13733   0.00000   0.00000  -0.00003  -0.00003  -3.13736
   D79       -1.13893  -0.00000   0.00000  -0.00003  -0.00003  -1.13896
   D80        0.95463   0.00000   0.00000  -0.00000  -0.00000   0.95462
   D81        3.06684  -0.00000   0.00000  -0.00002  -0.00002   3.06681
   D82       -3.13110   0.00000   0.00000  -0.00001  -0.00001  -3.13111
   D83       -1.03754   0.00000   0.00000   0.00001   0.00001  -1.03753
   D84        1.07467   0.00000   0.00000  -0.00001  -0.00001   1.07466
   D85        0.88720  -0.00000   0.00000  -0.00004  -0.00004   0.88716
   D86        2.98075   0.00000   0.00000  -0.00002  -0.00002   2.98074
   D87       -1.19022  -0.00000   0.00000  -0.00003  -0.00003  -1.19025
         Item               Value     Threshold  Converged?
 Maximum Force            0.000016     0.000450     YES
 RMS     Force            0.000003     0.000300     YES
 Maximum Displacement     0.002821     0.001800     NO 
 RMS     Displacement     0.000567     0.001200     YES
 Predicted change in Energy=-7.409650D-09
                           ----------------------------
                           ! Non-Optimized Parameters !
                           ! (Angstroms and Degrees)  !
 --------------------------                            --------------------------
 ! Name  Definition              Value          Derivative Info.                !
 --------------------------------------------------------------------------------
 ! R1    R(1,2)                  1.3468         -DE/DX =    0.0                 !
 ! R2    R(1,4)                  1.5031         -DE/DX =    0.0                 !
 ! R3    R(1,14)                 1.5748         -DE/DX =    0.0                 !
 ! R4    R(2,3)                  1.0934         -DE/DX =    0.0                 !
 ! R5    R(2,8)                  1.4728         -DE/DX =    0.0                 !
 ! R6    R(4,5)                  1.1001         -DE/DX =    0.0                 !
 ! R7    R(4,6)                  1.1041         -DE/DX =    0.0                 !
 ! R8    R(4,7)                  1.104          -DE/DX =    0.0                 !
 ! R9    R(8,9)                  1.225          -DE/DX =    0.0                 !
 ! R10   R(8,10)                 1.3436         -DE/DX =    0.0                 !
 ! R11   R(10,11)                1.4496         -DE/DX =    0.0                 !
 ! R12   R(11,12)                1.1011         -DE/DX =    0.0                 !
 ! R13   R(11,13)                1.1011         -DE/DX =    0.0                 !
 ! R14   R(11,35)                1.5129         -DE/DX =    0.0                 !
 ! R15   R(14,15)                1.3714         -DE/DX =    0.0                 !
 ! R16   R(14,16)                1.3711         -DE/DX =    0.0                 !
 ! R17   R(15,17)                1.4655         -DE/DX =    0.0                 !
 ! R18   R(16,18)                1.464          -DE/DX =    0.0                 !
 ! R19   R(17,18)                1.5759         -DE/DX =    0.0                 !
 ! R20   R(17,19)                1.5295         -DE/DX =    0.0                 !
 ! R21   R(17,20)                1.5228         -DE/DX =    0.0                 !
 ! R22   R(18,21)                1.5295         -DE/DX =    0.0                 !
 ! R23   R(18,22)                1.5226         -DE/DX =    0.0                 !
 ! R24   R(19,23)                1.0976         -DE/DX =    0.0                 !
 ! R25   R(19,24)                1.1005         -DE/DX =    0.0                 !
 ! R26   R(19,25)                1.0998         -DE/DX =    0.0                 !
 ! R27   R(20,26)                1.0975         -DE/DX =    0.0                 !
 ! R28   R(20,27)                1.101          -DE/DX =    0.0                 !
 ! R29   R(20,28)                1.1003         -DE/DX =    0.0                 !
 ! R30   R(21,29)                1.1            -DE/DX =    0.0                 !
 ! R31   R(21,30)                1.0998         -DE/DX =    0.0                 !
 ! R32   R(21,31)                1.0999         -DE/DX =    0.0                 !
 ! R33   R(22,32)                1.1003         -DE/DX =    0.0                 !
 ! R34   R(22,33)                1.0974         -DE/DX =    0.0                 !
 ! R35   R(22,34)                1.1009         -DE/DX =    0.0                 !
 ! R36   R(35,36)                1.101          -DE/DX =    0.0                 !
 ! R37   R(35,37)                1.1008         -DE/DX =    0.0                 !
 ! R38   R(35,38)                1.101          -DE/DX =    0.0                 !
 ! A1    A(2,1,4)              121.8742         -DE/DX =    0.0                 !
 ! A2    A(2,1,14)             121.5202         -DE/DX =    0.0                 !
 ! A3    A(4,1,14)             116.6056         -DE/DX =    0.0                 !
 ! A4    A(1,2,3)              122.833          -DE/DX =    0.0                 !
 ! A5    A(1,2,8)              119.6693         -DE/DX =    0.0                 !
 ! A6    A(3,2,8)              117.4974         -DE/DX =    0.0                 !
 ! A7    A(1,4,5)              112.5798         -DE/DX =    0.0                 !
 ! A8    A(1,4,6)              110.2723         -DE/DX =    0.0                 !
 ! A9    A(1,4,7)              110.1593         -DE/DX =    0.0                 !
 ! A10   A(5,4,6)              108.8463         -DE/DX =    0.0                 !
 ! A11   A(5,4,7)              108.8353         -DE/DX =    0.0                 !
 ! A12   A(6,4,7)              105.9142         -DE/DX =    0.0                 !
 ! A13   A(2,8,9)              124.5298         -DE/DX =    0.0                 !
 ! A14   A(2,8,10)             112.2577         -DE/DX =    0.0                 !
 ! A15   A(9,8,10)             123.2124         -DE/DX =    0.0                 !
 ! A16   A(8,10,11)            116.2951         -DE/DX =    0.0                 !
 ! A17   A(10,11,12)           108.5961         -DE/DX =    0.0                 !
 ! A18   A(10,11,13)           108.6008         -DE/DX =    0.0                 !
 ! A19   A(10,11,35)           107.3558         -DE/DX =    0.0                 !
 ! A20   A(12,11,13)           107.7604         -DE/DX =    0.0                 !
 ! A21   A(12,11,35)           112.2058         -DE/DX =    0.0                 !
 ! A22   A(13,11,35)           112.2181         -DE/DX =    0.0                 !
 ! A23   A(1,14,15)            122.3439         -DE/DX =    0.0                 !
 ! A24   A(1,14,16)            122.7902         -DE/DX =    0.0                 !
 ! A25   A(15,14,16)           113.9113         -DE/DX =    0.0                 !
 ! A26   A(14,15,17)           106.9954         -DE/DX =    0.0                 !
 ! A27   A(14,16,18)           107.3586         -DE/DX =    0.0                 !
 ! A28   A(15,17,18)           102.4088         -DE/DX =    0.0                 !
 ! A29   A(15,17,19)           106.7182         -DE/DX =    0.0                 !
 ! A30   A(15,17,20)           108.298          -DE/DX =    0.0                 !
 ! A31   A(18,17,19)           113.5402         -DE/DX =    0.0                 !
 ! A32   A(18,17,20)           114.7182         -DE/DX =    0.0                 !
 ! A33   A(19,17,20)           110.4129         -DE/DX =    0.0                 !
 ! A34   A(16,18,17)           102.7627         -DE/DX =    0.0                 !
 ! A35   A(16,18,21)           106.2977         -DE/DX =    0.0                 !
 ! A36   A(16,18,22)           108.3745         -DE/DX =    0.0                 !
 ! A37   A(17,18,21)           113.4658         -DE/DX =    0.0                 !
 ! A38   A(17,18,22)           114.6997         -DE/DX =    0.0                 !
 ! A39   A(21,18,22)           110.4842         -DE/DX =    0.0                 !
 ! A40   A(17,19,23)           111.1581         -DE/DX =    0.0                 !
 ! A41   A(17,19,24)           108.6633         -DE/DX =    0.0                 !
 ! A42   A(17,19,25)           111.2574         -DE/DX =    0.0                 !
 ! A43   A(23,19,24)           107.978          -DE/DX =    0.0                 !
 ! A44   A(23,19,25)           109.4806         -DE/DX =    0.0                 !
 ! A45   A(24,19,25)           108.1959         -DE/DX =    0.0                 !
 ! A46   A(17,20,26)           111.8128         -DE/DX =    0.0                 !
 ! A47   A(17,20,27)           110.4489         -DE/DX =    0.0                 !
 ! A48   A(17,20,28)           109.6087         -DE/DX =    0.0                 !
 ! A49   A(26,20,27)           108.6481         -DE/DX =    0.0                 !
 ! A50   A(26,20,28)           108.2141         -DE/DX =    0.0                 !
 ! A51   A(27,20,28)           108.004          -DE/DX =    0.0                 !
 ! A52   A(18,21,29)           108.8408         -DE/DX =    0.0                 !
 ! A53   A(18,21,30)           111.5235         -DE/DX =    0.0                 !
 ! A54   A(18,21,31)           111.2968         -DE/DX =    0.0                 !
 ! A55   A(29,21,30)           108.3587         -DE/DX =    0.0                 !
 ! A56   A(29,21,31)           108.1065         -DE/DX =    0.0                 !
 ! A57   A(30,21,31)           108.6121         -DE/DX =    0.0                 !
 ! A58   A(18,22,32)           109.677          -DE/DX =    0.0                 !
 ! A59   A(18,22,33)           111.54           -DE/DX =    0.0                 !
 ! A60   A(18,22,34)           110.5163         -DE/DX =    0.0                 !
 ! A61   A(32,22,33)           108.2811         -DE/DX =    0.0                 !
 ! A62   A(32,22,34)           108.053          -DE/DX =    0.0                 !
 ! A63   A(33,22,34)           108.6788         -DE/DX =    0.0                 !
 ! A64   A(11,35,36)           110.902          -DE/DX =    0.0                 !
 ! A65   A(11,35,37)           109.6832         -DE/DX =    0.0                 !
 ! A66   A(11,35,38)           110.9041         -DE/DX =    0.0                 !
 ! A67   A(36,35,37)           108.3631         -DE/DX =    0.0                 !
 ! A68   A(36,35,38)           108.5485         -DE/DX =    0.0                 !
 ! A69   A(37,35,38)           108.3634         -DE/DX =    0.0                 !
 ! D1    D(4,1,2,3)             -0.2355         -DE/DX =    0.0                 !
 ! D2    D(4,1,2,8)            179.5787         -DE/DX =    0.0                 !
 ! D3    D(14,1,2,3)           179.7131         -DE/DX =    0.0                 !
 ! D4    D(14,1,2,8)            -0.4727         -DE/DX =    0.0                 !
 ! D5    D(2,1,4,5)              0.2768         -DE/DX =    0.0                 !
 ! D6    D(2,1,4,6)            122.0493         -DE/DX =    0.0                 !
 ! D7    D(2,1,4,7)           -121.4006         -DE/DX =    0.0                 !
 ! D8    D(14,1,4,5)          -179.6742         -DE/DX =    0.0                 !
 ! D9    D(14,1,4,6)           -57.9017         -DE/DX =    0.0                 !
 ! D10   D(14,1,4,7)            58.6484         -DE/DX =    0.0                 !
 ! D11   D(2,1,14,15)           99.0725         -DE/DX =    0.0                 !
 ! D12   D(2,1,14,16)          -92.7925         -DE/DX =    0.0                 !
 ! D13   D(4,1,14,15)          -80.9763         -DE/DX =    0.0                 !
 ! D14   D(4,1,14,16)           87.1587         -DE/DX =    0.0                 !
 ! D15   D(1,2,8,9)             -0.1988         -DE/DX =    0.0                 !
 ! D16   D(1,2,8,10)           179.8698         -DE/DX =    0.0                 !
 ! D17   D(3,2,8,9)            179.6252         -DE/DX =    0.0                 !
 ! D18   D(3,2,8,10)            -0.3062         -DE/DX =    0.0                 !
 ! D19   D(2,8,10,11)          179.9444         -DE/DX =    0.0                 !
 ! D20   D(9,8,10,11)            0.012          -DE/DX =    0.0                 !
 ! D21   D(8,10,11,12)         -58.6372         -DE/DX =    0.0                 !
 ! D22   D(8,10,11,13)          58.2874         -DE/DX =    0.0                 !
 ! D23   D(8,10,11,35)         179.8338         -DE/DX =    0.0                 !
 ! D24   D(10,11,35,36)         60.3221         -DE/DX =    0.0                 !
 ! D25   D(10,11,35,37)        179.9769         -DE/DX =    0.0                 !
 ! D26   D(10,11,35,38)        -60.3667         -DE/DX =    0.0                 !
 ! D27   D(12,11,35,36)        -58.9168         -DE/DX =    0.0                 !
 ! D28   D(12,11,35,37)         60.738          -DE/DX =    0.0                 !
 ! D29   D(12,11,35,38)       -179.6056         -DE/DX =    0.0                 !
 ! D30   D(13,11,35,36)        179.574          -DE/DX =    0.0                 !
 ! D31   D(13,11,35,37)        -60.7712         -DE/DX =    0.0                 !
 ! D32   D(13,11,35,38)         58.8852         -DE/DX =    0.0                 !
 ! D33   D(1,14,15,17)        -178.9331         -DE/DX =    0.0                 !
 ! D34   D(16,14,15,17)         11.9656         -DE/DX =    0.0                 !
 ! D35   D(1,14,16,18)        -163.6059         -DE/DX =    0.0                 !
 ! D36   D(15,14,16,18)          5.4404         -DE/DX =    0.0                 !
 ! D37   D(14,15,17,18)        -22.5064         -DE/DX =    0.0                 !
 ! D38   D(14,15,17,19)         97.0369         -DE/DX =    0.0                 !
 ! D39   D(14,15,17,20)       -144.0884         -DE/DX =    0.0                 !
 ! D40   D(14,16,18,17)        -18.9024         -DE/DX =    0.0                 !
 ! D41   D(14,16,18,21)        100.544          -DE/DX =    0.0                 !
 ! D42   D(14,16,18,22)       -140.6855         -DE/DX =    0.0                 !
 ! D43   D(15,17,18,16)         24.9615         -DE/DX =    0.0                 !
 ! D44   D(15,17,18,21)        -89.3696         -DE/DX =    0.0                 !
 ! D45   D(15,17,18,22)        142.3449         -DE/DX =    0.0                 !
 ! D46   D(19,17,18,16)        -89.6925         -DE/DX =    0.0                 !
 ! D47   D(19,17,18,21)        155.9764         -DE/DX =    0.0                 !
 ! D48   D(19,17,18,22)         27.6909         -DE/DX =    0.0                 !
 ! D49   D(20,17,18,16)        142.038          -DE/DX =    0.0                 !
 ! D50   D(20,17,18,21)         27.7069         -DE/DX =    0.0                 !
 ! D51   D(20,17,18,22)       -100.5786         -DE/DX =    0.0                 !
 ! D52   D(15,17,19,23)        -60.4517         -DE/DX =    0.0                 !
 ! D53   D(15,17,19,24)         58.2376         -DE/DX =    0.0                 !
 ! D54   D(15,17,19,25)        177.2541         -DE/DX =    0.0                 !
 ! D55   D(18,17,19,23)         51.6089         -DE/DX =    0.0                 !
 ! D56   D(18,17,19,24)        170.2983         -DE/DX =    0.0                 !
 ! D57   D(18,17,19,25)        -70.6852         -DE/DX =    0.0                 !
 ! D58   D(20,17,19,23)       -177.9396         -DE/DX =    0.0                 !
 ! D59   D(20,17,19,24)        -59.2503         -DE/DX =    0.0                 !
 ! D60   D(20,17,19,25)         59.7662         -DE/DX =    0.0                 !
 ! D61   D(15,17,20,26)         54.4117         -DE/DX =    0.0                 !
 ! D62   D(15,17,20,27)        175.5302         -DE/DX =    0.0                 !
 ! D63   D(15,17,20,28)        -65.5872         -DE/DX =    0.0                 !
 ! D64   D(18,17,20,26)        -59.2529         -DE/DX =    0.0                 !
 ! D65   D(18,17,20,27)         61.8656         -DE/DX =    0.0                 !
 ! D66   D(18,17,20,28)       -179.2519         -DE/DX =    0.0                 !
 ! D67   D(19,17,20,26)        170.9214         -DE/DX =    0.0                 !
 ! D68   D(19,17,20,27)        -67.96           -DE/DX =    0.0                 !
 ! D69   D(19,17,20,28)         50.9225         -DE/DX =    0.0                 !
 ! D70   D(16,18,21,29)         56.6604         -DE/DX =    0.0                 !
 ! D71   D(16,18,21,30)        176.1533         -DE/DX =    0.0                 !
 ! D72   D(16,18,21,31)        -62.3824         -DE/DX =    0.0                 !
 ! D73   D(17,18,21,29)        168.8601         -DE/DX =    0.0                 !
 ! D74   D(17,18,21,30)        -71.647          -DE/DX =    0.0                 !
 ! D75   D(17,18,21,31)         49.8173         -DE/DX =    0.0                 !
 ! D76   D(22,18,21,29)        -60.7149         -DE/DX =    0.0                 !
 ! D77   D(22,18,21,30)         58.7781         -DE/DX =    0.0                 !
 ! D78   D(22,18,21,31)       -179.7576         -DE/DX =    0.0                 !
 ! D79   D(16,18,22,32)        -65.2576         -DE/DX =    0.0                 !
 ! D80   D(16,18,22,33)         54.6958         -DE/DX =    0.0                 !
 ! D81   D(16,18,22,34)        175.7155         -DE/DX =    0.0                 !
 ! D82   D(17,18,22,32)       -179.3996         -DE/DX =    0.0                 !
 ! D83   D(17,18,22,33)        -59.4463         -DE/DX =    0.0                 !
 ! D84   D(17,18,22,34)         61.5735         -DE/DX =    0.0                 !
 ! D85   D(21,18,22,32)         50.8304         -DE/DX =    0.0                 !
 ! D86   D(21,18,22,33)        170.7837         -DE/DX =    0.0                 !
 ! D87   D(21,18,22,34)        -68.1965         -DE/DX =    0.0                 !
 --------------------------------------------------------------------------------
 GradGradGradGradGradGradGradGradGradGradGradGradGradGradGradGradGradGrad

 Leave Link  103 at Tue Aug 18 15:37:30 2026, MaxMem=  2684354560 cpu:               0.0 elap:               0.1
 (Enter /mnt/data/applications/G16/g16/l9999.exe)

 ----------------------------------------------------------------------

 Electric dipole moment (input orientation):
 (Debye = 10**-18 statcoulomb cm , SI units = C m)
                  (au)            (Debye)         (10**-30 SI)
   Tot        0.251817D+00      0.640056D+00      0.213500D+01
   x         -0.236062D+00     -0.600009D+00     -0.200141D+01
   y         -0.803118D-01     -0.204132D+00     -0.680912D+00
   z          0.351699D-01      0.893929D-01      0.298183D+00

 Dipole polarizability, Alpha (input orientation).
 (esu units = cm**3 , SI units = C**2 m**2 J**-1)
 Alpha(0;0):
               (au)            (10**-24 esu)      (10**-40 SI)
   iso        0.200429D+03      0.297006D+02      0.330463D+02
   aniso      0.699268D+02      0.103621D+02      0.115294D+02
   xx         0.209241D+03      0.310062D+02      0.344991D+02
   yx         0.170521D+02      0.252686D+01      0.281151D+01
   yy         0.231777D+03      0.343457D+02      0.382148D+02
   zx        -0.162513D+01     -0.240819D+00     -0.267947D+00
   zy         0.117287D+00      0.173801D-01      0.193380D-01
   zz         0.160271D+03      0.237497D+02      0.264251D+02

 ----------------------------------------------------------------------

 Dipole orientation:
     6         -0.60497984          1.16447370          1.57877825
     6         -0.81673819          2.74873468         -0.40180175
     1         -0.45973521          2.16049803         -2.35007250
     6          0.13581470         -1.55783086          1.24929128
     1          0.47593353         -2.05737737         -0.73987593
     1          1.85578183         -1.97765287          2.35315503
     1         -1.35228587         -2.80538906          2.01212102
     6         -1.56589465          5.39513551          0.02467636
     8         -2.03533641          6.30798957          2.09961458
     8         -1.68419844          6.72145774         -2.13731391
     6         -2.41009260          9.35288524         -1.90841669
     1         -4.28609425          9.44826490         -1.01342328
     1         -1.05675144         10.30760250         -0.64894442
     5         -1.12088060          2.07769709          4.36372229
     8         -3.37376992          1.64641581          5.56959508
     8          0.75390524          2.95411265          5.92280272
     6         -3.18020093          2.79556250          8.08187729
     6         -0.23483038          2.91374714          8.50634549
     6         -4.42631944          5.39749044          7.90425144
     6         -4.59915124          1.12856610          9.94954393
     6          0.84477548          0.53911683          9.75099417
     6          0.68985378          5.27359599          9.86836678
     1         -3.46263204          6.59565708          6.51225562
     1         -6.39618779          5.15106074          7.28479366
     1         -4.44107957          6.35347476          9.74968678
     1         -3.93347294         -0.83486261          9.89022626
     1         -4.37046955          1.85029992         11.88740361
     1         -6.62790175          1.14099074          9.49438357
     1          2.91934354          0.60514800          9.63639100
     1          0.30343403          0.41461435         11.75370022
     1          0.19869402         -1.18189593          8.78092471
     1          2.75893538          5.20437707         10.06263493
     1          0.19141246          6.99739094          8.82863023
     1         -0.13342363          5.38437591         11.77569266
     6         -2.41058407         10.46949345         -4.54031428
     1         -3.76587586          9.47654090         -5.76771107
     1         -2.95532314         12.47514577         -4.45041895
     1         -0.52080187         10.34146056         -5.40141652

 Electric dipole moment (dipole orientation):
 (Debye = 10**-18 statcoulomb cm , SI units = C m)
                  (au)            (Debye)         (10**-30 SI)
   Tot        0.251817D+00      0.640056D+00      0.213500D+01
   x          0.000000D+00      0.000000D+00      0.000000D+00
   y          0.000000D+00      0.000000D+00      0.000000D+00
   z          0.251817D+00      0.640056D+00      0.213500D+01

 Dipole polarizability, Alpha (dipole orientation).
 (esu units = cm**3 , SI units = C**2 m**2 J**-1)
 Alpha(0;0):
               (au)            (10**-24 esu)      (10**-40 SI)
   iso        0.200429D+03      0.297006D+02      0.330463D+02
   aniso      0.699268D+02      0.103621D+02      0.115294D+02
   xx         0.164955D+03      0.244438D+02      0.271974D+02
   yx        -0.149250D+02     -0.221166D+01     -0.246081D+01
   yy         0.215144D+03      0.318811D+02      0.354725D+02
   zx        -0.240521D+00     -0.356415D-01     -0.396566D-01
   zy        -0.213106D+02     -0.315790D+01     -0.351364D+01
   zz         0.221189D+03      0.327768D+02      0.364691D+02

 ----------------------------------------------------------------------
 1\1\GINC-KIMIK2196\Freq\RB3LYP\Gen\C12H21B1O4\ASOLE\18-Aug-2026\0\\#P 
 Geom=AllCheck Guess=TCheck SCRF=Check GenChk RB3LYP/ChkBas Freq\\Title
  Card Required\\0,1\C,-1.01812,0.37875,0.0131\C,-0.2812,1.50594,0.0290
 5\H,0.81018,1.50169,-0.03712\C,-0.38702,-0.98049,-0.10321\H,0.71029,-0
 .93275,-0.16581\H,-0.66798,-1.60789,0.76074\H,-0.77251,-1.50391,-0.995
 58\C,-0.95089,2.81339,0.13557\O,-2.16379,2.96832,0.21011\O,-0.07685,3.
 83391,0.14094\C,-0.64363,5.16426,0.24187\H,-1.3281,5.31961,-0.60651\H,
 -1.23701,5.22395,1.16743\B,-2.58891,0.42048,0.11713\O,-3.40014,0.32186
 ,-0.98412\O,-3.25688,0.31948,1.31029\C,-4.78248,0.42482,-0.50848\C,-4.
 65266,0.00126,1.00394\C,-5.20652,1.88178,-0.70064\C,-5.64944,-0.49681,
 -1.35568\C,-4.80966,-1.50312,1.23072\C,-5.5439,0.78035,1.96158\H,-4.56
 559,2.56038,-0.12325\H,-5.10364,2.14102,-1.7652\H,-6.25648,2.03311,-0.
 41023\H,-5.26681,-1.52548,-1.36121\H,-6.68324,-0.50777,-0.97721\H,-5.6
 7113,-0.13237,-2.39362\H,-4.51067,-1.73995,2.26252\H,-5.85143,-1.82597
 ,1.08918\H,-4.16779,-2.07915,0.54807\H,-5.38002,0.42697,2.99066\H,-5.3
 278,1.8558,1.9284\H,-6.60517,0.62613,1.71284\C,0.5069,6.14666,0.23556\
 H,1.08944,6.0634,-0.69505\H,0.11789,7.17373,0.31047\H,1.18076,5.96794,
 1.08777\\Version=AM64L-G16RevA.03\HF=-795.9048404\RMSD=1.894e-09\RMSF=
 4.556e-06\ZeroPoint=0.320976\Thermal=0.3403892\Dipole=-0.2360617,-0.08
 03118,0.0351699\DipoleDeriv=-0.297338,0.0762801,0.0103496,0.0698879,0.
 6037736,0.0445094,0.0106651,0.0532978,-0.1755985,0.0794575,-0.1176976,
 -0.025193,0.0484339,-1.0807088,-0.0491915,-0.0211238,-0.0421238,-0.220
 2736,-0.1291156,0.0109957,0.0175523,0.0004374,0.0477288,-0.0044911,0.0
 180688,-0.0083028,0.1578394,0.0790929,-0.028212,-0.0012932,-0.0776366,
 -0.1825928,-0.0122988,-0.0010103,-0.0190619,0.0860811,-0.1841224,0.068
 4107,0.0198018,-0.0133153,0.0017833,-0.0032593,0.0163322,-0.0077464,0.
 0845364,0.0779145,0.0586687,0.0720028,-0.0163831,-0.0583451,0.0705402,
 0.0525001,0.1186773,-0.0270918,0.0634669,0.0573036,-0.077093,-0.015963
 4,-0.0347708,-0.0691773,-0.0642722,-0.1230646,-0.0313909,1.8873369,0.5
 541912,-0.0406969,0.3996447,2.7350057,0.099146,-0.0654483,0.0938415,0.
 3993236,-1.5100362,-0.0803728,0.033179,-0.0102609,-1.1568209,-0.029335
 ,0.0413093,-0.0410822,-0.4167024,-0.9954531,-0.6310532,-0.0035661,-0.6
 563788,-2.3521463,-0.0766536,0.0062539,-0.0717895,-0.3202503,0.3810052
 ,-0.1405006,-0.0055442,0.1705985,1.3478677,0.041887,0.0119225,0.058283
 1,0.4226662,-0.0235689,0.0677177,-0.0963716,-0.0607903,-0.0954638,-0.0
 297984,-0.1110562,0.0189987,-0.0734765,-0.0026767,0.0551549,0.0956685,
 -0.0682457,-0.0954295,0.0355662,0.09598,-0.0264604,-0.0921746,2.125328
 7,0.5351198,-0.0166565,0.4169647,0.8501306,-0.0471383,-0.013661,-0.216
 4262,1.5358076,-1.7864384,-0.1531679,-0.2624298,-0.0596329,-0.5897534,
 -0.0324069,-0.1762112,-0.0293987,-1.001283,-1.686278,-0.4509087,0.3282
 484,-0.2506363,-0.6507595,0.0570904,0.263593,0.1748624,-1.0583267,1.01
 10486,0.029241,0.1552633,-0.0542257,0.4748775,0.021433,-0.1340725,-0.0
 081711,0.3625384,0.9579525,0.1896616,-0.2181766,0.1524172,0.5538548,-0
 .0153454,0.0532561,0.0469894,0.3711012,-0.0047569,-0.0504053,-0.053812
 5,0.0537425,-0.1415265,-0.0160088,-0.0099086,0.0388097,0.049911,0.0018
 735,-0.0272647,-0.0375085,-0.0569714,-0.0054709,-0.0324263,-0.0691503,
 -0.0630771,0.0418489,0.020433,0.0322149,0.0363284,-0.042004,-0.1114981
 ,0.0185829,0.0002709,0.0648896,0.0544062,0.0074785,-0.0095096,0.044381
 8,0.0528939,-0.0231016,-0.0348073,0.0848068,-0.062501,0.0313087,0.1060
 56,-0.0385354,-0.053378,-0.0295688,-0.0242153,-0.0542892,-0.0591977,-0
 .0630825,0.0264657,0.086432,0.0028708,0.0363902,0.0172853,0.0276711,0.
 0430332,0.0041854,0.0895143,-0.1705788,-0.1611896,0.0448939,0.0517161,
 0.031435,0.0513292,0.0184573,0.065569,-0.0100388,0.0727342,0.0335157,0
 .0778127,-0.00831,0.0351108,-0.1457649,-0.0220766,-0.021807,-0.0117387
 ,0.0857768,-0.1331491,-0.0249486,0.0459076,-0.0050313,0.0689175,-0.027
 458,0.0822567,-0.0117542,0.0335217,0.0736203,-0.0190236,-0.0020448,-0.
 0132864,0.035959,0.0894025,-0.0496152,0.0460306,-0.1634181,0.0747172,0
 .0252385,-0.0746231,-0.0028551,0.0273111,0.0309703,-0.0524787,0.081505
 2,-0.1492544,-0.1455141,-0.0830113,-0.020621,-0.0595126,0.0184079,0.01
 57514,-0.0318681,-0.0134063,0.0852894,-0.0005519,0.0732125,0.0967212,0
 .0510769,-0.0264731,-0.0620196,0.0911975,-0.0900041,-0.0147585,0.06724
 9,0.0302122,-0.040648,0.0284855,0.0453121,0.0842253,0.0126679,0.054684
 7,-0.1660453,0.0560526,-0.0405477,0.0157062,-0.0077719,-0.1501736,-0.0
 172737,0.0229085,-0.0040466,0.0809503,-0.1496761,-0.0228845,-0.0190269
 ,-0.03487,0.0723286,-0.0301994,-0.0551505,-0.0157129,0.0457259,0.08035
 49,-0.0246552,0.0001877,-0.0469182,-0.0180785,-0.0043568,-0.0010082,-0
 .0055986,0.1095334,-0.0269175,-0.0533817,0.0876965,0.0046319,0.0693041
 ,-0.0381843,0.1109898,-0.0064026,-0.0878988,0.0142106,0.0485503,0.0065
 092,0.027885,-0.1512208,-0.0144627,0.0055203,-0.0158294,0.0913595,-0.0
 478144,-0.0416705,-0.0966169,0.0213271,0.0627513,0.0520632,-0.1132142,
 0.026436,-0.0602036\Polar=209.240541,17.0520668,231.7766014,-1.6251255
 ,0.1172871,160.2709894\Quadrupole=4.9444902,4.1017463,-9.0462365,4.145
 4421,-0.8973346,-0.0049454\PG=C01 [X(C12H21B1O4)]\NImag=0\\0.58757544,
 0.13581287,0.67955159,-0.01897429,0.02009595,0.17260761,-0.24228106,-0
 .20336936,0.00072542,0.73535604,-0.18584928,-0.36641754,-0.00569860,0.
 12031820,0.70616120,0.00177425,-0.00459648,-0.05059240,-0.03083305,0.0
 2419291,0.11330735,-0.01413794,0.00083986,0.00134828,-0.33249409,0.005
 75688,0.01829118,0.35349147,-0.02796136,0.00065694,0.00137155,0.003030
 62,-0.05367105,-0.00122299,-0.00166338,0.05405512,-0.00009223,-0.00030
 231,0.00742454,0.01814529,-0.00148356,-0.03587841,-0.01994975,0.001667
 73,0.02554994,-0.11378897,0.07372041,0.00697305,0.00950481,-0.01889111
 ,-0.00099113,0.00152660,-0.00190183,-0.00069169,0.57019697,0.04768018,
 -0.18188753,-0.00920860,0.01201833,-0.04083285,-0.00362896,0.00187857,
 0.00224337,0.00043684,0.02752246,0.48348801,0.00523099,-0.01070066,-0.
 07263678,0.00080131,-0.00171909,0.01118740,-0.00044819,0.00064654,-0.0
 0770268,-0.00177175,-0.00387300,0.51590965,-0.01431831,0.00063617,0.00
 092688,0.00206195,-0.00166728,-0.00026170,0.00048577,0.00095743,-0.000
 01961,-0.31244585,-0.01520907,0.01501240,0.33726329,0.03332473,-0.0017
 9254,-0.00209822,0.00181751,0.00219940,0.00006200,-0.00105611,-0.00007
 244,0.00003711,-0.01854438,-0.04650890,0.00105838,0.01459285,0.0518166
 7,0.00280169,-0.00022340,-0.00007920,-0.00005481,0.00032623,-0.0008707
 2,-0.00012014,-0.00008134,-0.00005663,0.01485159,0.00087529,-0.0459893
 2,-0.01666417,-0.00032172,0.04351428,0.00347600,0.00423606,-0.01222468
 ,-0.00017190,0.00265356,0.00059510,0.00016490,0.00010799,0.00005230,-0
 .06372297,-0.03478793,0.05509117,-0.00585533,-0.01667850,0.02386314,0.
 06312285,-0.00763428,-0.02012095,0.02231791,0.00331502,-0.00266712,-0.
 00082959,0.00013516,-0.00000411,0.00116581,-0.03715402,-0.12163220,0.1
 1815316,-0.00012953,-0.00126388,0.00040981,0.03887454,0.13784077,-0.00
 151787,-0.00305026,0.00437548,-0.00045745,-0.00086305,-0.00058126,0.00
 001430,-0.00002918,0.00018633,0.05503478,0.11750515,-0.20251101,-0.000
 46322,-0.00084478,-0.00046357,-0.05915003,-0.12736395,0.22003142,0.005
 01968,0.00300429,0.01234011,-0.00015116,0.00279354,-0.00031837,0.00015
 446,0.00011229,-0.00003368,-0.07906756,-0.04019603,-0.07587027,-0.0086
 5468,-0.01361132,-0.02466077,0.00205148,0.00373296,0.00649132,0.079816
 96,-0.01049002,-0.01768894,-0.02372758,0.00329647,-0.00273240,0.000229
 54,-0.00000544,0.00011821,-0.00119161,-0.04259194,-0.09560527,-0.10171
 768,-0.00029953,-0.00139821,-0.00064491,0.00617240,0.00824624,0.014391
 74,0.04478683,0.10965264,0.00019709,0.00004021,0.00028004,0.00080999,0
 .00035526,-0.00050144,-0.00001056,0.00000862,0.00006145,-0.07617047,-0
 .10121472,-0.21301640,0.00142133,0.00237764,0.00247746,-0.00862955,-0.
 01152318,-0.02086082,0.08264720,0.11023728,0.23145093,0.01496103,0.003
 82888,-0.00070122,-0.12651874,0.04432292,0.00542419,-0.00999936,0.0241
 1719,0.00174185,-0.00532619,-0.00693445,0.00082646,0.00019399,0.000557
 23,0.00001397,0.00129113,-0.00117493,-0.00008374,0.00122077,-0.0008377
 6,-0.00020002,0.90447111,0.00115698,-0.05231923,-0.00284612,0.07634118
 ,-0.18142477,-0.00994745,-0.00760152,0.00571216,0.00088430,0.00079336,
 0.00520803,-0.00051574,-0.00089143,0.00060792,0.00008168,-0.00172851,0
 .00127502,-0.00022564,-0.00165684,0.00094051,0.00053605,-0.06782774,0.
 61363518,-0.00109192,-0.00292838,-0.00272141,0.00701022,-0.00780561,-0
 .07570076,0.00016146,-0.00114189,-0.00087296,0.00135097,-0.00024442,0.
 01591618,-0.00005851,0.00001548,-0.00029552,0.00061624,-0.00268704,-0.
 00070743,-0.00101052,0.00299246,-0.00024050,-0.04180731,0.02512821,0.2
 1143146,-0.00495120,-0.01608847,-0.00069187,-0.03596846,0.03471219,0.0
 0478432,-0.00110818,0.00522722,0.00059330,0.00237066,0.00357276,0.0000
 1131,0.00005458,-0.00033321,-0.00002951,-0.00077581,0.00064641,0.00000
 280,-0.00079152,0.00061659,0.00014324,-0.62512916,0.08522082,0.0344882
 6,0.76043735,0.00375314,-0.00125374,-0.00039376,0.03911706,-0.00515353
 ,-0.00350365,0.00298229,-0.00622672,-0.00064814,0.00105407,0.00044568,
 0.00009085,0.00024858,-0.00075037,-0.00005539,0.00020282,-0.00050495,0
 .00011105,0.00019491,-0.00044476,-0.00018692,0.08862545,-0.12025962,-0
 .00728967,-0.07856171,0.11902664,0.00062918,0.00079864,0.00095532,0.00
 496508,-0.00333029,0.01805779,0.00039974,-0.00074464,0.00314866,-0.000
 18863,-0.00005959,-0.00175786,0.00001537,-0.00002723,0.00006895,0.0000
 5593,0.00024564,0.00008290,0.00004278,-0.00037230,0.00001964,0.0348238
 8,-0.00689275,-0.07885319,-0.04326817,0.00813905,0.03887143,0.00118842
 ,0.00444710,0.00022431,0.01000426,-0.00135210,-0.00004340,0.00154394,-
 0.00039663,-0.00014811,0.00055529,-0.00005896,-0.00010400,0.00013512,-
 0.00028624,-0.00001818,0.00011640,0.00003409,0.00000816,0.00012411,0.0
 0001550,-0.00000288,-0.16819620,-0.05709224,0.00278299,-0.08728922,-0.
 05210664,0.00341605,0.36178335,0.00782444,0.00074308,-0.00052901,-0.03
 253973,-0.05982438,-0.00180598,-0.00011810,-0.00035471,-0.00000133,-0.
 00239004,-0.00282402,0.00005245,0.00052326,-0.00017775,-0.00003347,0.0
 0075390,-0.00115626,0.00007374,0.00074381,-0.00109821,-0.00027482,-0.0
 7306783,-0.21046575,-0.00365697,-0.05059437,0.00496831,0.00148234,0.05
 696984,0.48826315,0.00038853,-0.00028948,0.00135980,-0.00168049,-0.003
 59912,0.01025591,-0.00011651,0.00005810,-0.00049259,-0.00022248,-0.000
 09028,-0.00115058,0.00002282,0.00000351,0.00005713,-0.00000862,0.00011
 980,0.00009510,0.00009024,-0.00025371,0.00005407,0.00201391,-0.0045791
 4,-0.06379837,0.00349525,0.00176359,0.02700505,-0.01268474,0.01839998,
 0.07830165,0.00125612,-0.00071041,-0.00007633,-0.00358047,-0.00445081,
 0.00033937,0.00026860,-0.00037523,-0.00005479,-0.00031841,-0.00035777,
 -0.00005672,0.00004976,-0.00001672,-0.00000064,0.00005681,-0.00013344,
 0.00001304,0.00006497,-0.00015035,-0.00003038,0.02239100,-0.01668002,-
 0.00216656,-0.00535677,-0.00457304,-0.00027556,-0.11656719,0.05556339,
 0.00562830,0.55868728,-0.00057235,-0.00152101,-0.00009229,-0.00101428,
 0.00712581,0.00008638,0.00017078,0.00028623,0.00003417,0.00034227,0.00
 065364,0.00007367,-0.00019821,0.00009247,0.00001121,-0.00022383,0.0002
 6967,-0.00005549,-0.00022972,0.00027759,0.00010029,-0.01947350,-0.0680
 5953,-0.00246029,0.01981918,0.00534929,-0.00048806,0.03411267,-0.12994
 000,-0.00517359,0.03566250,0.41447100,-0.00005854,-0.00008802,0.000718
 81,0.00052601,0.00026140,0.00645959,-0.00003033,0.00005344,-0.00027626
 ,-0.00002543,0.00011405,-0.00098593,-0.00001117,0.00000417,0.00004046,
 -0.00009337,0.00021041,0.00004917,0.00006547,-0.00017083,0.00002990,-0
 .00238475,-0.00267628,-0.00099324,0.00105950,0.00078939,-0.00554673,0.
 00453755,-0.00630637,-0.06744034,0.00456079,-0.01250584,0.61097633,-0.
 00011144,-0.00012678,0.00012423,0.00009172,0.00063762,-0.00011944,0.00
 002976,-0.00000001,-0.00000847,0.00003049,0.00005746,-0.00004585,-0.00
 001303,0.00000584,-0.00000227,-0.00002345,0.00002945,0.00000091,-0.000
 00427,0.00001510,0.00000646,-0.00216912,-0.00388536,0.00021243,0.00135
 735,0.00022233,0.00016878,-0.00876322,0.01301126,-0.00771171,-0.143206
 91,0.01812845,-0.12289873,0.15785649,0.00011180,0.00027438,-0.00007706
 ,-0.00065470,-0.00090551,-0.00125429,-0.00002656,0.00013319,0.00007514
 ,-0.00010584,-0.00014622,0.00016131,0.00003328,-0.00000932,-0.00000991
 ,0.00006293,-0.00009412,0.00000016,0.00003626,-0.00002613,-0.00002187,
 0.00839905,0.00491265,0.00104712,-0.00345456,0.00015600,0.00026789,0.0
 2273973,-0.02476013,0.02454840,0.01529373,-0.04835968,0.01919801,-0.02
 479843,0.06376362,-0.00005033,-0.00004577,0.00000023,0.00022520,0.0001
 2118,-0.00054228,0.00003918,-0.00002391,-0.00000687,0.00001770,0.00001
 531,0.00003225,0.00000208,-0.00000771,-0.00000512,-0.00000161,-0.00000
 968,-0.00000049,-0.00000108,0.00000675,-0.00000159,-0.00249117,-0.0012
 6229,0.00121737,0.00115510,-0.00137496,0.00008787,0.00410890,0.0017215
 9,0.00789056,-0.12577223,0.02596209,-0.21559669,0.13629290,-0.02689015
 ,0.22245630,-0.00012238,-0.00011060,-0.00012142,0.00006513,0.00060783,
 0.00012862,0.00002650,0.00000543,0.00000638,0.00003481,0.00004789,0.00
 005062,-0.00001248,0.00000583,0.00000348,-0.00000385,0.00001513,-0.000
 00496,-0.00002266,0.00002899,0.00000474,-0.00185373,-0.00368979,-0.000
 24762,0.00127354,0.00043984,-0.00022686,-0.00807009,0.01160579,0.01053
 689,-0.11855288,0.00361012,0.11390797,0.00991228,-0.00157441,-0.015764
 50,0.13050978,0.00010888,0.00025268,0.00009193,-0.00047633,-0.00101800
 ,0.00126523,-0.00003410,0.00014018,-0.00005876,-0.00012319,-0.00012340
 ,-0.00016489,0.00003411,-0.00001075,0.00000647,0.00003641,-0.00002803,
 0.00001577,0.00006231,-0.00009253,-0.00001593,0.00792543,0.00489346,-0
 .00160808,-0.00326095,0.00001861,0.00007357,0.02017264,-0.02136291,-0.
 02985121,0.00118109,-0.04544435,-0.00023458,-0.00294710,0.00234941,0.0
 0276692,-0.00867292,0.05969483,0.00007487,0.00008722,0.00002242,-0.000
 34447,-0.00022933,-0.00040389,-0.00004696,0.00003902,-0.00000680,-0.00
 002994,-0.00003577,0.00000947,0.00000181,0.00000716,-0.00000348,0.0000
 0461,-0.00001045,-0.00000026,0.00001003,-0.00000228,-0.00000159,0.0037
 3353,0.00201008,0.00092769,-0.00162015,0.00134326,0.00035636,-0.000289
 83,-0.00611951,0.00379481,0.11651013,-0.00733077,-0.24322968,0.0124319
 8,-0.00011178,-0.01994082,-0.12847039,0.00953990,0.25384836,-0.2018146
 9,0.00000300,0.00922875,-0.01138102,0.00093279,0.00096562,0.00196917,0
 .00083450,0.00044656,-0.00739936,0.01000171,0.00136761,0.00265186,-0.0
 0167034,-0.00013457,-0.00016732,-0.00075650,0.00042905,-0.00014920,-0.
 00069196,-0.00041497,0.00171950,-0.01742331,-0.00136695,-0.00651933,0.
 00846104,0.00053899,0.00139614,0.00823993,0.00047316,0.00083055,-0.002
 69792,-0.00018153,-0.00019917,0.00051495,0.00003579,-0.00019104,0.0005
 2044,0.00002641,0.58829723,0.00169901,-0.05963452,-0.00079733,-0.02315
 432,0.00152538,0.00118515,-0.00112960,-0.00400277,-0.00062210,0.022260
 07,-0.00095438,-0.00160182,0.00180487,-0.00378205,-0.00040036,0.000629
 35,-0.00061031,0.00061365,0.00043179,-0.00048334,-0.00078336,-0.027358
 29,-0.00145005,0.00180551,0.01565543,0.01238543,0.00006821,0.00842189,
 0.00674797,-0.00013172,0.00089606,-0.00312293,-0.00022222,-0.00028909,
 0.00017461,0.00011461,-0.00030008,0.00017913,-0.00007397,0.02028859,0.
 14346036,0.00920294,-0.00119613,-0.06022900,-0.00039384,-0.00031696,0.
 00591431,0.00032758,-0.00078311,0.00909230,0.00221050,-0.00081425,0.00
 302413,-0.00000786,-0.00024240,0.00154877,-0.00025238,0.00008459,0.000
 26380,0.00028345,0.00003469,0.00015029,-0.00135034,0.00142546,-0.00589
 151,0.00048338,-0.00015891,-0.00412640,0.00021847,-0.00041225,0.001215
 41,-0.00002386,0.00008554,0.00016935,-0.00003463,-0.00007417,-0.000025
 24,0.00004389,0.00001405,-0.00003005,-0.00558439,-0.00487056,0.5005264
 4,-0.01435451,-0.00178584,-0.02417790,-0.00258114,-0.00065932,0.000648
 06,-0.00100300,-0.00116292,0.00219155,-0.00108624,-0.00300189,0.000550
 87,-0.00095775,0.00100272,0.00037054,0.00020083,0.00005890,-0.00010608
 ,0.00033641,-0.00006904,0.00006697,0.00056951,0.00745318,-0.00109788,0
 .00046895,-0.00474372,-0.00102971,-0.00170097,-0.00463658,0.00011571,-
 0.00050123,0.00166532,0.00013848,0.00012193,-0.00026621,-0.00002039,0.
 00013962,-0.00024525,-0.00002147,-0.14599646,-0.00360254,-0.11393248,0
 .36907775,-0.00020200,0.00660971,0.00079666,0.00130087,0.00016838,0.00
 006543,-0.00012879,0.00033645,0.00002485,-0.00123609,-0.00047483,-0.00
 061851,-0.00012712,0.00035082,0.00006650,-0.00006524,0.00017157,-0.000
 10308,-0.00012771,0.00020588,0.00023678,0.00566842,-0.00077007,-0.0006
 4800,-0.00554271,-0.00358769,-0.00257669,-0.00199846,-0.00159409,0.000
 41519,-0.00021296,0.00076664,0.00009323,0.00005746,-0.00005804,-0.0000
 3511,0.00008969,-0.00001941,0.00000870,-0.00667413,-0.04479165,-0.0108
 9859,-0.00478911,0.08828602,-0.00289608,0.00045940,0.00421271,0.000444
 88,0.00102042,-0.00024089,-0.00022904,-0.00008927,-0.00052032,-0.00021
 768,-0.00121285,-0.00045587,-0.00020048,0.00036814,0.00001012,0.000083
 37,0.00000509,-0.00001680,-0.00001160,0.00022858,0.00013561,0.00266321
 ,0.00017476,0.00024122,-0.00193711,-0.00258762,0.00022701,-0.00097647,
 -0.00109475,-0.00010461,-0.00013845,0.00049101,0.00000626,0.00005018,-
 0.00004839,-0.00001092,0.00003809,-0.00004621,0.00001858,-0.09748782,-
 0.00960522,-0.21747882,0.08257772,0.01764234,0.39237403,-0.01047754,-0
 .00264400,0.02544239,-0.00229772,-0.00055859,-0.00026399,-0.00120115,-
 0.00081824,-0.00211756,-0.00129375,-0.00277472,-0.00070919,-0.00097840
 ,0.00103644,-0.00021632,0.00032001,0.00003202,-0.00020151,0.00016309,0
 .00005708,0.00009617,0.00144459,0.00704547,0.00181302,0.00015010,-0.00
 550407,0.00086329,-0.00191945,-0.00461189,-0.00050315,-0.00050812,0.00
 168451,0.00008455,0.00014815,-0.00023571,-0.00001620,0.00012167,-0.000
 26187,-0.00000914,-0.12057763,-0.00709709,0.10220882,0.01638708,0.0001
 8939,0.00979483,0.34058787,-0.00013568,0.00632916,0.00260014,0.0009197
 3,-0.00023276,-0.00029394,-0.00020495,0.00034800,-0.00025185,-0.000968
 41,-0.00053049,0.00051188,-0.00015791,0.00036155,-0.00015251,-0.000286
 39,0.00039246,-0.00019104,-0.00008182,0.00011225,0.00009239,0.00588285
 ,-0.00034947,0.00022390,-0.00602621,-0.00476565,0.00307512,-0.00239980
 ,-0.00209107,-0.00039808,-0.00027595,0.00100580,0.00002040,0.00010587,
 -0.00005015,-0.00001559,0.00007764,-0.00008962,0.00002174,-0.01027305,
 -0.04474668,0.01891384,-0.00229071,0.02206895,0.00007049,0.05755802,0.
 09848526,0.00498531,0.00218717,0.00043865,0.00027977,-0.00117345,-0.00
 031016,0.00034781,0.00033292,-0.00026142,-0.00019775,0.00147738,-0.000
 07835,0.00028785,-0.00037416,-0.00002891,-0.00003404,-0.00024985,0.000
 09459,-0.00005364,-0.00004991,-0.00000069,-0.00306943,-0.00099630,0.00
 028067,0.00255458,0.00372609,0.00102897,0.00130627,0.00173198,-0.00006
 443,0.00020939,-0.00073776,-0.00008766,-0.00005542,0.00008140,0.000030
 54,-0.00007255,0.00008227,0.00000277,0.08538150,0.00842342,-0.24250742
 ,-0.02107034,0.00007492,-0.07260456,-0.07696402,-0.01331162,0.41107821
 ,0.00152507,-0.00078178,0.00124199,0.00028891,0.00063869,-0.00005800,0
 .00028678,0.00016981,-0.00025133,0.00032833,0.00071472,-0.00016146,0.0
 0034290,-0.00023486,0.00003830,-0.00006991,-0.00004901,0.00004231,-0.0
 0015496,0.00021577,0.00012711,-0.00206078,-0.00204853,0.00018223,0.001
 06534,0.00237338,0.00077746,0.00110484,0.00183772,-0.00008466,0.000215
 15,-0.00071969,-0.00005917,-0.00005393,0.00009683,0.00000689,-0.000061
 22,0.00008176,0.00000914,-0.05451986,-0.00274317,-0.04058630,-0.113088
 50,0.00508000,0.01748081,-0.03688172,0.00357468,-0.01007645,0.44558244
 ,0.00043172,0.00410126,-0.00058849,0.00051954,-0.00086589,-0.00016194,
 0.00000466,0.00007092,0.00000371,-0.00079085,-0.00031785,0.00005500,-0
 .00015678,0.00021930,0.00013644,0.00006880,-0.00008301,0.00000809,-0.0
 0006755,0.00011604,0.00006994,-0.00125975,0.00110306,0.00004692,0.0015
 0341,-0.00031822,-0.00006293,0.00026218,-0.00017931,0.00008863,-0.0000
 1514,0.00001035,0.00002489,-0.00000936,-0.00002319,0.00000168,0.000003
 78,-0.00000579,-0.00001239,-0.00162997,0.00248336,-0.00180202,0.007129
 96,-0.06920510,-0.00161980,-0.00837363,0.00191827,-0.00891865,0.014639
 35,0.50891287,-0.00086778,-0.00035136,-0.00388304,-0.00045055,-0.00036
 960,0.00014826,-0.00007579,-0.00010081,0.00042730,-0.00004547,-0.00020
 535,0.00016322,-0.00009415,0.00005364,0.00004569,0.00000704,0.00001481
 ,0.00000007,0.00001755,-0.00000801,-0.00003543,0.00002866,0.00106892,-
 0.00026379,-0.00011313,-0.00044842,-0.00052937,-0.00025035,-0.00062667
 ,0.00009592,-0.00006570,0.00022837,0.00002448,0.00001385,-0.00003820,-
 0.00000519,0.00002372,-0.00003216,-0.00000641,-0.01961327,0.00264984,0
 .01615519,0.03143741,-0.00165892,-0.09190113,-0.01474521,-0.00168228,-
 0.02350263,0.06730861,0.01364275,0.46131424,0.00141536,-0.00085359,-0.
 00165025,0.00025032,0.00044778,-0.00005245,0.00030379,0.00012247,0.000
 18186,0.00032051,0.00067301,0.00022872,0.00034267,-0.00024452,-0.00005
 353,-0.00013702,0.00013195,-0.00003310,-0.00008745,-0.00002755,-0.0000
 3506,-0.00263807,-0.00194786,-0.00021246,0.00188568,0.00255874,-0.0010
 1511,0.00137681,0.00198653,0.00022982,0.00023855,-0.00080359,-0.000030
 46,-0.00007510,0.00008300,0.00000597,-0.00006085,0.00010337,-0.0000005
 6,-0.04430126,-0.00951327,0.04772060,-0.03381857,-0.00916917,0.0128849
 6,-0.11713073,-0.01376975,-0.01444582,-0.05355784,0.00747554,-0.017500
 00,0.43632172,0.00043351,0.00407596,-0.00172807,0.00107636,-0.00010249
 ,0.00015092,0.00020188,0.00022967,0.00029912,-0.00069139,0.00007490,0.
 00011036,0.00001016,0.00005929,0.00001178,-0.00005377,0.00005207,0.000
 02550,0.00004295,-0.00003124,-0.00003615,-0.00029861,-0.00085841,-0.00
 009196,0.00027604,0.00020518,0.00025384,0.00027889,0.00061570,-0.00010
 663,0.00006045,-0.00024879,-0.00003897,-0.00001281,0.00004735,0.000007
 36,-0.00002453,0.00002705,0.00000646,-0.00844826,0.00024276,0.00487118
 ,0.00135859,0.00159426,-0.00711518,-0.01539357,-0.07195614,-0.00133471
 ,0.00048663,-0.09066703,0.01569154,-0.02335980,0.50274829,0.00013260,0
 .00010431,-0.00368628,0.00027989,0.00036993,0.00018666,0.00007462,0.00
 002032,0.00038926,0.00017212,0.00012512,0.00013070,0.00005816,-0.00005
 014,0.00002947,0.00001210,-0.00000639,-0.00004123,-0.00001644,-0.00000
 326,-0.00000968,0.00032688,-0.00076451,-0.00035341,-0.00047736,0.00043
 662,-0.00026402,0.00002777,0.00029701,0.00008566,0.00002829,-0.0000932
 2,0.00000810,-0.00001045,0.00001846,-0.00000378,-0.00000199,0.00002225
 ,-0.00000166,0.02663585,0.00494104,0.00762040,0.01664213,0.00175783,-0
 .02725802,-0.02876245,-0.00397155,-0.08668521,0.00582968,0.01710882,-0
 .12053061,-0.06439312,0.00496211,0.47837662,-0.00003392,-0.00093463,-0
 .00056155,-0.00033711,0.00000592,0.00001624,-0.00007888,-0.00011948,0.
 00011961,0.00004720,-0.00014272,0.00001582,-0.00005747,0.00002842,-0.0
 0002486,-0.00000286,0.00003054,-0.00000568,0.00005722,-0.00006388,-0.0
 0004242,0.00029845,0.00020027,-0.00015115,-0.00092242,-0.00006688,0.00
 001804,-0.00023530,-0.00037533,0.00003542,-0.00004174,0.00016361,0.000
 00524,0.00001036,-0.00001822,0.00000301,0.00001124,-0.00002269,-0.0000
 0733,-0.00023172,0.00443141,0.00682157,-0.03704491,0.03750371,-0.00177
 456,0.00211422,-0.00070030,-0.00116273,-0.07342053,0.01757431,-0.00641
 523,0.00013112,0.00126837,-0.00239511,0.58005681,0.00003492,-0.0000114
 9,-0.00014173,-0.00006248,-0.00009983,-0.00000765,0.00000088,-0.000073
 49,0.00002699,-0.00007977,-0.00007435,0.00000522,-0.00002267,0.0000170
 7,0.00000248,0.00001646,-0.00001651,0.00000286,0.00001853,-0.00001402,
 -0.00000347,-0.00065917,0.00033616,0.00000706,0.00170314,0.00000002,0.
 00046794,0.00047739,0.00032247,-0.00008490,0.00005466,-0.00016679,0.00
 000013,-0.00001384,0.00000950,0.00000121,-0.00001983,0.00000809,0.0000
 0158,0.00040071,0.00074847,0.00038518,0.00960631,-0.00391217,-0.001714
 38,-0.00052206,-0.00039860,-0.00029868,0.02411032,-0.18052353,0.010214
 39,0.00175155,-0.00901932,0.00824501,0.03455838,0.48185528,0.00009671,
 0.00030787,0.00039005,0.00020568,-0.00013887,-0.00005474,0.00007243,-0
 .00001930,-0.00006523,-0.00000972,0.00003684,0.00000382,0.00004098,-0.
 00002323,0.00000423,0.00001349,-0.00003422,0.00000270,-0.00000204,-0.0
 0000323,0.00000193,-0.00101872,-0.00015261,0.00024798,0.00207526,0.000
 25482,0.00078228,0.00060502,0.00058574,-0.00013442,0.00008129,-0.00026
 712,-0.00000660,-0.00003267,0.00001591,0.00000922,-0.00003291,0.000022
 36,-0.00000164,-0.00012906,-0.00002304,-0.00414552,0.01106243,-0.01144
 930,0.00422436,-0.00210722,-0.00089742,0.00090122,-0.00910399,0.017204
 59,-0.08037544,-0.00531932,0.03048805,-0.00394009,-0.00251641,0.023884
 49,0.57530274,-0.00009314,0.00062997,-0.00106652,-0.00005105,-0.000221
 08,-0.00000455,-0.00003773,-0.00003941,0.00013173,-0.00018474,-0.00017
 102,0.00004658,-0.00006963,0.00007798,0.00003939,0.00002269,-0.0000077
 2,-0.00000670,0.00000670,0.00001267,0.00000847,-0.00014687,0.00054633,
 -0.00006349,0.00033016,-0.00028261,-0.00009128,-0.00003978,-0.00025040
 ,0.00002836,-0.00002676,0.00008101,0.00001352,0.00000367,-0.00001734,-
 0.00000020,0.00000754,-0.00001198,-0.00000433,-0.00299089,-0.00111060,
 0.00533595,-0.04179139,-0.02129344,-0.01847482,0.00232599,-0.00049825,
 -0.00013691,-0.10187206,-0.03698298,-0.03291827,-0.00039094,0.00120190
 ,-0.00645216,0.00840240,0.00222842,0.00387544,0.54019242,-0.00010091,-
 0.00000126,0.00015237,0.00010626,0.00012020,-0.00000608,0.00002984,0.0
 0003918,-0.00001139,0.00006192,0.00008676,-0.00000520,0.00003995,-0.00
 003775,-0.00001433,-0.00001387,0.00001130,0.00000155,-0.00000488,-0.00
 000638,-0.00001000,0.00010428,-0.00034397,-0.00002837,-0.00031258,0.00
 028447,-0.00001434,0.00000691,0.00013908,0.00000569,0.00001726,-0.0000
 4492,-0.00000426,-0.00000241,0.00001018,-0.00000140,-0.00000296,0.0000
 0804,0.00000243,-0.00023318,-0.00050768,0.00111503,-0.00110622,0.00276
 790,0.00142515,0.00417776,-0.00004024,0.00291449,-0.04240389,-0.125027
 64,-0.04070306,0.00361239,0.00727275,-0.00041690,-0.01877820,-0.030652
 18,-0.01979129,-0.03764483,0.55607553,-0.00005810,-0.00027491,0.000810
 42,0.00008974,0.00014268,0.00002351,0.00002360,0.00002209,-0.00010089,
 0.00009881,0.00008345,-0.00005859,0.00004642,-0.00004492,-0.00001922,0
 .00000207,-0.00000956,0.00000385,-0.00000621,-0.00000284,-0.00000167,-
 0.00004488,-0.00029390,0.00006682,0.00006340,0.00007505,0.00017118,0.0
 0010502,0.00020818,-0.00004415,0.00002308,-0.00007541,-0.00000884,-0.0
 0000456,0.00001318,0.00000217,-0.00000878,0.00000877,0.00000220,0.0019
 8352,0.00047902,-0.00580663,0.01280311,0.00713684,0.01009101,-0.005390
 56,-0.00003816,-0.00301530,-0.04431794,-0.04534507,-0.11957990,-0.0159
 2192,-0.01616677,-0.01488440,0.00052288,-0.00177051,0.00104486,-0.0323
 6634,-0.03303799,0.54082700,0.00007934,0.00101578,0.00047791,0.0000457
 7,-0.00013847,0.00006351,-0.00007081,-0.00001207,-0.00004719,-0.000293
 46,-0.00023721,-0.00002422,-0.00009809,0.00013707,0.00000136,0.0000115
 0,0.00001716,-0.00001259,0.00002046,0.00000420,0.00002452,0.00061581,0
 .00049257,0.00003616,-0.00042036,-0.00075339,0.00029047,-0.00032926,-0
 .00047786,-0.00008605,-0.00005961,0.00018740,0.00000468,0.00001921,-0.
 00001752,-0.00000052,0.00001333,-0.00002566,0.00000095,-0.00011257,-0.
 00348712,-0.00766762,0.00208950,0.00098831,0.00101174,-0.03028648,-0.0
 4359418,0.00668740,0.00053916,0.00423789,0.00022253,-0.06748808,0.0027
 1218,0.00308386,0.00072081,0.00011898,-0.00155096,0.00035204,0.0000942
 3,-0.00131623,0.58256546,-0.00005869,0.00011772,-0.00003627,0.00005827
 ,-0.00001272,0.00001093,0.00001470,0.00000772,0.00000176,0.00006229,0.
 00000654,-0.00002088,0.00002098,-0.00003087,0.00000008,0.00000509,-0.0
 0000522,0.00003500,0.00000332,0.00000481,-0.00002205,0.00000300,-0.000
 05863,-0.00001207,0.00001440,0.00002653,0.00002998,0.00001706,0.000038
 08,-0.00000555,0.00000436,-0.00001534,-0.00000186,-0.00000090,0.000002
 82,0.00000031,-0.00000130,0.00000274,0.00000059,-0.00034241,-0.0003380
 9,-0.00071686,0.00096564,-0.00032746,-0.00017822,-0.01401326,-0.012740
 09,0.00034971,0.00076949,-0.00906572,0.00877356,-0.00551628,-0.1843351
 9,0.01325470,-0.00011362,0.00078718,-0.00014906,0.00048839,0.00026102,
 0.00092513,-0.00957332,0.47349630,0.00003281,0.00018581,0.00028353,-0.
 00001035,-0.00005273,-0.00002002,-0.00001417,-0.00000871,-0.00002740,-
 0.00010788,-0.00002824,-0.00004108,-0.00002917,-0.00000193,0.00001532,
 0.00002178,-0.00002239,0.00005832,0.00002365,0.00000445,-0.00003177,0.
 00001358,0.00011225,0.00005640,0.00006591,-0.00016815,0.00010023,-0.00
 001894,-0.00006198,-0.00002195,-0.00000754,0.00001929,-0.00000328,0.00
 000247,-0.00000263,0.00000049,0.00000100,-0.00000419,0.00000097,-0.000
 41593,0.00058930,-0.00314590,0.00210274,-0.00070651,0.00034274,-0.0044
 4143,-0.00744529,0.00474296,-0.00018824,0.03081459,-0.00411912,0.00423
 479,0.01892984,-0.08189056,0.00081663,0.00000115,-0.00538315,0.0000088
 3,0.00140578,-0.00261577,0.00168626,0.02436957,0.57538459,-0.00001847,
 -0.00077779,0.00127425,-0.00028030,-0.00008331,-0.00006381,-0.00007689
 ,-0.00006920,-0.00017472,0.00006496,-0.00009536,-0.00005738,-0.0000343
 7,0.00002315,-0.00001366,0.00002163,-0.00000823,0.00000004,-0.00000241
 ,0.00000783,0.00001056,-0.00006845,0.00047253,0.00015168,0.00014565,-0
 .00018852,0.00002102,-0.00006576,-0.00024715,-0.00002154,-0.00002426,0
 .00008867,0.00000649,0.00000659,-0.00001640,0.00000005,0.00000635,-0.0
 0001329,-0.00000194,-0.00396454,0.00142067,-0.00561253,0.00336161,0.00
 103737,-0.00115087,-0.04293993,0.01410720,0.02413855,0.00337139,-0.003
 86108,0.00417704,-0.10392216,0.03421960,0.03705705,0.00047833,-0.00031
 914,-0.00061355,-0.00012321,0.00017304,-0.00026335,0.00439611,0.003469
 87,-0.00101013,0.53851167,0.00012851,-0.00013156,0.00034722,-0.0001779
 1,-0.00011959,-0.00004058,-0.00005402,-0.00004853,-0.00005241,-0.00005
 360,-0.00010548,-0.00000391,-0.00004332,0.00004109,0.00000342,0.000003
 74,-0.00000768,-0.00000479,0.00000875,0.00000096,0.00000514,-0.0000844
 9,0.00042027,0.00003736,0.00014388,-0.00023717,-0.00013441,-0.00004343
 ,-0.00020161,0.00000738,-0.00002461,0.00007346,0.00001087,0.00000420,-
 0.00001266,-0.00000066,0.00000756,-0.00001222,-0.00000563,-0.00020559,
 0.00026661,0.00027301,-0.00329078,-0.00049078,0.00331051,-0.00573935,0
 .00523350,0.00511779,-0.00442729,0.00620080,0.00097536,0.03984199,-0.1
 1271509,-0.04028077,0.00009123,0.00014040,0.00136282,0.00003054,-0.000
 83207,0.00074450,0.02152165,-0.02670141,-0.02274784,0.03016734,0.56648
 272,0.00016454,-0.00019501,0.00068687,-0.00014275,-0.00006677,-0.00003
 273,-0.00003775,-0.00002910,-0.00010688,-0.00003146,-0.00003623,-0.000
 01635,-0.00001930,0.00001380,0.00000145,0.00001327,-0.00001207,0.00001
 039,-0.00000042,0.00001568,0.00000723,-0.00002781,0.00019633,0.0000777
 9,0.00005684,-0.00013995,0.00008146,-0.00002830,-0.00009979,-0.0000177
 0,-0.00001063,0.00003448,0.00000049,0.00000305,-0.00000688,0.00000009,
 0.00000239,-0.00000629,0.00000021,-0.00222220,0.00029630,-0.00483907,0
 .00460271,0.00062297,-0.00354918,-0.00711853,0.00324633,0.00861503,0.0
 1607790,-0.01311103,-0.01781582,0.04870427,-0.04230352,-0.12980248,0.0
 0061524,0.00105427,-0.00259894,0.00005272,0.00075270,-0.00085368,-0.00
 090252,-0.00206640,0.00138620,0.03734908,-0.03209025,0.53221116,0.0000
 9219,0.00003291,0.00003840,0.00020905,-0.00024683,-0.00004821,0.000078
 20,-0.00009982,-0.00002363,-0.00001858,-0.00001302,0.00000676,0.000029
 40,-0.00001792,-0.00000298,0.00002118,-0.00002985,0.00000566,0.0000189
 9,-0.00002857,-0.00001021,-0.00235250,0.00001549,0.00018883,-0.0006303
 7,-0.00065242,-0.00074508,0.00082479,0.00072259,0.00003178,0.00010655,
 -0.00035254,-0.00002178,-0.00004798,0.00001873,0.00001116,-0.00003487,
 0.00003182,-0.00000389,0.00001717,0.00112067,-0.00012061,0.00117291,-0
 .00050811,0.00010791,-0.00031742,-0.00033070,0.00008098,0.00456249,0.0
 0652983,0.00655071,0.00060917,-0.00053208,-0.00027194,-0.14142825,-0.1
 0122826,-0.08758576,-0.00003394,0.00186819,-0.00001498,-0.00010724,-0.
 00001257,0.00013165,-0.00019927,-0.00037698,-0.00073727,0.14876078,-0.
 00000211,0.00001241,0.00008526,0.00001574,0.00006827,0.00000844,-0.000
 02593,0.00001086,-0.00001723,-0.00000432,-0.00001414,-0.00000505,-0.00
 002391,0.00001313,0.00000102,-0.00000323,0.00000802,0.00000100,-0.0000
 0076,0.00000226,-0.00000229,0.00028132,-0.00040074,-0.00001178,-0.0013
 6970,-0.00013185,-0.00036847,-0.00039193,-0.00029460,0.00005654,-0.000
 04113,0.00014903,0.00000313,-0.00000275,-0.00002201,0.00000558,0.00001
 016,-0.00001309,-0.00000547,0.00103016,-0.00110906,-0.00046957,-0.0008
 5086,0.00278191,0.00102787,0.00002963,0.00071579,0.00034868,-0.0197905
 6,-0.01895231,-0.01745867,-0.00066115,0.00029617,-0.00101069,-0.095956
 35,-0.14872352,-0.08796787,0.00338476,-0.00560471,0.00141107,-0.000015
 09,0.00012097,-0.00009689,0.00009244,-0.00003010,-0.00005270,0.1064656
 5,0.16297977,-0.00004891,-0.00004326,-0.00005064,-0.00001612,0.0000748
 7,0.00006040,-0.00001372,0.00002311,0.00002394,0.00000498,0.00000900,-
 0.00002045,-0.00000322,0.00000366,0.00000107,-0.00000079,0.00000962,-0
 .00000527,-0.00001366,0.00001298,0.00000528,0.00037531,-0.00005869,-0.
 00027119,-0.00167322,-0.00008168,-0.00058004,-0.00026904,-0.00021917,0
 .00008829,-0.00003213,0.00010736,0.00000419,0.00002266,0.00001253,-0.0
 0001201,0.00001029,-0.00001434,-0.00000690,-0.00019992,-0.00022528,0.0
 0044845,0.00036843,-0.00023798,-0.00018631,0.00029707,0.00005373,0.000
 11257,0.00410768,0.00371316,0.00218917,0.00031873,-0.00008550,-0.00011
 303,-0.08680472,-0.09022916,-0.12327966,-0.00019215,0.00063921,0.00019
 902,0.00009817,-0.00005450,0.00013758,0.00050799,0.00038434,-0.0007705
 6,0.09484777,0.09656070,0.13187362,-0.00001645,0.00000832,0.00002040,0
 .00000523,0.00000205,0.00000735,0.00000187,0.00000639,-0.00000717,0.00
 001168,0.00000745,-0.00000193,0.00000390,-0.00000250,0.00000104,-0.000
 00502,0.00000129,0.00000376,-0.00000707,0.00000575,0.00000498,0.000011
 50,-0.00003891,0.00003203,-0.00003294,-0.00000788,0.00021993,-0.000020
 45,0.00000727,-0.00002216,-0.00000151,0.00000332,-0.00000264,0.0000031
 6,0.00000013,0.00000167,0.00000031,0.00000092,0.00000265,0.00011204,-0
 .00020404,-0.00076927,0.00142655,-0.00045070,-0.00013742,-0.00000173,0
 .00002407,0.00014931,-0.00165690,0.00350282,-0.00880042,-0.00020096,0.
 00178134,0.00041802,-0.04601150,-0.00716915,0.02567392,-0.00020250,-0.
 00059012,0.00018919,-0.00011354,-0.00002581,-0.00049412,0.00003581,-0.
 00004707,0.00028362,0.00189101,0.00522212,-0.01742756,0.04578474,-0.00
 002234,-0.00002800,-0.00003915,-0.00000005,0.00002231,0.00000359,0.000
 00106,0.00000615,0.00000788,0.00001040,0.00001516,-0.00000047,0.000004
 77,-0.00000520,-0.00000291,-0.00000381,0.00000425,-0.00000133,-0.00000
 382,-0.00000177,-0.00000155,0.00008054,-0.00006199,0.00000972,-0.00013
 680,0.00000584,0.00010380,-0.00004069,-0.00001106,-0.00000952,-0.00000
 311,0.00001141,-0.00000195,0.00000242,-0.00000019,0.00000148,0.0000011
 8,0.00000055,0.00000153,-0.00027528,0.00003444,0.00091706,-0.00194790,
 0.00211512,-0.00139284,0.00104409,0.00031788,-0.00001394,-0.00277886,-
 0.01046539,0.03252960,0.00060242,-0.00528690,-0.00197815,-0.00573198,-
 0.05718128,0.05558379,0.00022807,0.00122828,0.00135517,0.00048671,0.00
 010405,0.00178044,0.00020945,-0.00056570,-0.00099128,0.00311100,0.0046
 5785,-0.01818681,0.00543173,0.06498220,-0.00000194,-0.00000180,0.00000
 668,-0.00004093,0.00000417,0.00000401,-0.00001849,-0.00000315,-0.00000
 161,-0.00001724,-0.00002472,-0.00000054,-0.00001448,0.00001186,0.00000
 214,0.00000258,-0.00000048,0.00000104,0.00000252,0.00000355,0.00000155
 ,0.00016203,0.00004111,-0.00000111,-0.00029260,-0.00004700,0.00013527,
 -0.00011493,-0.00011920,-0.00000587,-0.00001824,0.00005544,-0.00000522
 ,0.00000752,-0.00000610,0.00000210,0.00000481,-0.00000438,0.00000254,0
 .00040700,-0.00024491,-0.00044208,-0.00031476,-0.00070447,0.00145830,-
 0.00049915,0.00013357,0.00023202,0.00089976,0.00002216,-0.00656648,0.0
 0068525,0.00047341,0.00149446,0.02490884,0.05979868,-0.29705894,-0.000
 26906,-0.00113044,0.00031955,-0.00020545,-0.00020349,-0.00039619,-0.00
 042850,-0.00015094,-0.00012682,0.00251524,0.00425602,-0.01445046,-0.02
 755708,-0.06408957,0.32040901,-0.00002724,-0.00010878,-0.00012989,-0.0
 0008913,0.00004706,0.00000243,-0.00004068,-0.00001152,0.00002035,-0.00
 002173,-0.00005983,0.00000582,-0.00003468,0.00002701,0.00000136,0.0000
 0170,0.00001136,-0.00000192,0.00001152,-0.00000549,-0.00000259,0.00057
 008,0.00010105,-0.00007060,-0.00083916,-0.00000534,-0.00015757,-0.0003
 0031,-0.00033082,0.00003155,-0.00003866,0.00014744,0.00000984,0.000012
 01,-0.00001304,-0.00000268,0.00001461,-0.00001379,-0.00000219,0.001133
 48,0.00008824,0.00195340,-0.00153211,0.00309225,-0.00109349,0.00048993
 ,0.00013801,-0.00065125,-0.00785644,-0.00286591,0.00196521,-0.00056230
 ,0.00037042,0.00072085,-0.29035859,0.03490848,0.06751331,-0.00018083,-
 0.00085504,-0.00011593,0.00004771,-0.00004971,-0.00021781,-0.00000869,
 -0.00028252,0.00104185,-0.01417795,0.00370942,0.00562120,-0.00145007,-
 0.00012833,-0.00006890,0.31380771,0.00002653,0.00023533,0.00029905,0.0
 0013262,0.00006777,-0.00000962,0.00002678,0.00006482,-0.00004176,0.000
 02681,0.00008916,-0.00001074,0.00003457,-0.00002113,0.00000207,-0.0000
 1534,0.00000280,0.00000014,-0.00002814,0.00002464,0.00001234,0.0003455
 6,-0.00033950,-0.00006087,-0.00081738,0.00028711,-0.00018778,-0.000151
 95,-0.00001988,0.00004451,-0.00000409,0.00002876,0.00000180,0.00000199
 ,0.00000316,-0.00000126,0.00000494,0.00000246,-0.00000156,-0.00081107,
 -0.00121415,-0.00318409,0.00749929,-0.00620071,0.00180148,-0.00085066,
 0.00018537,0.00086506,0.02571039,0.00099624,-0.00917934,0.00035317,0.0
 0055232,-0.00032549,0.03134650,-0.05230631,-0.00867065,-0.00029211,0.0
 0112103,0.00000182,-0.00015389,-0.00001816,-0.00008764,0.00028770,0.00
 015321,0.00057048,-0.01706167,0.00335239,0.00686638,-0.00729694,0.0000
 7216,0.00129842,-0.03738720,0.05343620,-0.00000590,-0.00002079,-0.0000
 2841,-0.00001311,0.00002725,0.00001447,-0.00000901,0.00001124,0.000002
 15,0.00000199,0.00000593,0.00000071,-0.00000378,0.00000246,-0.00000065
 ,-0.00000249,0.00000524,-0.00000079,-0.00000290,0.00000243,0.00000028,
 0.00026308,-0.00006801,-0.00003792,-0.00055196,0.00007791,-0.00009718,
 -0.00015510,-0.00012447,0.00002837,-0.00001716,0.00006019,0.00000002,0
 .00000565,-0.00000487,-0.00000047,0.00000701,-0.00000434,-0.00000041,0
 .00000713,-0.00033705,-0.00001920,-0.00047176,0.00085366,0.00148483,0.
 00017849,0.00016805,0.00009947,-0.00461413,0.00029285,-0.00098698,-0.0
 0018380,-0.00042044,0.00014231,0.06951817,-0.00967670,-0.06268473,-0.0
 0011474,-0.00013124,0.00013181,0.00011960,0.00001263,0.00002743,-0.000
 34223,0.00052590,-0.00109115,-0.01552437,0.00391041,0.00452716,0.02833
 530,-0.00476704,-0.00642479,-0.07605306,0.00938897,0.06602780,0.000007
 76,-0.00000154,0.00006430,0.00001403,0.00001792,-0.00000057,0.00000440
 ,0.00000757,-0.00000733,0.00001483,0.00001492,-0.00000155,0.00000831,-
 0.00000398,-0.00000125,-0.00000664,-0.00000167,-0.00000215,0.00000392,
 0.00000108,-0.00000061,0.00002496,-0.00005278,0.00001100,-0.00005828,0
 .00004836,0.00000233,-0.00000330,0.00001887,0.00000047,0.00000251,-0.0
 0000602,-0.00000114,-0.00000015,0.00000160,-0.00000029,-0.00000034,0.0
 0000116,0.00000045,-0.00001530,-0.00014657,-0.00053467,0.00243323,0.00
 076557,0.00086710,-0.00007887,0.00001405,0.00020927,0.00503838,-0.0187
 2317,0.00105758,0.00038225,0.00056716,0.00037824,-0.00206681,-0.002205
 55,-0.00212494,-0.07970576,0.09332248,-0.00024707,0.00006270,0.0001625
 9,-0.00117988,0.00000447,-0.00002027,0.00009985,0.00049471,-0.00115137
 ,-0.00011726,-0.00010201,0.00015678,-0.00007811,0.00023428,-0.00006088
 ,-0.00007588,0.08319922,0.00000316,-0.00007529,-0.00001493,-0.00002754
 ,0.00002496,0.00000303,-0.00000886,-0.00000117,0.00000330,0.00000248,-
 0.00000172,-0.00000411,-0.00000266,0.00000478,0.00000124,-0.00000136,-
 0.00000011,-0.00000232,0.00000013,0.00000218,0.00000344,0.00012781,-0.
 00000591,-0.00000931,-0.00020487,0.00003602,-0.00001981,-0.00006661,-0
 .00005715,0.00000494,-0.00000487,0.00002557,0.00000144,0.00000251,-0.0
 0000177,-0.00000159,0.00000271,-0.00000226,0.00000075,0.00006540,-0.00
 009025,-0.00014371,0.00065790,0.00216774,0.00065702,-0.00022604,0.0002
 5314,-0.00010236,0.00860390,-0.01820821,0.00116242,0.00006334,-0.00079
 856,0.00124747,-0.00376757,-0.00147128,-0.00330810,0.09033625,-0.28399
 739,-0.00163084,0.00081314,-0.00022741,0.00154625,-0.00002649,0.000127
 54,0.00008007,0.00057037,-0.00129081,0.00017476,0.00004736,0.00035835,
 0.00000937,0.00013282,0.00034555,0.00008194,-0.09902248,0.30815938,-0.
 00000343,-0.00005840,-0.00003856,-0.00001083,0.00001625,0.00000045,-0.
 00000162,0.00000099,0.00000489,0.00001542,0.00000432,0.00000541,0.0000
 0222,-0.00000101,-0.00000178,-0.00000605,0.00000457,-0.00000481,-0.000
 00062,-0.00000176,0.00000168,0.00005115,-0.00001854,-0.00000828,-0.000
 09102,0.00003556,-0.00001291,-0.00002267,-0.00001246,0.00000237,-0.000
 00135,0.00000736,0.00000044,0.00000070,-0.00000017,-0.00000060,0.00000
 098,-0.00000044,0.00000017,0.00005382,-0.00009256,0.00029270,0.0007179
 8,0.00144679,0.00056969,0.00024309,0.00038364,-0.00012949,0.00904233,-
 0.01727158,-0.00065040,0.00025102,-0.00061181,0.00082907,-0.00242082,-
 0.00148549,-0.00188852,-0.00270072,0.00205916,-0.04492898,-0.00000645,
 -0.00012358,-0.00182760,0.00013539,0.00015738,0.00003922,0.00007700,-0
 .00109847,0.00061109,-0.00006584,-0.00024921,0.00032446,-0.00012680,0.
 00027143,-0.00007711,0.00338174,-0.00070978,0.04818608,-0.00000687,0.0
 0012600,-0.00033120,-0.00006996,-0.00005233,-0.00000368,-0.00003283,-0
 .00002644,0.00004291,-0.00008094,-0.00009268,0.00001095,-0.00004117,0.
 00003910,0.00000937,0.00001229,0.00000154,-0.00000217,0.00001421,-0.00
 000199,-0.00000006,0.00011347,0.00025430,-0.00002692,-0.00006234,-0.00
 017652,-0.00007477,-0.00009658,-0.00019188,0.00001335,-0.00002124,0.00
 007176,0.00000790,0.00000489,-0.00001045,-0.00000152,0.00000676,-0.000
 00861,-0.00000148,0.00039281,-0.00022367,0.00260267,-0.00419634,-0.002
 97049,-0.00392623,0.00058744,0.00014740,-0.00082307,-0.01484322,0.0034
 9602,0.00868618,-0.00043224,-0.00033162,0.00047793,0.00010931,0.000805
 71,0.00020815,-0.27988692,-0.00325961,0.08608148,-0.00028987,-0.000165
 94,0.00024004,-0.00010629,0.00009959,-0.00013815,0.00022798,-0.0000441
 2,-0.00024369,0.00007872,0.00005256,-0.00009717,0.00063788,-0.00022258
 ,-0.00002749,-0.00860214,-0.00120531,0.00317618,0.30369580,0.00000053,
 0.00005930,-0.00027016,-0.00005236,-0.00004227,0.00000142,-0.00001777,
 -0.00001742,0.00003195,-0.00004585,-0.00005077,0.00001261,-0.00002342,
 0.00002329,0.00000840,0.00000480,-0.00000031,-0.00000198,0.00000366,0.
 00000100,0.00000286,0.00001462,0.00016341,-0.00001902,0.00002274,-0.00
 009005,-0.00002311,-0.00003675,-0.00009786,0.00000494,-0.00001061,0.00
 003474,0.00000359,0.00000235,-0.00000569,-0.00000040,0.00000307,-0.000
 00476,-0.00000091,-0.00028008,0.00000103,0.00138154,-0.00447727,-0.001
 21272,-0.00298110,0.00037053,-0.00007020,-0.00025648,-0.01505724,0.000
 14252,0.00966783,0.00014550,0.00057811,0.00004869,0.00045978,0.0002277
 5,0.00038763,-0.00133708,-0.04561461,-0.00162671,0.00035059,-0.0001655
 9,-0.00029967,-0.00017760,-0.00003204,-0.00005081,0.00016548,0.0002364
 2,-0.00006090,-0.00006435,-0.00001480,-0.00013487,-0.00012374,-0.00069
 242,-0.00018021,0.02674669,0.00209899,-0.01032232,0.00344967,0.0454925
 4,0.00000359,0.00011927,-0.00026775,-0.00003288,-0.00005679,0.00000134
 ,-0.00001255,-0.00001104,0.00003216,-0.00004469,-0.00004039,0.00001567
 ,-0.00001979,0.00002009,0.00000960,0.00000335,-0.00000128,-0.00000084,
 0.00000323,0.00000212,0.00000143,-0.00000094,0.00013778,-0.00002532,0.
 00002008,-0.00007063,-0.00002963,-0.00002982,-0.00007977,0.00000867,-0
 .00000844,0.00002694,0.00000345,0.00000194,-0.00000513,-0.00000056,0.0
 0000269,-0.00000370,-0.00000062,-0.00032611,-0.00009525,0.00158469,-0.
 00496027,-0.00266627,-0.00169207,0.00076664,-0.00000952,-0.00011027,-0
 .01599430,0.00161202,0.00647040,-0.00014586,0.00049048,0.00007749,0.00
 045265,0.00034387,0.00021430,0.08909709,-0.00106592,-0.07766272,-0.000
 05912,0.00023760,-0.00012206,-0.00027017,-0.00004671,-0.00005258,-0.00
 002967,0.00020082,-0.00007963,0.00004224,-0.00005455,0.00007334,-0.000
 09094,-0.00022368,0.00016412,-0.00112076,0.00011383,-0.00093912,-0.094
 91006,0.00147736,0.08170488,0.00001305,-0.00003260,0.00007392,-0.00000
 973,0.00000151,0.00000674,-0.00000363,-0.00000186,-0.00001227,0.000001
 32,-0.00000322,-0.00000393,-0.00000146,0.00000051,0.00000007,0.0000023
 8,-0.00000249,0.00000232,0.00000119,0.00000219,0.00000096,0.00001739,0
 .00001384,0.00000622,-0.00000688,-0.00001795,0.00002659,-0.00000793,-0
 .00001065,-0.00000481,-0.00000133,0.00000375,-0.00000156,0.00000105,-0
 .00000046,0.00000025,0.00000007,-0.00000062,0.00000071,0.00048523,0.00
 015215,-0.00088585,0.00213813,0.00056732,0.00091560,-0.00143768,-0.000
 02893,-0.00080583,-0.00227221,0.00607446,-0.01947760,-0.00103772,-0.00
 233284,-0.00018840,0.00034373,0.00105391,0.00019819,-0.04341832,0.0010
 4041,-0.00177166,-0.00047883,-0.00042524,0.00010049,-0.00021194,0.0001
 9818,-0.00043789,-0.00014309,0.00014461,0.00009294,0.00022500,-0.00032
 067,0.00025083,0.00001696,-0.00007625,0.00010702,-0.00081739,0.0031645
 6,-0.01085449,0.00167623,-0.01013992,0.02746622,0.04418870,0.00001210,
 -0.00002566,0.00005375,-0.00000944,-0.00000248,-0.00000077,-0.00000422
 ,-0.00000412,-0.00000854,-0.00000232,-0.00000971,-0.00000069,-0.000002
 85,0.00000292,-0.00000024,0.00000140,-0.00000238,-0.00000215,0.0000003
 4,-0.00000061,0.00000197,0.00000561,0.00002869,0.00001064,0.00002787,-
 0.00002251,0.00002197,-0.00000231,-0.00001370,-0.00000504,-0.00000192,
 0.00000571,-0.00000006,0.00000052,-0.00000076,0.00000045,0.00000026,-0
 .00000080,-0.00000008,0.00045508,0.00001977,-0.00061604,0.00134709,0.0
 0049401,0.00101275,-0.00129893,0.00032596,-0.00107228,-0.00046857,0.00
 475664,-0.02113661,-0.00203846,-0.00288647,-0.00000453,0.00004789,0.00
 074713,-0.00110184,0.00143752,-0.07655465,0.08823387,0.00005213,-0.000
 32847,0.00066727,-0.00000400,0.00024262,-0.00014704,0.00005188,0.00023
 311,0.00008890,-0.00034832,-0.00049227,-0.00015373,0.00009293,-0.00004
 321,-0.00001177,-0.00073191,-0.00836333,0.02678304,0.00012069,-0.00097
 435,-0.00063021,0.00106561,0.08226953,0.00002317,0.00000192,0.00004371
 ,-0.00004516,-0.00002254,0.00000175,-0.00002075,-0.00001524,-0.0000077
 1,-0.00003079,-0.00004487,-0.00000114,-0.00002118,0.00001787,0.0000032
 9,0.00000931,-0.00000502,0.00000091,0.00000793,0.00000121,0.,0.0000775
 4,0.00013561,0.00000516,-0.00003385,-0.00011232,0.00001837,-0.00005304
 ,-0.00010156,-0.00000384,-0.00001193,0.00003848,-0.00000037,0.00000379
 ,-0.00000540,0.00000020,0.00000286,-0.00000495,0.00000052,0.00065723,0
 .00017205,-0.00068520,0.00029265,0.00006310,0.00172384,-0.00167794,-0.
 00005314,-0.00079262,0.00083532,0.00680334,-0.02022500,-0.00121051,-0.
 00258986,0.00179060,0.00060811,0.00158309,0.00057894,-0.00389388,0.084
 70920,-0.28190804,0.00014766,-0.00045775,0.00014288,-0.00021723,0.0003
 5922,-0.00018938,-0.00010719,0.00004247,0.00049715,-0.00000771,-0.0007
 2313,0.00067201,-0.00005222,-0.00007417,0.00000924,0.00003221,-0.00053
 819,0.00115512,-0.00080288,0.00284874,-0.00875370,0.00544855,-0.091880
 34,0.30595548,-0.00001405,-0.00000625,-0.00001340,0.00001316,0.0000138
 6,-0.00001484,0.00000761,0.00000380,0.00000652,0.00001964,0.00001315,0
 .00000597,0.00000786,-0.00000596,-0.00000534,0.,0.00000401,-0.00000551
 ,0.00000201,-0.00000429,-0.00000538,-0.00003892,-0.00005561,0.00000295
 ,0.00002470,0.00004839,-0.00000893,0.00002366,0.00004288,0.00000345,0.
 00000496,-0.00001746,-0.00000123,-0.00000153,0.00000209,0.00000003,-0.
 00000118,0.00000217,0.00000004,-0.00001956,0.00008798,0.00058066,0.000
 24524,-0.00003411,-0.00014366,0.00105696,0.00015403,0.00034373,-0.0000
 7962,-0.00087364,0.00021317,-0.00143207,-0.00212281,0.00272846,0.00001
 319,-0.00001502,0.00013226,0.00009350,0.00012989,-0.00011703,-0.064006
 10,0.01671088,-0.06996885,-0.00020361,0.00021062,-0.00034395,0.0000021
 1,0.00001787,0.00000166,0.00003316,-0.00003881,0.00002857,0.00000566,-
 0.00000253,0.00000096,-0.00022740,0.00001174,-0.00005269,0.00027937,-0
 .00016202,0.00013278,0.00014722,0.00008128,-0.00002771,0.06544039,0.00
 000823,-0.00003444,-0.00004323,-0.00002024,0.00000315,-0.00000208,-0.0
 0000495,-0.00000373,0.00000718,0.00000259,-0.00000462,-0.00000256,-0.0
 0000130,0.00000215,0.00000112,0.00000574,-0.00000069,-0.00000222,0.000
 00157,-0.00000155,0.00000088,0.00001569,0.00002032,-0.00000904,-0.0000
 3493,0.00003259,-0.00004455,-0.00001492,-0.00002218,0.00000677,-0.0000
 0191,0.00000890,0.00000250,0.00000049,-0.00000121,-0.00000080,0.000001
 29,-0.00000081,-0.00000043,0.00036803,0.00012696,0.00106295,-0.0011006
 3,0.00016954,0.00004917,0.00168936,0.00252694,-0.00164039,0.00004018,-
 0.00553588,-0.00201717,0.00890102,-0.01009285,0.03246349,-0.00027695,0
 .00004825,0.00186373,-0.00024295,-0.00059582,-0.00101328,0.01469580,-0
 .05478450,0.04924466,-0.00033017,0.00127363,0.00128207,-0.00001756,0.0
 0005143,-0.00006224,0.00017931,-0.00063575,0.00020505,0.00007007,0.000
 03124,-0.00003771,-0.00022103,0.00049138,0.00005207,0.00006393,-0.0000
 4723,-0.00001700,0.00002785,0.00032493,0.00008636,-0.01679989,0.062402
 58,-0.00000870,-0.00000454,0.00001226,0.00002702,0.00000385,0.00000725
 ,0.00001129,0.00000805,-0.00000499,0.00001930,0.00002545,-0.00001149,0
 .00001300,-0.00001016,0.00000135,-0.00000319,-0.00000430,0.00000073,-0
 .00000904,0.00000463,0.00000744,-0.00005021,-0.00006118,-0.00000296,0.
 00005349,0.00003472,0.00001919,0.00003494,0.00005614,-0.00000119,0.000
 00547,-0.00002086,-0.00000296,-0.00000152,0.00000266,0.00000099,-0.000
 00224,0.00000273,0.00000030,-0.00035233,-0.00038488,-0.00047668,0.0004
 1362,0.00022429,0.00017289,0.00030321,-0.00085324,0.00143586,-0.000532
 60,0.00050450,0.00152483,-0.00162279,0.00019981,-0.00683174,0.00020130
 ,-0.00014580,-0.00042310,0.00041998,-0.00011745,-0.00017472,-0.0695466
 7,0.05292682,-0.28307691,0.00050388,-0.00099833,0.00032346,-0.00000107
 ,0.00006568,0.00003597,-0.00006798,0.00020340,0.00001725,-0.00004984,0
 .00001848,0.00001314,-0.00010549,0.00044684,0.00021036,-0.00003481,-0.
 00001812,0.00007690,-0.00009390,0.00016782,-0.00000863,0.07604530,-0.0
 5658346,0.30486305,0.00003087,0.00007096,0.00007702,-0.00003261,-0.000
 01277,0.00000292,-0.00002464,-0.00001466,-0.00001296,-0.00002567,-0.00
 005753,-0.00000120,-0.00002464,0.00001562,0.00000473,0.00001725,-0.000
 00539,0.00000851,0.00001092,0.00000206,-0.00000675,0.00015852,0.000134
 04,0.00000127,-0.00012664,-0.00016461,0.00004854,-0.00008916,-0.000137
 59,-0.00000960,-0.00001605,0.00005529,0.00000256,0.00000501,-0.0000061
 7,-0.00000069,0.00000424,-0.00000662,0.00000032,0.00086023,0.00024615,
 -0.00152463,0.00030889,-0.00009193,0.00044255,0.00014498,-0.00192937,0
 .00102175,-0.00039824,-0.00055633,-0.00055038,-0.00320171,0.00214977,-
 0.00018584,0.00001976,0.00005614,0.00021246,-0.00011067,0.00029206,-0.
 00117117,-0.28808472,-0.07449533,-0.03274048,-0.00022241,0.00061314,0.
 00015041,-0.00001495,0.00005718,-0.00000077,0.00002350,-0.00007481,0.0
 0004581,0.00002398,-0.00002707,-0.00000310,-0.00031345,0.00032759,0.00
 009939,0.00032814,0.00003610,-0.00026891,0.00022867,0.00041833,-0.0001
 0250,-0.00651622,-0.00168696,-0.00005829,0.31119076,0.00002717,0.00027
 583,0.00026109,-0.00003543,-0.00004207,0.00000961,-0.00004276,-0.00001
 619,-0.00002973,-0.00012804,-0.00011960,0.00001472,-0.00005195,0.00006
 265,0.00000102,0.00000384,0.00000231,-0.00001886,0.00001195,0.00000013
 ,0.00000846,0.00027516,0.00024326,0.00003303,-0.00019807,-0.00031435,0
 .00010994,-0.00015394,-0.00023340,-0.00003063,-0.00002739,0.00009118,0
 .00000327,0.00000886,-0.00000946,-0.00000087,0.00000687,-0.00001202,0.
 00000060,0.00059496,-0.00051515,-0.00366696,0.00105029,0.00032953,0.00
 086184,-0.00635377,-0.00766076,0.00288023,-0.00053765,0.00032924,-0.00
 035778,-0.02722684,-0.00248720,-0.00544561,0.00014410,0.00001453,-0.00
 006273,-0.00025455,0.00014326,0.00042620,-0.07082359,-0.06982739,-0.00
 938294,-0.00000981,0.00129075,0.00000504,-0.00003373,0.00005132,-0.000
 00247,0.00000764,0.00001489,0.00002900,0.00004731,-0.00004373,0.000006
 23,0.00011602,-0.00000421,0.00020439,0.00043368,-0.00009499,0.00037882
 ,0.00015241,0.00002813,-0.00008205,0.00692459,0.00122848,0.00031384,0.
 08016181,0.07285935,-0.00001448,-0.00003751,-0.00003725,0.00000784,0.0
 0000876,-0.00000031,0.00000371,0.00000300,0.00000429,-0.00000311,0.000
 00608,0.00000624,0.00000210,0.00000118,-0.00000048,-0.00000409,-0.0000
 0120,-0.00000881,-0.00000491,-0.00000337,0.00000779,-0.00001540,-0.000
 02380,-0.00000496,0.00000666,0.00003335,-0.00000632,0.00000977,0.00001
 809,0.00000294,0.00000216,-0.00000595,-0.00000017,-0.00000063,0.000000
 75,0.00000008,-0.00000053,0.00000095,-0.00000008,-0.00014337,-0.000218
 80,0.00016573,-0.00018197,0.00018482,0.00007564,0.00048073,0.00120464,
 0.00136773,0.00031159,-0.00029620,0.00019484,0.00504392,0.00077980,-0.
 00156236,-0.00011492,-0.00002029,0.00000648,0.00012307,0.00049833,-0.0
 0086250,-0.03435758,-0.01007896,-0.04825562,0.00014001,-0.00026724,0.0
 0011768,0.00000102,-0.00004968,-0.00000521,0.00000346,-0.00002773,0.00
 000450,-0.00000066,0.00000936,0.00000422,0.00029759,0.00009244,-0.0007
 4762,-0.00016600,0.00035664,-0.00064952,0.00000184,-0.00012193,0.00004
 466,-0.02710026,-0.00915803,-0.00225939,0.03761885,0.01046649,0.050013
 91,0.00002227,0.00003400,-0.00007472,0.00001051,0.00001891,0.00000882,
 0.00000595,0.00000301,0.00000525,0.00001620,0.00000313,0.00000320,0.00
 000342,-0.00000069,0.00000161,0.00002488,0.00000382,-0.00000048,0.0000
 0217,0.00000475,-0.00000486,-0.00002778,-0.00003624,-0.00000858,0.0000
 0429,0.00001528,-0.00001073,0.00001395,0.00002584,0.00000161,0.0000019
 8,-0.00001006,0.00000039,-0.00000095,0.00000120,0.00000014,-0.00000072
 ,0.00000116,-0.00000033,0.00003629,-0.00014607,0.00044006,-0.00001332,
 -0.00039726,-0.00016637,0.00171844,0.00003973,-0.00078181,0.00010445,0
 .00065147,0.00069323,-0.00085024,-0.00296959,-0.00291724,-0.00008911,-
 0.00005277,-0.00019297,-0.00022665,0.00052642,0.00062607,-0.13764594,0
 .08191031,0.09891395,0.00091411,-0.00019442,-0.00041906,-0.00000185,-0
 .00007378,-0.00000582,-0.00000698,0.00003858,-0.00003186,0.00000686,0.
 00000942,0.00001481,0.00001217,-0.00034663,-0.00075053,0.00019326,-0.0
 0003940,0.00001174,0.00013160,-0.00039509,-0.00000026,0.00496494,-0.00
 533230,-0.00556196,-0.01494670,0.01530326,0.01811391,0.14510944,0.0000
 2733,-0.00000714,0.00008453,0.00001672,0.00002887,0.,0.00001071,0.0000
 1094,-0.00001016,-0.00001405,0.00000736,0.00000936,0.00001273,0.000010
 16,-0.00000386,-0.00001102,0.00000404,-0.00003032,-0.00001299,0.000001
 39,0.00002382,-0.00007046,-0.00007911,0.00001275,0.00003884,0.00006727
 ,0.00001907,0.00003433,0.00006269,-0.00000114,0.00000762,-0.00002443,-
 0.00000350,-0.00000160,0.00000281,0.00000049,-0.00000229,0.00000280,0.
 00000101,-0.00083244,-0.00100471,-0.00054808,-0.00027859,0.00073779,0.
 00042929,0.00062544,0.00290927,0.00107577,0.00056879,0.00048389,-0.001
 17725,0.02030680,-0.01612532,-0.02135761,-0.00001727,0.00012463,-0.000
 07021,-0.00010559,-0.00002226,0.00006862,0.07902233,-0.11612954,-0.084
 66362,-0.00227732,-0.00639649,0.00181548,0.00004780,0.00007723,-0.0000
 3314,-0.00001781,0.00003730,0.00007880,-0.00007338,0.00004256,-0.00004
 355,0.00033107,0.00042323,0.00059188,-0.00016513,0.00012373,-0.0000976
 2,-0.00009468,0.00020681,0.00001352,-0.00467965,0.00308868,0.00430855,
 -0.00544544,0.00471382,0.00679205,-0.08815455,0.12735775,-0.00000128,-
 0.00001440,-0.00008314,-0.00000198,0.00000792,0.00002748,-0.00000507,0
 .00000003,0.00000255,0.00000652,-0.00003105,0.00005720,-0.00000484,0.0
 0002306,-0.00001310,-0.00001952,0.00001674,-0.00005405,-0.00000539,-0.
 00000458,0.00000717,0.00004921,0.00001187,-0.00002665,-0.00003134,-0.0
 0000316,-0.00001039,-0.00001747,-0.00001554,-0.00000058,-0.00000105,0.
 00000641,0.00000060,0.00000067,-0.00000033,-0.00000036,0.00000057,-0.0
 0000044,0.00000047,0.00025913,-0.00013771,0.00027016,-0.00032871,0.000
 17163,-0.00004945,-0.00087571,-0.00035433,0.00003528,-0.00029049,-0.00
 021249,-0.00031078,-0.00374112,0.00382370,0.00315627,-0.00007424,-0.00
 004445,0.00020768,-0.00068036,0.00026769,-0.00086047,0.10053840,-0.087
 38524,-0.15022151,-0.00012976,0.00059696,0.00033937,0.00001983,-0.0000
 2368,0.00000140,0.00001922,-0.00008383,0.00005906,0.00000143,-0.000005
 26,-0.00001027,-0.00083980,0.00084285,-0.00106226,0.00002822,0.0001135
 6,-0.00004277,0.00004506,-0.00000934,0.00010075,0.01726595,-0.01466765
 ,-0.01641016,-0.00326624,0.00311477,0.00231808,-0.10821061,0.09370966,
 0.16167673,0.00000468,0.00003351,-0.00007911,0.00000335,-0.00000319,-0
 .00000592,0.00000036,0.00000093,0.00001383,-0.00000587,-0.00000277,0.0
 0000507,-0.00000204,0.00000216,0.00000060,-0.00000097,0.00000162,-0.00
 000178,0.00000198,-0.00000221,-0.00000299,0.00002066,0.00000651,-0.000
 00906,-0.00002010,-0.00000077,-0.00001769,-0.00001036,-0.00001123,0.00
 000257,-0.00000172,0.00000422,0.00000216,0.00000030,-0.00000041,-0.000
 00055,0.00000104,-0.00000042,-0.00000059,0.00058272,-0.00003954,0.0008
 0806,-0.00128002,-0.00023311,0.00103836,0.00223375,-0.00026889,-0.0010
 4077,-0.00148522,0.00222453,0.00054856,0.00101319,-0.00608732,0.019947
 73,-0.00056505,0.00033399,-0.00013433,-0.00009772,-0.00021337,0.000447
 89,0.00043910,-0.00086324,-0.00000868,-0.05022225,0.01418129,-0.041091
 45,0.00005617,0.00006632,-0.00003365,0.00018079,-0.00004012,0.00003911
 ,0.00034749,-0.00011329,-0.00002802,0.00002275,0.00001039,-0.00002773,
 0.00009381,0.00007761,0.00007644,0.00011769,0.00009283,0.00013987,0.00
 009231,0.00031862,-0.00017184,0.00000345,0.00008044,-0.00010320,-0.000
 06757,-0.00019505,-0.00004075,0.05169815,-0.00001365,-0.00002836,0.000
 04710,0.00000052,0.00000946,-0.00000259,0.00000161,0.00000438,-0.00000
 694,0.00000697,0.00001174,-0.00000157,0.00000426,-0.00000448,-0.000000
 27,-0.00000031,-0.00000009,0.00000167,-0.00000266,0.00000265,-0.000000
 30,0.00004032,-0.00003360,0.00000272,-0.00005973,0.00002615,0.00001458
 ,-0.00001434,0.00000081,-0.00000169,0.00000006,0.00000086,0.00000217,0
 .00000041,0.00000052,-0.00000114,0.00000100,0.00000009,0.,-0.00040718,
 -0.00011964,-0.00042687,0.00090194,0.00047317,-0.00107564,-0.00094381,
 0.00024036,0.00095660,0.00224203,-0.00215248,-0.00020311,-0.00273800,0
 .00366635,-0.01790194,0.00005658,-0.00025380,0.00064716,-0.00006922,0.
 00020388,-0.00006491,-0.00023747,0.00056348,-0.00106387,0.01417461,-0.
 07456796,0.08417576,0.00035629,0.00027048,-0.00006539,-0.00009897,0.00
 029935,0.00018925,-0.00039710,-0.00005593,-0.00004741,0.00003810,0.000
 04454,-0.00001803,-0.00002061,0.00000519,0.00002121,-0.00008728,0.0000
 0250,-0.00009695,0.00039627,-0.00035151,-0.00021854,-0.00009736,-0.000
 03783,-0.00001069,-0.00014018,0.00021882,0.00012297,-0.01777870,0.0791
 2272,-0.00001996,-0.00001684,0.00005484,0.00004647,0.00001784,0.000004
 18,0.00002171,0.00001390,-0.00000895,0.00003284,0.00004579,-0.00000552
 ,0.00002300,-0.00001994,-0.00000280,-0.00000628,-0.00000040,0.00000225
 ,-0.00000813,0.00000347,0.00000200,-0.00012163,-0.00013015,0.00000555,
 0.00011399,0.00009037,0.00002643,0.00007689,0.00012144,-0.00000097,0.0
 0001323,-0.00004713,-0.00000638,-0.00000377,0.00000582,0.00000172,-0.0
 0000477,0.00000582,0.00000072,-0.00081742,-0.00009765,-0.00069387,0.00
 171599,0.00021458,-0.00112369,-0.00036068,0.00002969,0.00188916,0.0019
 9031,-0.00260842,0.00153778,-0.00452858,0.00717399,-0.02226946,0.00002
 246,-0.00049805,0.00018261,0.00015110,0.00041700,-0.00027199,-0.000804
 93,0.00151641,0.00067995,-0.03841136,0.08110257,-0.27710113,-0.0000217
 9,-0.00001369,0.00008306,-0.00001082,0.00009406,-0.00002864,0.00008820
 ,-0.00005285,0.00002976,0.00002330,-0.00008387,-0.00001765,-0.00003800
 ,-0.00000446,0.00005080,-0.00015935,-0.00013326,-0.00019331,0.00018919
 ,-0.00075323,0.00063241,0.00005050,-0.00008605,0.00000243,0.00012587,0
 .00009138,0.00047648,0.04087124,-0.08778256,0.30135403,0.00000012,0.00
 000730,-0.00009856,0.00001088,-0.00002416,0.00003959,0.00000778,0.0000
 0240,0.00000308,0.00001663,0.00000705,-0.00000385,0.00000690,-0.000006
 78,-0.00000093,-0.00000092,0.00000124,0.00000063,-0.00001168,0.0000056
 6,-0.00000365,-0.00016181,-0.00001786,-0.00004259,0.00015482,0.0000255
 3,-0.00008459,0.00005471,0.00006581,0.00000594,0.00000559,-0.00002451,
 -0.00000046,-0.00000243,0.00000317,-0.00000018,-0.00000007,0.00000211,
 -0.00000123,0.00006069,0.00012485,0.00062296,-0.00017354,-0.00000837,-
 0.00019758,0.00243344,-0.00059257,-0.00116929,0.00039020,-0.00043860,-
 0.00050583,0.00185932,0.01981410,-0.00163210,0.00033661,-0.00009006,0.
 00058289,-0.00003832,0.00001879,-0.00010254,-0.00231594,0.00174072,0.0
 0268056,-0.05576089,-0.05677042,0.00235460,0.00020992,-0.00025356,0.00
 050751,-0.00023141,0.00011244,0.00009254,-0.00031951,-0.00012887,-0.00
 035956,-0.00000384,-0.00002608,-0.00005567,0.00006704,0.00002226,0.000
 04686,0.00003368,-0.00004247,-0.00001567,-0.00002645,-0.00025200,0.000
 11318,0.00024060,0.00009703,0.00002078,0.00028326,0.00131710,0.0001408
 3,0.00019207,0.00546390,0.00010902,0.05707036,-0.00002052,-0.00006932,
 -0.00000419,0.00000606,0.00001898,-0.00001125,0.00000174,0.00000269,0.
 00000425,0.00001934,0.00001058,0.00000240,0.00000514,-0.00000287,-0.00
 000105,-0.00000438,0.00000300,-0.00000326,-0.00000244,-0.00000083,0.00
 000359,0.00008897,-0.00004598,-0.00000996,-0.00007131,0.00003238,0.000
 04816,-0.00003306,-0.00001467,-0.00000166,0.00000083,0.00000831,-0.000
 00228,0.00000111,-0.00000038,0.00000020,0.00000085,0.00000115,0.000001
 53,-0.00002667,-0.00012100,-0.00009922,0.00016165,0.00027398,-0.000137
 55,-0.00058441,0.00215398,0.00056421,0.00026901,-0.00083120,0.00112914
 ,-0.00495172,-0.01639797,0.00160991,-0.00040739,-0.00035069,0.00173871
 ,0.00000774,0.00012295,0.00007069,0.00297572,-0.00045825,-0.00323641,-
 0.05413000,-0.30780422,0.00799911,0.00036076,0.00036925,0.00084060,-0.
 00008872,0.00049007,0.00045860,-0.00036200,-0.00005781,0.00012899,0.00
 002937,0.00003693,0.00006773,0.00002233,0.00000518,0.00002577,-0.00002
 017,0.00003842,-0.00007862,-0.00009570,0.00028927,0.00004129,-0.000116
 34,0.00033484,0.00009211,-0.00006981,-0.00118149,0.00016138,-0.0018841
 8,-0.00816498,-0.00021624,0.05869906,0.33344858,-0.00001844,-0.0000626
 3,-0.00001231,-0.00002259,0.00002511,-0.00000855,-0.00000567,0.0000014
 2,0.00000560,0.00001050,0.00000168,0.00000408,-0.00000023,0.00000041,0
 .00000047,-0.00000275,0.00000189,-0.00000297,-0.00000132,0.00000173,0.
 00000069,0.00011713,-0.00000238,-0.00001253,-0.00025952,0.00001717,-0.
 00005189,-0.00005890,-0.00005429,0.00000569,-0.00000786,0.00002433,0.0
 0000784,0.00000300,-0.00000107,-0.00000272,0.00000318,-0.00000307,-0.0
 0000160,-0.00001716,-0.00010627,0.00026895,-0.00028616,0.00033467,-0.0
 0008565,-0.00119073,0.00127369,0.00061060,-0.00012369,-0.00059779,0.00
 093586,-0.00636785,-0.02100388,0.00046439,-0.00025654,-0.00012822,-0.0
 0195427,-0.00013822,0.00012673,0.00006760,0.00259920,-0.00127959,-0.00
 246085,0.00419537,0.01247759,-0.04554024,0.00064477,0.00077636,-0.0010
 3507,0.00010274,0.00005274,0.00019606,-0.00020305,0.00018012,-0.000733
 81,0.00005223,0.00007900,0.00006534,0.00006213,0.00000124,0.00003702,0
 .00002315,-0.00000956,-0.00002016,0.00015762,-0.00022053,0.00026332,0.
 00003735,0.00027328,-0.00010911,0.00025745,-0.00127903,0.00050511,0.00
 661949,0.02777932,0.00003708,-0.00481640,-0.01145797,0.04944292,0.0000
 2511,-0.00016296,0.00036478,-0.00011963,-0.00001447,-0.00000065,-0.000
 04386,-0.00003479,-0.00005042,-0.00003960,-0.00008109,-0.00000964,-0.0
 0003657,0.00003024,0.00000223,0.00001748,-0.00000706,-0.00000037,0.000
 01053,0.00000369,0.00000085,0.00012035,0.00025209,0.00003331,-0.000061
 87,-0.00018530,0.00003976,-0.00009305,-0.00018722,-0.00001172,-0.00002
 004,0.00007146,0.00000364,0.00000607,-0.00000995,-0.00000051,0.0000053
 2,-0.00000934,0.00000006,0.00005563,0.00065911,-0.00259107,0.00061968,
 -0.00005269,0.00077044,-0.00411532,0.00209412,0.00461573,-0.00041272,0
 .00026415,-0.00046336,-0.01512934,-0.00564916,-0.00732545,-0.00022909,
 0.00021613,-0.00018254,-0.00002043,-0.00009764,0.00013360,0.00018347,-
 0.00076368,-0.00022348,-0.29286481,-0.03541929,-0.05786319,0.00011043,
 0.00013679,-0.00008198,0.00023186,-0.00002687,0.00001634,0.00047721,-0
 .00030289,0.00000062,0.00003715,-0.00000531,-0.00004870,0.00024911,0.0
 0016890,0.00019727,0.00007879,0.00003911,0.00004591,0.00008911,-0.0000
 5106,0.00010936,0.00054898,0.00043065,0.00002206,0.00029735,0.00008196
 ,0.00019097,-0.00334704,-0.00057788,-0.00034799,-0.00438860,0.00021959
 ,-0.00110759,0.31775808,-0.00002238,0.00006051,-0.00022405,0.00005641,
 0.00002398,0.00001171,0.00001678,0.00001391,0.00002933,0.00001732,0.00
 002931,0.00000541,0.00001274,-0.00001144,0.00000094,-0.00000343,0.0000
 0037,0.00000043,-0.00000394,0.00000012,-0.00000092,0.00002827,-0.00010
 909,-0.00002823,-0.00001473,0.00007333,0.00001549,0.00000999,0.0000518
 8,0.00000230,0.00000680,-0.00001730,-0.00000409,-0.00000114,0.00000318
 ,0.00000074,-0.00000181,0.00000387,0.00000148,0.00045694,-0.00010708,0
 .00090278,-0.00028064,-0.00014675,-0.00007130,0.00353569,-0.00005352,-
 0.00276241,-0.00028533,0.00059186,-0.00001260,0.01355146,0.00163306,0.
 00656077,-0.00039603,-0.00015522,-0.00028704,0.00015572,-0.00002104,-0
 .00002182,-0.00035108,0.00002766,0.00041472,-0.03730218,-0.05092304,-0
 .01074961,0.00003217,0.00014235,0.00009854,0.00021177,-0.00002666,-0.0
 0004228,0.00010722,-0.00008175,0.00031974,-0.00001337,-0.00000068,-0.0
 0001036,-0.00000355,0.00004041,-0.00002812,-0.00006680,-0.00000052,0.0
 0001573,0.00005581,-0.00000643,-0.00014177,0.00029784,-0.00058215,-0.0
 0022849,-0.00023293,0.00022302,0.00000306,0.01030338,0.00060295,0.0015
 9396,-0.02885770,-0.00213872,-0.00721911,0.03898138,0.05085630,-0.0000
 4022,0.00013054,-0.00033355,0.00008443,0.00004287,0.00002154,0.0000261
 5,0.00002112,0.00004657,0.00001160,0.00003509,0.00000895,0.00001850,-0
 .00001456,0.00000093,-0.00000592,0.00000427,-0.00000017,-0.00000137,-0
 .00000306,-0.00000102,-0.00001706,-0.00016565,-0.00004092,-0.00000811,
 0.00010465,-0.00001122,0.00004139,0.00010259,0.00000731,0.00001167,-0.
 00003690,-0.00000450,-0.00000293,0.00000597,0.00000059,-0.00000324,0.0
 0000596,0.00000107,0.00048039,-0.00027343,0.00182392,-0.00080839,-0.00
 012968,-0.00009217,0.00561637,-0.00210016,-0.00282774,0.00012989,0.000
 45575,0.00006225,0.01796812,0.00488188,0.00534728,0.00002901,0.0002244
 9,-0.00011071,0.00024337,-0.00000320,-0.00010305,-0.00050488,0.0003472
 9,0.00030081,-0.06088477,-0.01097272,-0.05939329,0.00000921,-0.0001083
 4,-0.00003001,-0.00014007,-0.00003040,0.00009170,0.00011603,0.00048554
 ,-0.00051337,-0.00003897,0.00001682,0.00003725,0.00000257,-0.00009744,
 -0.00009689,-0.00007031,0.00000355,0.00004438,-0.00003067,-0.00005208,
 0.00006560,0.00007882,-0.00023455,0.00017241,-0.00007987,0.00019261,-0
 .00008587,-0.02776255,-0.00496974,-0.00532965,0.00177041,0.00027075,-0
 .00088568,0.06376206,0.01185421,0.06182658,-0.00034728,0.00006743,0.00
 002457,0.00117922,0.00101626,-0.00001368,-0.00005036,-0.00000146,0.000
 00458,0.00015409,0.00016219,-0.00000136,-0.00003298,0.00000177,0.00000
 147,-0.00004241,0.00007282,-0.00000642,-0.00004181,0.00007024,0.000018
 18,-0.00606936,0.00156723,0.00041601,0.00207650,-0.00162355,-0.0001504
 7,0.01496442,0.01523077,0.00012580,-0.17301951,-0.07889168,0.00037352,
 -0.01378153,-0.01343556,0.00220876,-0.01198667,-0.01127752,-0.00203157
 ,-0.00047305,-0.00022700,0.00002688,0.00024735,0.00005676,0.00005114,0
 .00024226,0.00008498,-0.00008405,-0.00008779,0.00001108,0.00003157,-0.
 00009352,-0.00003582,-0.00001594,0.00002099,-0.00001044,-0.00002458,0.
 00001340,-0.00000787,-0.00001046,0.00002218,-0.00000218,0.00000300,0.0
 0001403,0.00001169,0.00000575,-0.00002751,0.00001116,0.00000803,-0.000
 00005,0.00000045,0.00000592,0.00001540,-0.00000073,0.00000563,-0.00000
 108,0.00000266,0.00000051,0.00000955,0.00000508,0.00000415,0.00000068,
 0.00000083,0.00000525,-0.00000210,0.00000124,-0.00000283,0.00000663,0.
 00001103,-0.00000087,-0.00000129,-0.00000298,0.00000068,0.00000059,-0.
 00000009,-0.00000607,-0.00000271,0.00000043,0.00000238,0.00000963,-0.0
 0000306,-0.00000556,0.52905798,0.00034620,-0.00026154,-0.00003578,-0.0
 0152699,-0.00120221,0.00002287,0.00001164,0.00003847,0.00000070,-0.000
 14571,-0.00011725,0.00000407,0.00002042,0.00000316,-0.00000061,0.00002
 731,-0.00005895,0.00000373,0.00002666,-0.00005668,-0.00001284,0.007366
 36,-0.00264211,-0.00055920,-0.00186987,0.00149583,0.00013302,-0.027789
 13,-0.04635280,-0.00111943,-0.06504649,-0.11941617,0.00135000,0.002357
 64,0.00390901,-0.00028265,0.00029669,0.00187515,0.00026252,0.00030689,
 0.00007083,-0.00002030,-0.00015839,-0.00002335,-0.00002704,-0.00015246
 ,-0.00003960,0.00004776,0.00005316,-0.00001070,-0.00001963,0.00005316,
 0.00002039,0.00001051,-0.00001288,0.00000739,0.00001401,-0.00000923,0.
 00000600,0.00000634,-0.00001279,0.00000132,-0.00000212,-0.00000858,-0.
 00000778,-0.00000357,0.00001678,-0.00000565,-0.00000525,0.,-0.00000015
 ,-0.00000353,-0.00000783,0.00000174,-0.00000289,0.00000092,-0.00000086
 ,-0.00000004,-0.00000581,-0.00000317,-0.00000263,-0.00000034,-0.000000
 59,-0.00000314,0.00000123,-0.00000063,0.00000155,-0.00000392,-0.000006
 43,0.00000055,0.00000076,0.00000206,-0.00000025,-0.00000034,0.00000029
 ,0.00000341,0.00000143,0.00000047,-0.00000149,-0.00000567,0.00000227,0
 .00000358,-0.04192193,0.54097771,0.00003710,-0.00001732,0.00001441,-0.
 00013357,-0.00012388,0.00015915,0.00000319,0.00000207,0.00000686,-0.00
 001929,-0.00001167,-0.00005512,0.00000277,0.00000017,0.00000053,-0.000
 00056,0.00000352,0.00000280,0.00000805,-0.00001713,-0.00000115,0.00071
 901,-0.00022326,-0.00009659,-0.00015837,0.00014518,0.00087769,-0.00218
 655,-0.00333181,0.00140638,0.00111387,0.00206082,-0.08292316,-0.018672
 53,-0.01800875,0.00172298,0.02030203,0.01937778,0.00198627,0.00004200,
 0.00001201,0.00002919,-0.00001277,0.00000090,-0.00000314,-0.00002878,-
 0.00001051,0.00000905,0.00000352,0.00000028,-0.00000077,0.00001118,0.0
 0000199,0.00000119,-0.00000220,-0.00000102,0.00000032,-0.00000049,0.00
 000038,0.00000026,-0.00000292,0.00000023,0.00000014,-0.00000160,-0.000
 00227,-0.00000037,0.00000303,-0.00000035,-0.00000220,0.00000096,0.0000
 0115,0.00000131,-0.00000147,-0.00000039,-0.00000010,-0.00000001,-0.000
 00040,0.,-0.00000060,-0.00000034,-0.00000024,-0.00000010,0.00000006,-0
 .00000029,0.00000032,-0.00000015,0.00000015,-0.00000067,-0.00000118,0.
 00000005,0.00000012,0.00000046,0.00000003,-0.00000006,-0.00000017,0.00
 000060,-0.00000048,0.00000033,-0.00000090,-0.00000078,0.00000084,0.000
 00070,-0.00005981,0.00054447,0.57116312,0.00004054,0.00000396,0.000002
 69,-0.00007878,-0.00011989,0.00003713,0.00001347,-0.00000147,-0.000003
 75,-0.00001665,-0.00001895,-0.00000383,0.00000744,-0.00000490,0.000000
 22,0.00000843,-0.00001203,0.00000212,0.00000827,-0.00001399,-0.0000040
 0,0.00003993,0.00056779,-0.00014175,-0.00003819,-0.00049960,-0.0001461
 9,0.00148619,0.00099029,-0.00095919,-0.01534001,0.00374042,0.02368449,
 0.00083623,0.00073324,-0.00012099,-0.00275845,-0.00415214,-0.00050500,
 0.00011544,0.00011903,0.00000300,-0.00006233,-0.00002654,-0.00002352,-
 0.00006338,-0.00003609,0.00002466,0.00002430,0.00000088,-0.00000766,0.
 00002961,0.00000975,0.00000488,-0.00000359,0.00000500,0.00001046,-0.00
 000230,0.00000133,0.00000278,-0.00000676,0.00000045,-0.00000106,-0.000
 00337,-0.00000139,-0.00000177,0.00001280,-0.00000382,-0.00000304,-0.00
 000055,-0.00000047,-0.00000273,-0.00000443,-0.00000008,-0.00000183,0.0
 0000011,-0.00000115,-0.00000025,-0.00000241,-0.00000121,-0.00000104,-0
 .00000044,-0.00000013,-0.00000187,0.00000067,-0.00000016,0.00000062,-0
 .00000218,-0.00000344,0.00000026,0.00000053,0.00000052,-0.00000035,0.0
 0000014,0.00000016,0.00000143,0.00000155,-0.00000072,-0.00000024,-0.00
 000293,0.00000026,0.00000113,-0.11790841,0.01014332,0.11614416,0.12881
 704,-0.00001442,-0.00001204,0.00000798,0.00007652,0.00010973,-0.000049
 24,0.00000785,-0.00001230,0.00000300,0.00001279,0.00001295,0.00000802,
 -0.00000157,-0.00000131,0.00000029,-0.00000243,0.00000302,-0.00000113,
 -0.00000436,0.00000616,0.00000109,-0.00085173,-0.00020544,-0.00011553,
 0.00038458,-0.00039092,-0.00011412,0.00088629,0.00311199,0.00027094,-0
 .01257767,-0.00009239,0.02045173,0.00090646,0.00062754,-0.00038226,-0.
 00332274,-0.00239624,-0.00015997,-0.00002838,0.00001581,-0.00000048,0.
 00001474,-0.00000287,-0.00000139,0.00001416,-0.00000032,-0.00000272,-0
 .00000405,0.00000238,0.00000211,-0.00000341,-0.00000176,-0.00000104,0.
 00000201,-0.00000025,-0.00000028,0.00000115,-0.00000063,-0.00000055,0.
 00000087,-0.00000013,0.00000009,0.00000091,0.00000110,0.00000024,-0.00
 000042,0.00000082,0.00000038,-0.00000027,-0.00000006,0.,0.00000075,-0.
 00000007,0.00000015,-0.00000014,-0.00000008,0.,0.00000056,0.00000031,0
 .00000018,-0.00000009,0.00000009,0.00000016,-0.00000010,0.00000009,-0.
 00000013,0.00000026,0.00000041,-0.00000003,0.00000001,-0.00000022,0.,0
 .00000009,-0.00000003,-0.00000031,0.00000010,-0.00000022,0.00000018,0.
 00000044,-0.00000034,-0.00000043,0.01270220,-0.04657655,-0.02081265,-0
 .00925979,0.04715243,-0.00002318,0.00000420,-0.00000101,0.00006547,0.0
 0003412,-0.00000237,-0.00000555,0.00000685,-0.00000540,0.00000901,0.00
 000815,0.00000057,-0.00000242,0.00000103,-0.00000045,-0.00000330,0.000
 00454,-0.00000032,-0.00000245,0.00000455,0.00000125,-0.00017839,0.0000
 5497,0.00008758,-0.00009527,-0.00004074,-0.00006447,-0.00016026,0.0003
 4918,0.00029869,-0.00120673,-0.00020552,0.00066809,0.00013503,0.000547
 75,0.00104834,0.00009696,-0.00042296,0.00151885,-0.00002979,-0.0000161
 8,-0.00000455,0.00001341,0.00000299,0.00000455,0.00001534,0.00000726,-
 0.00000220,-0.00000422,-0.00000085,0.00000131,-0.00000668,-0.00000297,
 -0.00000176,0.00000064,-0.00000035,-0.00000206,0.00000034,-0.00000015,
 -0.00000057,0.00000137,-0.00000007,0.00000013,0.00000096,0.00000008,0.
 00000055,-0.00000304,-0.00000022,0.00000039,0.,-0.00000009,0.00000044,
 0.00000087,-0.00000004,0.00000023,0.00000003,0.00000054,0.00000006,0.0
 0000049,0.00000025,0.00000025,0.00000017,-0.00000005,0.00000047,-0.000
 00017,0.00000002,-0.00000016,0.00000056,0.00000076,-0.00000005,-0.0000
 0020,0.00000010,0.00000014,-0.00000019,-0.00000020,-0.00000026,-0.0000
 0057,0.00000049,-0.00000030,0.00000082,0.00000004,-0.00000015,0.118779
 70,-0.01876138,-0.24048194,-0.12986442,0.02096053,0.25635613,0.0001405
 3,-0.00006735,-0.00001291,-0.00053149,-0.00048350,0.00000147,0.0000182
 4,0.00000519,-0.00000101,-0.00006165,-0.00005885,0.00000108,0.00001233
 ,-0.00000240,-0.00000072,0.00001610,-0.00003015,0.00000233,0.00001588,
 -0.00002905,-0.00000720,0.00242841,-0.00049183,-0.00012960,-0.00067961
 ,0.00024107,0.00004241,-0.00450211,-0.00686137,-0.00007633,0.01053525,
 -0.02073097,-0.00178502,0.00071543,0.00069611,-0.00036039,0.00073409,0
 .00064227,0.00036989,0.00019213,0.00011580,-0.00001002,-0.00010123,-0.
 00002821,-0.00002388,-0.00009964,-0.00003936,0.00003780,0.00003801,-0.
 00000327,-0.00001317,0.00004053,0.00001450,0.00000654,-0.00000844,0.00
 000611,0.00001169,-0.00000529,0.00000315,0.00000423,-0.00000959,0.0000
 0092,-0.00000132,-0.00000558,-0.00000461,-0.00000232,0.00001525,-0.000
 00526,-0.00000414,0.00000005,-0.00000029,-0.00000256,-0.00000674,0.000
 00003,-0.00000249,0.00000042,-0.00000107,-0.00000023,-0.00000396,-0.00
 000209,-0.00000166,-0.00000027,-0.00000032,-0.00000218,0.00000085,-0.0
 0000046,0.00000116,-0.00000281,-0.00000477,0.00000039,0.00000051,0.000
 00126,-0.00000027,-0.00000025,0.00000007,0.00000249,0.00000131,-0.0000
 0013,-0.00000114,-0.00000399,0.00000122,0.00000226,-0.08120882,0.09177
 797,0.00686682,-0.00585867,0.01436660,-0.00038441,0.08467418,0.0001652
 7,-0.00002333,-0.00001067,-0.00050706,-0.00041561,0.00001581,0.0000265
 0,-0.00000982,-0.00000308,-0.00006549,-0.00006235,-0.00000105,0.000016
 07,-0.00000542,-0.00000088,0.00002080,-0.00003673,0.00000371,0.0000208
 4,-0.00003607,-0.00000950,0.00264646,0.00099686,-0.00013005,-0.0010172
 3,-0.00007449,0.00005518,-0.00533703,-0.00503004,-0.00004046,0.0116841
 7,-0.01628981,-0.00131646,-0.00015922,0.00056007,-0.00046195,-0.000093
 36,0.00051661,0.00051861,0.00026394,0.00020959,-0.00001096,-0.00014631
 ,-0.00005014,-0.00003766,-0.00014659,-0.00006803,0.00005861,0.00005868
 ,-0.00000273,-0.00001933,0.00006419,0.00002128,0.00000892,-0.00001237,
 0.00001069,0.00001904,-0.00000722,0.00000419,0.00000611,-0.00001491,0.
 00000130,-0.00000182,-0.00000800,-0.00000636,-0.00000314,0.00002548,-0
 .00000929,-0.00000760,0.00000024,-0.00000056,-0.00000391,-0.00001105,-
 0.00000084,-0.00000389,0.00000060,-0.00000180,-0.00000049,-0.00000606,
 -0.00000303,-0.00000223,-0.00000022,-0.00000050,-0.00000317,0.00000149
 ,-0.00000070,0.00000171,-0.00000453,-0.00000741,0.00000050,0.00000080,
 0.00000200,-0.00000041,-0.00000022,0.00000008,0.00000382,0.00000225,-0
 .00000046,-0.00000174,-0.00000616,0.00000154,0.00000312,0.08747889,-0.
 27892460,-0.01710616,-0.00002842,-0.00083632,0.00002254,-0.09568423,0.
 30295710,0.00000131,0.00000308,-0.00001379,-0.00000735,0.00000748,-0.0
 0011348,0.00000090,-0.00000118,0.00000276,0.00000073,-0.00000157,0.000
 01989,0.00000023,-0.00000015,-0.00000097,0.00000138,-0.00000390,-0.000
 00119,-0.00000083,0.00000298,-0.00000097,0.00005318,0.00005201,0.00059
 647,-0.00002802,-0.00001434,-0.00010422,-0.00000109,0.00001178,0.00107
 088,-0.00004715,0.00034727,-0.00278396,0.00013013,0.00013923,0.0001210
 2,-0.00020421,-0.00015996,0.00013425,0.00000417,0.00000658,-0.00001037
 ,-0.00000603,-0.00000405,-0.00000128,0.00000007,0.00000075,0.00000085,
 0.00000255,-0.00000133,-0.00000109,-0.00000004,0.00000171,0.00000005,-
 0.00000039,0.00000086,0.00000121,-0.00000053,0.00000017,0.00000054,0.0
 0000031,0.,-0.00000003,-0.00000011,0.00000004,-0.00000009,0.00000038,-
 0.00000046,-0.00000005,0.00000004,-0.00000017,-0.00000048,-0.00000033,
 -0.00000011,-0.00000017,0.00000001,-0.00000002,-0.00000001,-0.00000026
 ,-0.00000014,-0.00000012,0.,0.,-0.00000021,0.,0.,0.,-0.00000009,0.0000
 0002,0.00000002,0.00000006,-0.00000002,-0.00000002,0.00000001,0.000000
 16,-0.00000001,0.00000021,-0.00000015,0.00000020,-0.00000017,-0.000000
 10,0.,0.00663004,-0.01731739,-0.04437404,0.00802620,-0.02484991,-0.000
 90423,-0.00728274,0.01882730,0.04408744,0.00004188,0.00000394,-0.00000
 785,-0.00008876,-0.00011703,-0.00003950,0.00001439,-0.00000244,0.00000
 070,-0.00001683,-0.00001989,0.00000360,0.00000747,-0.00000481,-0.00000
 151,0.00000847,-0.00001473,0.00000171,0.00000853,-0.00001178,-0.000004
 21,0.00007488,0.00053135,0.00020618,-0.00001086,-0.00049778,0.00008573
 ,0.00160329,0.00087589,0.00092883,-0.01751123,0.00615218,-0.02140745,-
 0.00271796,-0.00416589,0.00049125,0.00084523,0.00065635,0.00021521,0.0
 0011569,0.00011893,-0.00001250,-0.00006161,-0.00002867,-0.00001577,-0.
 00006330,-0.00003313,0.00003348,0.00002551,0.00000163,-0.00000932,0.00
 002759,0.00000947,0.00000234,-0.00000447,0.00000407,0.00000962,-0.0000
 0269,0.00000103,0.00000279,-0.00000640,0.00000074,-0.00000066,-0.00000
 286,-0.00000255,-0.00000134,0.00001247,-0.00000365,-0.00000492,0.00000
 078,0.00000034,-0.00000048,-0.00000521,-0.00000070,-0.00000158,0.00000
 019,-0.00000130,-0.00000043,-0.00000276,-0.00000122,-0.00000097,0.0000
 0007,-0.00000006,-0.00000093,0.00000053,-0.00000062,0.00000120,-0.0000
 0192,-0.00000331,0.00000025,0.00000027,0.00000093,-0.00000032,-0.00000
 039,-0.00000057,0.00000229,0.00000061,-0.00000005,-0.00000165,-0.00000
 245,0.00000093,0.00000150,-0.14285663,0.02586982,-0.12397449,0.0107111
 3,-0.00330777,0.01285007,-0.00648938,0.00077903,-0.00727261,0.15634671
 ,-0.00001721,-0.00001047,-0.00000722,0.00008823,0.00010722,0.00005015,
 0.00000693,-0.00001099,-0.00000420,0.00001271,0.00001473,-0.00000776,-
 0.00000183,-0.00000113,-0.00000033,-0.00000461,0.00000666,-0.00000010,
 -0.00000271,0.00000329,0.00000180,-0.00085268,-0.00021401,0.00018286,0
 .00038389,-0.00039607,0.00003766,0.00088065,0.00311232,-0.00002823,-0.
 01473736,0.00201702,-0.01902246,-0.00330901,-0.00245338,0.00007220,0.0
 0094206,0.00066007,0.00024415,-0.00003134,0.00001297,0.00000560,0.0000
 1722,-0.00000154,0.00000110,0.00001511,-0.00000053,-0.00000081,-0.0000
 0482,0.00000217,0.00000209,-0.00000444,-0.00000219,-0.00000148,0.00000
 171,-0.00000036,-0.00000012,0.00000120,-0.00000081,-0.00000062,0.00000
 091,-0.00000007,0.00000013,0.00000127,0.00000087,0.00000032,-0.0000008
 1,0.00000064,-0.00000048,0.00000022,0.00000012,0.00000050,0.00000057,-
 0.00000041,0.00000023,-0.00000013,-0.00000003,-0.00000005,0.00000059,0
 .00000035,0.00000030,0.00000004,0.00000010,0.00000035,-0.00000019,0.00
 000003,-0.00000005,0.00000038,0.00000046,0.,-0.00000009,-0.00000021,-0
 .00000010,-0.00000007,-0.00000013,-0.00000022,-0.00000028,0.00000003,-
 0.00000006,0.00000066,-0.00000016,-0.00000031,0.02887467,-0.05270431,0
 .03751680,-0.00213003,-0.00051434,-0.00255917,0.01665726,-0.00338489,0
 .02295353,-0.02678865,0.05375695,0.00001687,-0.00000590,-0.00000388,-0
 .00004742,-0.00001026,0.00001160,0.00000447,-0.00000724,-0.00000755,-0
 .00000582,-0.00000439,-0.00000050,0.00000137,-0.00000057,-0.00000080,0
 .00000099,-0.00000247,0.00000027,0.00000213,-0.00000277,-0.00000040,0.
 00008525,-0.00014700,0.00006217,0.00013394,0.00005672,-0.00007619,0.00
 013053,-0.00013105,0.00015093,0.00149137,-0.00026487,0.00073441,-0.000
 01279,0.00042548,0.00153057,-0.00001222,-0.00066186,0.00100688,0.00001
 306,0.00000496,-0.00000671,-0.00000545,-0.00000251,0.00000148,-0.00000
 463,-0.00000101,0.00000285,0.00000162,0.00000086,-0.00000143,0.0000012
 1,0.00000157,-0.00000018,-0.00000002,-0.00000008,0.00000079,-0.0000002
 2,-0.00000005,0.00000024,-0.00000017,0.00000011,0.00000009,-0.00000020
 ,0.,-0.00000023,0.00000139,0.00000051,-0.00000112,0.00000039,0.0000002
 2,0.00000043,-0.00000051,-0.00000014,0.,0.00000002,-0.00000037,-0.0000
 0011,-0.00000030,-0.00000007,-0.00000011,0.00000011,0.00000006,0.00000
 017,-0.00000001,-0.00000019,0.00000036,-0.00000010,-0.00000022,0.00000
 002,-0.00000003,-0.00000006,-0.00000019,-0.00000007,-0.00000015,0.0000
 0042,0.00000014,-0.00000015,-0.00000023,-0.00000020,0.00000008,0.00000
 012,-0.12631986,0.03577212,-0.20944321,-0.01615176,0.00478509,-0.01851
 579,0.00275513,-0.00036838,0.00227522,0.13792176,-0.03943603,0.2222795
 9\\-0.00000453,0.00001011,0.00000648,-0.00000329,-0.00000939,-0.000000
 77,0.00000464,0.00000161,0.00000105,0.00000142,-0.00000206,-0.00000571
 ,0.00000208,0.00000119,0.00000037,0.00000160,-0.00000075,0.00000404,0.
 00000247,0.00000102,-0.00000044,-0.00002568,-0.00000290,0.00000405,0.0
 0000948,-0.00000169,0.00000096,0.00001347,0.00001497,-0.00000450,-0.00
 000149,-0.00000586,0.00000040,0.00000061,0.00000133,0.00000162,-0.0000
 0229,0.00000069,0.00000051,0.00000167,0.00000343,-0.00001330,0.0000003
 3,-0.00000170,0.00000106,-0.00000580,-0.00000498,0.00000007,-0.0000074
 9,-0.00000037,0.00000013,0.00001282,-0.00000098,0.00000544,0.00000091,
 0.00000165,0.00000378,0.00000539,-0.00000390,0.00000410,-0.00000348,-0
 .00000093,-0.00000224,-0.00000420,-0.00000059,0.00000126,-0.00000193,-
 0.00000128,-0.00000189,0.,0.00000068,-0.00000242,-0.00000002,-0.000001
 50,-0.00000104,0.00000012,0.00000202,-0.00000138,-0.00000052,-0.000000
 52,-0.00000043,0.00000013,0.00000025,-0.00000320,0.00000164,-0.0000009
 0,-0.00000011,0.00000268,-0.00000053,-0.00000038,0.00000107,0.00000056
 ,-0.00000020,0.00000020,0.00000041,-0.00000294,0.00000031,-0.00000137,
 0.00000093,0.00000249,-0.00000117,0.00000058,-0.00000192,0.00000177,0.
 00000643,0.00000072,0.00000088,-0.00000271,-0.00000137,-0.00000020,0.0
 0000053,-0.00000223,0.00000100,-0.00000014\\\@


 THE 2ND LAW OF THERMODYNAMICS HAS THE SAME
 DEGREE OF TRUTH AS THE STATEMENT THAT IF YOU THROW
 A TUMBLERFULL OF WATER INTO THE SEA, YOU CANNOT GET
 THE SAME TUMBLERFULL OF WATER OUT AGAIN.
          - J.C. MAXWELL, LETTER TO LORD RAYLEIGH, DECEMBER 6,1870
 Job cpu time:       0 days  3 hours  1 minutes 42.0 seconds.
 Elapsed time:       0 days  3 hours  1 minutes 57.4 seconds.
 File lengths (MBytes):  RWF=    604 Int=      0 D2E=      0 Chk=     22 Scr=      1
 Normal termination of Gaussian 16 at Tue Aug 18 15:37:30 2026.
