%mem=20GB
%chk=TX_eq.chk
#p b3lyp/gen EmpiricalDispersion=GD3BJ pseudo=read scrf=(solvent=acetonitrile,pcm,read) nosymm pop=(Orbitals=20)

Title Card Required

0 1
C        -9.145630       -0.385280        0.008130
C        -7.758980       -0.465280        0.019800
C        -6.982300        0.709610        0.014710
C        -7.607770        1.973260       -0.002320
C        -9.018250        2.023300       -0.013940
C        -9.783530        0.867140       -0.008850
C        -6.878580        3.265140       -0.008870
C        -5.395220        3.274020        0.003200
C        -4.595400        2.112830        0.020550
C        -3.191140        2.219870        0.030760
H        -2.581310        1.314310        0.044070
C        -2.586410        3.470320        0.023890
C        -3.370330        4.636920        0.006720
C        -4.752730        4.530720       -0.003390
H        -9.736350       -1.303450        0.012270
H        -7.264600       -1.438650        0.032950
H        -9.481650        3.009820       -0.027050
H       -10.873010        0.928450       -0.017960
H        -1.496850        3.539680        0.031920
H        -2.894010        5.618710        0.001390
H        -5.389010        5.415630       -0.016800
S        -5.235910        0.470600        0.030970
O        -7.504330        4.329450       -0.024570

-C S O H 0
cc-pVDZ
****


NonEq=write




