 Entering Gaussian System, Link 0=g16
 Initial command:
 /mnt/data/applications/G16/g16/l1.exe "/scratch/Gau-8875.inp" -scrdir="/scratch/"
 Entering Link 1 = /mnt/data/applications/G16/g16/l1.exe PID=      8876.
  
 Copyright (c) 1988,1990,1992,1993,1995,1998,2003,2009,2016,
            Gaussian, Inc.  All Rights Reserved.
  
 This is part of the Gaussian(R) 16 program.  It is based on
 the Gaussian(R) 09 system (copyright 2009, Gaussian, Inc.),
 the Gaussian(R) 03 system (copyright 2003, Gaussian, Inc.),
 the Gaussian(R) 98 system (copyright 1998, Gaussian, Inc.),
 the Gaussian(R) 94 system (copyright 1995, Gaussian, Inc.),
 the Gaussian 92(TM) system (copyright 1992, Gaussian, Inc.),
 the Gaussian 90(TM) system (copyright 1990, Gaussian, Inc.),
 the Gaussian 88(TM) system (copyright 1988, Gaussian, Inc.),
 the Gaussian 86(TM) system (copyright 1986, Carnegie Mellon
 University), and the Gaussian 82(TM) system (copyright 1983,
 Carnegie Mellon University). Gaussian is a federally registered
 trademark of Gaussian, Inc.
  
 This software contains proprietary and confidential information,
 including trade secrets, belonging to Gaussian, Inc.
  
 This software is provided under written license and may be
 used, copied, transmitted, or stored only in accord with that
 written license.
  
 The following legend is applicable only to US Government
 contracts under FAR:
  
                    RESTRICTED RIGHTS LEGEND
  
 Use, reproduction and disclosure by the US Government is
 subject to restrictions as set forth in subparagraphs (a)
 and (c) of the Commercial Computer Software - Restricted
 Rights clause in FAR 52.227-19.
  
 Gaussian, Inc.
 340 Quinnipiac St., Bldg. 40, Wallingford CT 06492
  
  
 ---------------------------------------------------------------
 Warning -- This program may not be used in any manner that
 competes with the business of Gaussian, Inc. or will provide
 assistance to any competitor of Gaussian, Inc.  The licensee
 of this program is prohibited from giving any competitor of
 Gaussian, Inc. access to this program.  By using this program,
 the user acknowledges that Gaussian, Inc. is engaged in the
 business of creating and licensing software in the field of
 computational chemistry and represents and warrants to the
 licensee that it is not a competitor of Gaussian, Inc. and that
 it will not use this program in any manner prohibited above.
 ---------------------------------------------------------------
  

 Cite this work as:
 Gaussian 16, Revision A.03,
 M. J. Frisch, G. W. Trucks, H. B. Schlegel, G. E. Scuseria, 
 M. A. Robb, J. R. Cheeseman, G. Scalmani, V. Barone, 
 G. A. Petersson, H. Nakatsuji, X. Li, M. Caricato, A. V. Marenich, 
 J. Bloino, B. G. Janesko, R. Gomperts, B. Mennucci, H. P. Hratchian, 
 J. V. Ortiz, A. F. Izmaylov, J. L. Sonnenberg, D. Williams-Young, 
 F. Ding, F. Lipparini, F. Egidi, J. Goings, B. Peng, A. Petrone, 
 T. Henderson, D. Ranasinghe, V. G. Zakrzewski, J. Gao, N. Rega, 
 G. Zheng, W. Liang, M. Hada, M. Ehara, K. Toyota, R. Fukuda, 
 J. Hasegawa, M. Ishida, T. Nakajima, Y. Honda, O. Kitao, H. Nakai, 
 T. Vreven, K. Throssell, J. A. Montgomery, Jr., J. E. Peralta, 
 F. Ogliaro, M. J. Bearpark, J. J. Heyd, E. N. Brothers, K. N. Kudin, 
 V. N. Staroverov, T. A. Keith, R. Kobayashi, J. Normand, 
 K. Raghavachari, A. P. Rendell, J. C. Burant, S. S. Iyengar, 
 J. Tomasi, M. Cossi, J. M. Millam, M. Klene, C. Adamo, R. Cammi, 
 J. W. Ochterski, R. L. Martin, K. Morokuma, O. Farkas, 
 J. B. Foresman, and D. J. Fox, Gaussian, Inc., Wallingford CT, 2016.
 
 ******************************************
 Gaussian 16:  AM64L-G16RevA.03 25-Dec-2016
                18-Aug-2026 
 ******************************************
 %nprocshared=24
 Will use up to   24 processors via shared memory.
 %mem=20GB
 %chk=TX_triplet_eq.chk
 ----------------------------------------------------------------------
 #p b3lyp/gen EmpiricalDispersion=GD3BJ pseudo=read scrf=(solvent=aceto
 nitrile,pcm,read) nosymm pop=(Orbitals=20)
 ----------------------------------------------------------------------
 1/38=1,40=2,172=1/1;
 2/12=2,15=1,17=6,18=5,40=1/2;
 3/5=7,11=2,16=1,17=8,25=1,30=1,70=2203,72=2,74=-5,124=41/1,2,3;
 4//1;
 5/5=2,38=5,53=2/2;
 6/7=2,8=2,9=2,10=2,28=1,96=20/1;
 99/5=1,9=1/99;
 Leave Link    1 at Tue Aug 18 20:45:33 2026, MaxMem=  2684354560 cpu:               1.3 elap:               0.1
 (Enter /mnt/data/applications/G16/g16/l101.exe)
 -------------------
 Title Card Required
 -------------------
 Symbolic Z-matrix:
 Charge =  0 Multiplicity = 3
 C                    -9.14206  -0.41236   0.00852 
 C                    -7.75026  -0.47043   0.02004 
 C                    -6.99851   0.71661   0.0145 
 C                    -7.61184   2.0128   -0.0029 
 C                    -9.02571   2.02666  -0.01416 
 C                    -9.76818   0.84871  -0.00858 
 C                    -6.87927   3.26624  -0.00923 
 C                    -5.42784   3.2968    0.00255 
 C                    -4.5936    2.13038   0.02026 
 C                    -3.19084   2.20967   0.03074 
 H                    -2.60098   1.29097   0.04402 
 C                    -2.56448   3.45399   0.02418 
 C                    -3.36172   4.6145    0.00711 
 C                    -4.75204   4.53883  -0.00338 
 H                    -9.73133  -1.32921   0.01273 
 H                    -7.23458  -1.43265   0.03339 
 H                    -9.51342   3.0002   -0.02741 
 H                    -10.85888   0.90697  -0.01767 
 H                    -1.47678   3.52283   0.0322 
 H                    -2.88218   5.59589   0.00195 
 H                    -5.36495   5.43876  -0.01652 
 S                    -5.26072   0.51286   0.03037 
 O                    -7.53314   4.37809  -0.02511 
 
 ITRead=  0  0  0  0  0  0  0  0  0  0  0  0  0  0  0  0  0  0  0  0
 ITRead=  0  0  0
 MicOpt= -1 -1 -1 -1 -1 -1 -1 -1 -1 -1 -1 -1 -1 -1 -1 -1 -1 -1 -1 -1
 MicOpt= -1 -1 -1
 NAtoms=     23 NQM=       23 NQMF=       0 NMMI=      0 NMMIF=      0
                NMic=       0 NMicF=      0.
                    Isotopes and Nuclear Properties:
 (Nuclear quadrupole moments (NQMom) in fm**2, nuclear magnetic moments (NMagM)
  in nuclear magnetons)

  Atom         1           2           3           4           5           6           7           8           9          10
 IAtWgt=          12          12          12          12          12          12          12          12          12          12
 AtmWgt=  12.0000000  12.0000000  12.0000000  12.0000000  12.0000000  12.0000000  12.0000000  12.0000000  12.0000000  12.0000000
 NucSpn=           0           0           0           0           0           0           0           0           0           0
 AtZEff=  -0.0000000  -0.0000000  -0.0000000  -0.0000000  -0.0000000  -0.0000000  -0.0000000  -0.0000000  -0.0000000  -0.0000000
 NQMom=    0.0000000   0.0000000   0.0000000   0.0000000   0.0000000   0.0000000   0.0000000   0.0000000   0.0000000   0.0000000
 NMagM=    0.0000000   0.0000000   0.0000000   0.0000000   0.0000000   0.0000000   0.0000000   0.0000000   0.0000000   0.0000000
 AtZNuc=   6.0000000   6.0000000   6.0000000   6.0000000   6.0000000   6.0000000   6.0000000   6.0000000   6.0000000   6.0000000

  Atom        11          12          13          14          15          16          17          18          19          20
 IAtWgt=           1          12          12          12           1           1           1           1           1           1
 AtmWgt=   1.0078250  12.0000000  12.0000000  12.0000000   1.0078250   1.0078250   1.0078250   1.0078250   1.0078250   1.0078250
 NucSpn=           1           0           0           0           1           1           1           1           1           1
 AtZEff=  -0.0000000  -0.0000000  -0.0000000  -0.0000000  -0.0000000  -0.0000000  -0.0000000  -0.0000000  -0.0000000  -0.0000000
 NQMom=    0.0000000   0.0000000   0.0000000   0.0000000   0.0000000   0.0000000   0.0000000   0.0000000   0.0000000   0.0000000
 NMagM=    2.7928460   0.0000000   0.0000000   0.0000000   2.7928460   2.7928460   2.7928460   2.7928460   2.7928460   2.7928460
 AtZNuc=   1.0000000   6.0000000   6.0000000   6.0000000   1.0000000   1.0000000   1.0000000   1.0000000   1.0000000   1.0000000

  Atom        21          22          23
 IAtWgt=           1          32          16
 AtmWgt=   1.0078250  31.9720718  15.9949146
 NucSpn=           1           0           0
 AtZEff=  -0.0000000  -0.0000000  -0.0000000
 NQMom=    0.0000000   0.0000000   0.0000000
 NMagM=    2.7928460   0.0000000   0.0000000
 AtZNuc=   1.0000000  16.0000000   8.0000000
 Leave Link  101 at Tue Aug 18 20:45:33 2026, MaxMem=  2684354560 cpu:               2.3 elap:               0.1
 (Enter /mnt/data/applications/G16/g16/l202.exe)
                          Input orientation:                          
 ---------------------------------------------------------------------
 Center     Atomic      Atomic             Coordinates (Angstroms)
 Number     Number       Type             X           Y           Z
 ---------------------------------------------------------------------
      1          6           0       -9.142056   -0.412361    0.008517
      2          6           0       -7.750261   -0.470429    0.020042
      3          6           0       -6.998514    0.716612    0.014503
      4          6           0       -7.611836    2.012796   -0.002902
      5          6           0       -9.025711    2.026663   -0.014163
      6          6           0       -9.768178    0.848712   -0.008577
      7          6           0       -6.879274    3.266244   -0.009232
      8          6           0       -5.427838    3.296797    0.002554
      9          6           0       -4.593596    2.130385    0.020259
     10          6           0       -3.190839    2.209674    0.030739
     11          1           0       -2.600982    1.290969    0.044019
     12          6           0       -2.564476    3.453990    0.024176
     13          6           0       -3.361720    4.614498    0.007105
     14          6           0       -4.752044    4.538833   -0.003375
     15          1           0       -9.731330   -1.329210    0.012734
     16          1           0       -7.234577   -1.432654    0.033386
     17          1           0       -9.513422    3.000198   -0.027410
     18          1           0      -10.858876    0.906971   -0.017667
     19          1           0       -1.476784    3.522831    0.032195
     20          1           0       -2.882180    5.595886    0.001945
     21          1           0       -5.364947    5.438757   -0.016523
     22         16           0       -5.260722    0.512864    0.030366
     23          8           0       -7.533138    4.378094   -0.025110
 ---------------------------------------------------------------------
                    Distance matrix (angstroms):
                    1          2          3          4          5
     1  C    0.000000
     2  C    1.393053   0.000000
     3  C    2.422682   1.405070   0.000000
     4  C    2.867593   2.487186   1.434071   0.000000
     5  C    2.441903   2.804177   2.413832   1.413988   0.000000
     6  C    1.408058   2.411004   2.772909   2.450497   1.392428
     7  C    4.318869   3.836952   2.552529   1.451833   2.478664
     8  C    5.249124   4.425601   3.020682   2.533483   3.815522
     9  C    5.210968   4.090082   2.789699   3.020619   4.433462
    10  C    6.503272   5.288799   4.089974   4.425506   5.837914
    11  H    6.759308   5.442258   4.434980   5.062795   6.466976
    12  C    7.629775   6.503341   5.210952   5.249154   6.617121
    13  C    7.660391   6.716840   5.331026   4.983216   6.227209
    14  C    6.617150   5.838027   4.433545   3.815662   4.957353
    15  H    1.089896   2.159211   3.413748   3.957462   3.429359
    16  H    2.163352   1.091781   2.162273   3.466232   3.895805
    17  H    3.432894   3.893102   3.397247   2.142800   1.088948
    18  H    2.165362   3.400315   3.865186   3.430209   2.148073
    19  H    8.616420   7.436584   6.193923   6.318251   7.695906
    20  H    8.676700   7.778092   6.383704   5.933650   7.105110
    21  H    6.964392   6.372561   4.996815   4.097060   5.004357
    22  S    3.990147   2.676710   1.749767   2.789021   4.058166
    23  O    5.053534   4.853592   3.700519   2.366711   2.785161
                    6          7          8          9         10
     6  C    0.000000
     7  C    3.766992   0.000000
     8  C    4.983151   1.451805   0.000000
     9  C    5.331024   2.552522   1.434151   0.000000
    10  C    6.716781   3.836990   2.487327   1.405035   0.000000
    11  H    7.181021   4.712571   3.466436   2.162335   1.091845
    12  C    7.660409   4.319010   2.867755   2.422658   1.393089
    13  C    7.431292   3.767126   2.450551   2.772816   2.411003
    14  C    6.227248   2.478835   1.413997   2.413770   2.804194
    15  H    2.178338   5.408595   6.318235   6.193962   7.436535
    16  H    3.409623   4.712505   5.062901   4.435110   5.442277
    17  H    2.166598   2.647611   4.096445   4.996352   6.372077
    18  H    1.092291   4.626389   5.933620   6.383723   7.778057
    19  H    8.712049   5.408738   3.957625   3.413732   2.159252
    20  H    8.363775   4.626458   3.430187   3.865097   3.400372
    21  H    6.360583   2.648217   2.142968   3.397302   3.893065
    22  S    4.520118   3.194116   2.789083   1.749724   2.676486
    23  O    4.177585   1.289961   2.366909   3.700697   4.853939
                   11         12         13         14         15
    11  H    0.000000
    12  C    2.163420   0.000000
    13  C    3.409682   1.408073   0.000000
    14  C    3.895887   2.441945   1.392421   0.000000
    15  H    7.596590   8.616434   8.712039   7.695939   0.000000
    16  H    5.374797   6.759380   7.181070   6.467069   2.498980
    17  H    7.120983   6.963938   6.360078   5.003868   4.335074
    18  H    8.267047   8.676758   8.363834   7.105211   2.504554
    19  H    2.499034   1.089898   2.178382   3.429410   9.574978
    20  H    4.314296   2.165444   1.092295   2.147971   9.740017
    21  H    4.984708   3.432724   2.166306   1.088892   8.054287
    22  S    2.771254   3.989988   4.519972   4.058118   4.835275
    23  O    5.819045   5.054107   4.178236   2.785820   6.116110
                   16         17         18         19         20
    16  H    0.000000
    17  H    4.984677   0.000000
    18  H    4.314162   2.488361   0.000000
    19  H    7.596645   8.053834   9.740065   0.000000
    20  H    8.267087   7.121224   9.252783   2.504718   0.000000
    21  H    7.121397   4.812124   7.121822   4.334854   2.487803
    22  S    2.771489   4.927030   5.612215   4.835090   5.612075
    23  O    5.818707   2.412494   4.807212   6.116713   4.807823
                   21         22         23
    21  H    0.000000
    22  S    4.927219   0.000000
    23  O    2.413738   4.484078   0.000000
 Symmetry turned off by external request.
 Stoichiometry    C13H8OS(3)
 Framework group  C1[X(C13H8OS)]
 Deg. of freedom    63
 Full point group                 C1      NOp   1
 Rotational constants (GHZ):           1.2153855           0.4223181           0.3134141
 Leave Link  202 at Tue Aug 18 20:45:33 2026, MaxMem=  2684354560 cpu:               1.7 elap:               0.1
 (Enter /mnt/data/applications/G16/g16/l301.exe)
 General basis read from cards:  (5D, 7F)
 Centers:       1      2      3      4      5      6      7      8      9     10
 Centers:      12     13     14     22     23     11     15     16     17     18
 Centers:      19     20     21
 cc-pVDZ
 ****
 ======================================================================================================
                                       Pseudopotential Parameters
 ======================================================================================================
  Center     Atomic      Valence      Angular      Power
  Number     Number     Electrons     Momentum     of R      Exponent        Coefficient   SO-Coeffient
 ======================================================================================================
    1          6
                                   No pseudopotential on this center.
    2          6
                                   No pseudopotential on this center.
    3          6
                                   No pseudopotential on this center.
    4          6
                                   No pseudopotential on this center.
    5          6
                                   No pseudopotential on this center.
    6          6
                                   No pseudopotential on this center.
    7          6
                                   No pseudopotential on this center.
    8          6
                                   No pseudopotential on this center.
    9          6
                                   No pseudopotential on this center.
   10          6
                                   No pseudopotential on this center.
   11          1
                                   No pseudopotential on this center.
   12          6
                                   No pseudopotential on this center.
   13          6
                                   No pseudopotential on this center.
   14          6
                                   No pseudopotential on this center.
   15          1
                                   No pseudopotential on this center.
   16          1
                                   No pseudopotential on this center.
   17          1
                                   No pseudopotential on this center.
   18          1
                                   No pseudopotential on this center.
   19          1
                                   No pseudopotential on this center.
   20          1
                                   No pseudopotential on this center.
   21          1
                                   No pseudopotential on this center.
   22         16
                                   No pseudopotential on this center.
   23          8
                                   No pseudopotential on this center.
 ======================================================================================================
 Ernie: Thresh=  0.10000D-02 Tol=  0.10000D-05 Strict=F.
 Ernie:  38 primitive shells out of 398 were deleted.
   254 basis functions,   589 primitive gaussians,   269 cartesian basis functions
    56 alpha electrons       54 beta electrons
       nuclear repulsion energy       990.5043822310 Hartrees.
 IExCor=  402 DFT=T Ex+Corr=B3LYP ExCW=0 ScaHFX=  0.200000
 ScaDFX=  0.800000  0.720000  1.000000  0.810000 ScalE2=  1.000000  1.000000
 IRadAn=      5 IRanWt=     -1 IRanGd=            0 ICorTp=0 IEmpDi=141
 NAtoms=   23 NActive=   23 NUniq=   23 SFac= 1.00D+00 NAtFMM=   60 NAOKFM=F Big=F
 Integral buffers will be    131072 words long.
 Raffenetti 2 integral format.
 Two-electron integral symmetry is turned off.
 R6Disp:  Grimme-D3(BJ) Dispersion energy=       -0.0580984186 Hartrees.
 Nuclear repulsion after empirical dispersion term =      990.4462838125 Hartrees.
 Using the following non-standard input for PCM:
 NonEq=write
 --- end of non-standard input.
 ------------------------------------------------------------------------------
 Polarizable Continuum Model (PCM)
 =================================
 Model                : PCM.
 Atomic radii         : UFF (Universal Force Field).
 Polarization charges : Total charges.
 Charge compensation  : None.
 Solution method      : On-the-fly selection.
 Cavity type          : Scaled VdW (van der Waals Surface) (Alpha=1.100).
 Cavity algorithm     : GePol (No added spheres)
                        Default sphere list used, NSphG=   23.
                        Lebedev-Laikov grids with approx.  5.0 points / Ang**2.
                        Smoothing algorithm: York/Karplus (Gamma=1.0000).
                        Polarization charges: spherical gaussians, with
                                              point-specific exponents (IZeta= 3).
                        Self-potential: point-specific (ISelfS= 7).
                        Self-field    : sphere-specific E.n sum rule (ISelfD= 2).
 Solvent              : Acetonitrile, Eps=  35.688000 Eps(inf)=   1.806874
 ------------------------------------------------------------------------------
 GePol: Number of generator spheres                  =      23
 GePol: Total number of spheres                      =      23
 GePol: Number of exposed spheres                    =      23 (100.00%)
 GePol: Number of points                             =    1988
 GePol: Average weight of points                     =       0.13
 GePol: Minimum weight of points                     =   0.12D-11
 GePol: Maximum weight of points                     =    0.20577
 GePol: Number of points with low weight             =      97
 GePol: Fraction of low-weight points (<1% of avg)   =       4.88%
 GePol: Cavity surface area                          =    256.571 Ang**2
 GePol: Cavity volume                                =    277.431 Ang**3
 Leave Link  301 at Tue Aug 18 20:45:33 2026, MaxMem=  2684354560 cpu:               2.9 elap:               0.1
 (Enter /mnt/data/applications/G16/g16/l302.exe)
 NPDir=0 NMtPBC=     1 NCelOv=     1 NCel=       1 NClECP=     1 NCelD=      1
         NCelK=      1 NCelE2=     1 NClLst=     1 CellRange=     0.0.
 One-electron integrals computed using PRISM.
   1 Symmetry operations used in ECPInt.
 ECPInt:  NShTT=    6786 NPrTT=   65756 LenC2=    6456 LenP2D=   34284.
 LDataN:  DoStor=T MaxTD1= 4 Len=   56
 NBasis=   254 RedAO= T EigKep=  2.46D-04  NBF=   254
 NBsUse=   254 1.00D-06 EigRej= -1.00D+00 NBFU=   254
 Precomputing XC quadrature grid using
 IXCGrd= 4 IRadAn=           5 IRanWt=          -1 IRanGd=           0 AccXCQ= 0.00D+00.
 Generated NRdTot=       0 NPtTot=           0 NUsed=           0 NTot=          32
 NSgBfM=   268   268   268   268   268 MxSgAt=    23 MxSgA2=    23.
 Leave Link  302 at Tue Aug 18 20:45:34 2026, MaxMem=  2684354560 cpu:               9.5 elap:               0.4
 (Enter /mnt/data/applications/G16/g16/l303.exe)
 DipDrv:  MaxL=1.
 Leave Link  303 at Tue Aug 18 20:45:34 2026, MaxMem=  2684354560 cpu:               2.0 elap:               0.1
 (Enter /mnt/data/applications/G16/g16/l401.exe)
 ExpMin= 1.22D-01 ExpMax= 1.11D+05 ExpMxC= 1.07D+03 IAcc=3 IRadAn=         5 AccDes= 0.00D+00
 Harris functional with IExCor=  402 and IRadAn=       5 diagonalized for initial guess.
 HarFok:  IExCor=  402 AccDes= 0.00D+00 IRadAn=         5 IDoV= 1 UseB2=F ITyADJ=14
 ICtDFT=  3500011 ScaDFX=  1.000000  1.000000  1.000000  1.000000
 FoFCou: FMM=F IPFlag=           0 FMFlag=      100000 FMFlg1=           0
         NFxFlg=           0 DoJE=T BraDBF=F KetDBF=T FulRan=T
         wScrn=  0.000000 ICntrl=       500 IOpCl=  0 I1Cent=   200000004 NGrid=           0
         NMat0=    1 NMatS0=      1 NMatT0=    0 NMatD0=    1 NMtDS0=    0 NMtDT0=    0
 Symmetry not used in FoFCou.
 Harris En= -973.614139504017    
 JPrj=0 DoOrth=F DoCkMO=F.
 Initial guess <Sx>= 0.0000 <Sy>= 0.0000 <Sz>= 1.0000 <S**2>= 2.0000 S= 1.0000
 Leave Link  401 at Tue Aug 18 20:45:35 2026, MaxMem=  2684354560 cpu:              28.4 elap:               1.2
 (Enter /mnt/data/applications/G16/g16/l502.exe)
 Two-electron integral symmetry not used.
 UHF open shell SCF:
 Using DIIS extrapolation, IDIIS=  1040.
 NGot=  2684354560 LenX=  2684201198 LenY=  2684128396
 Requested convergence on RMS density matrix=1.00D-08 within 128 cycles.
 Requested convergence on MAX density matrix=1.00D-06.
 Requested convergence on             energy=1.00D-06.
 No special actions if energy rises.
 Fock matrices will be formed incrementally for  20 cycles.

 Cycle   1  Pass 1  IDiag  1:
 FoFJK:  IHMeth= 1 ICntrl=       0 DoSepK=F KAlg= 0 I1Cent=           0 FoldK=F
 IRaf= 890000000 NMat=       1 IRICut=       1 DoRegI=T DoRafI=F ISym2E= 0 IDoP0=0 IntGTp=1.
 FoFCou: FMM=F IPFlag=           0 FMFlag=      100000 FMFlg1=           0
         NFxFlg=           0 DoJE=F BraDBF=F KetDBF=F FulRan=T
         wScrn=  0.000000 ICntrl=         0 IOpCl=  1 I1Cent=           0 NGrid=           0
         NMat0=    1 NMatS0=      1 NMatT0=    0 NMatD0=    1 NMtDS0=    0 NMtDT0=    0
 Symmetry not used in FoFCou.
 Inv3:  Mode=1 IEnd=    11856432.
 Iteration    1 A*A^-1 deviation from unit magnitude is 2.44D-15 for    469.
 Iteration    1 A*A^-1 deviation from orthogonality  is 1.64D-15 for   1150    238.
 Iteration    1 A^-1*A deviation from unit magnitude is 2.66D-15 for    469.
 Iteration    1 A^-1*A deviation from orthogonality  is 1.82D-15 for    915     84.
 E= -973.199491737596    
 DIIS: error= 4.52D-02 at cycle   1 NSaved=   1.
 NSaved= 1 IEnMin= 1 EnMin= -973.199491737596     IErMin= 1 ErrMin= 4.52D-02
 ErrMax= 4.52D-02  0.00D+00 EMaxC= 1.00D-01 BMatC= 1.52D+00 BMatP= 1.52D+00
 IDIUse=3 WtCom= 5.48D-01 WtEn= 4.52D-01
 Coeff-Com:  0.100D+01
 Coeff-En:   0.100D+01
 Coeff:      0.100D+01
 Gap=     0.092 Goal=   None    Shift=    0.000
 Gap=    -0.014 Goal=   None    Shift=    0.000
 GapD=   -0.014 DampG=0.250 DampE=0.500 DampFc=0.2500 IDamp=-1.
 Damping current iteration by 2.50D-01
 RMSDP=1.36D-02 MaxDP=7.31D-01              OVMax= 9.59D-01

 Cycle   2  Pass 1  IDiag  1:
 RMSU=  3.37D-03    CP:  9.84D-01
 E= -973.328207412375     Delta-E=       -0.128715674779 Rises=F Damp=T
 DIIS: error= 2.43D-02 at cycle   2 NSaved=   2.
 NSaved= 2 IEnMin= 2 EnMin= -973.328207412375     IErMin= 2 ErrMin= 2.43D-02
 ErrMax= 2.43D-02  0.00D+00 EMaxC= 1.00D-01 BMatC= 2.62D-01 BMatP= 1.52D+00
 IDIUse=3 WtCom= 7.57D-01 WtEn= 2.43D-01
 Coeff-Com: -0.263D+00 0.126D+01
 Coeff-En:   0.132D+00 0.868D+00
 Coeff:     -0.167D+00 0.117D+01
 Gap=     0.174 Goal=   None    Shift=    0.000
 Gap=     0.294 Goal=   None    Shift=    0.000
 RMSDP=4.50D-03 MaxDP=1.81D-01 DE=-1.29D-01 OVMax= 8.54D-01

 Cycle   3  Pass 1  IDiag  1:
 RMSU=  4.02D-03    CP:  9.37D-01  4.95D-01
 E= -973.471862756512     Delta-E=       -0.143655344137 Rises=F Damp=F
 DIIS: error= 3.71D-02 at cycle   3 NSaved=   3.
 NSaved= 3 IEnMin= 3 EnMin= -973.471862756512     IErMin= 2 ErrMin= 2.43D-02
 ErrMax= 3.71D-02  0.00D+00 EMaxC= 1.00D-01 BMatC= 6.92D-01 BMatP= 2.62D-01
 IDIUse=2 WtCom= 0.00D+00 WtEn= 1.00D+00
 EnCoef did     4 forward-backward iterations
 Coeff-En:   0.153D-02 0.216D+00 0.782D+00
 Coeff:      0.153D-02 0.216D+00 0.782D+00
 Gap=     0.045 Goal=   None    Shift=    0.000
 Gap=     0.083 Goal=   None    Shift=    0.000
 RMSDP=7.50D-03 MaxDP=3.44D-01 DE=-1.44D-01 OVMax= 9.26D-01

 Cycle   4  Pass 1  IDiag  1:
 RMSU=  6.00D-03    CP:  9.62D-01  1.43D+00  2.14D-01
 E= -972.615670280775     Delta-E=        0.856192475737 Rises=F Damp=F
 DIIS: error= 8.17D-02 at cycle   4 NSaved=   4.
 NSaved= 4 IEnMin= 3 EnMin= -973.471862756512     IErMin= 2 ErrMin= 2.43D-02
 ErrMax= 8.17D-02  0.00D+00 EMaxC= 1.00D-01 BMatC= 3.73D+00 BMatP= 2.62D-01
 IDIUse=2 WtCom= 0.00D+00 WtEn= 1.00D+00
 Coeff-En:   0.000D+00 0.000D+00 0.775D+00 0.225D+00
 Coeff:      0.000D+00 0.000D+00 0.775D+00 0.225D+00
 Gap=     0.059 Goal=   None    Shift=    0.000
 Gap=     0.026 Goal=   None    Shift=    0.000
 RMSDP=4.76D-03 MaxDP=2.16D-01 DE= 8.56D-01 OVMax= 4.03D-01

 Cycle   5  Pass 1  IDiag  1:
 RMSU=  2.33D-03    CP:  9.47D-01  8.12D-01  5.17D-01  4.38D-01
 E= -973.467904864514     Delta-E=       -0.852234583739 Rises=F Damp=F
 DIIS: error= 3.84D-02 at cycle   5 NSaved=   5.
 NSaved= 5 IEnMin= 3 EnMin= -973.471862756512     IErMin= 2 ErrMin= 2.43D-02
 ErrMax= 3.84D-02  0.00D+00 EMaxC= 1.00D-01 BMatC= 6.27D-01 BMatP= 2.62D-01
 IDIUse=2 WtCom= 0.00D+00 WtEn= 1.00D+00
 Coeff-En:   0.000D+00 0.000D+00 0.504D+00 0.000D+00 0.496D+00
 Coeff:      0.000D+00 0.000D+00 0.504D+00 0.000D+00 0.496D+00
 Gap=     0.098 Goal=   None    Shift=    0.000
 Gap=    -0.016 Goal=   None    Shift=    0.000
 RMSDP=3.99D-03 MaxDP=2.71D-01 DE=-8.52D-01 OVMax= 9.98D-01

 Cycle   6  Pass 1  IDiag  1:
 RMSU=  1.34D-03    CP:  9.52D-01  4.60D-01  7.98D-01  7.20D-02 -1.07D-01
 E= -973.617328031217     Delta-E=       -0.149423166703 Rises=F Damp=F
 DIIS: error= 1.60D-02 at cycle   6 NSaved=   6.
 NSaved= 6 IEnMin= 6 EnMin= -973.617328031217     IErMin= 6 ErrMin= 1.60D-02
 ErrMax= 1.60D-02  0.00D+00 EMaxC= 1.00D-01 BMatC= 1.12D-01 BMatP= 2.62D-01
 IDIUse=3 WtCom= 8.40D-01 WtEn= 1.60D-01
 Coeff-Com: -0.134D+00 0.243D+00 0.173D+00-0.660D-01 0.375D+00 0.409D+00
 Coeff-En:   0.000D+00 0.000D+00 0.000D+00 0.000D+00 0.212D+00 0.788D+00
 Coeff:     -0.113D+00 0.204D+00 0.146D+00-0.555D-01 0.349D+00 0.470D+00
 Gap=     0.088 Goal=   None    Shift=    0.000
 Gap=     0.014 Goal=   None    Shift=    0.000
 RMSDP=7.30D-04 MaxDP=3.05D-02 DE=-1.49D-01 OVMax= 1.06D-01

 Cycle   7  Pass 1  IDiag  1:
 RMSU=  5.68D-04    CP:  9.52D-01  5.28D-01  8.08D-01  1.19D-01 -2.11D-01
                    CP:  1.10D+00
 E= -973.637745385852     Delta-E=       -0.020417354635 Rises=F Damp=F
 DIIS: error= 9.73D-03 at cycle   7 NSaved=   7.
 NSaved= 7 IEnMin= 7 EnMin= -973.637745385852     IErMin= 7 ErrMin= 9.73D-03
 ErrMax= 9.73D-03  0.00D+00 EMaxC= 1.00D-01 BMatC= 4.29D-02 BMatP= 1.12D-01
 IDIUse=3 WtCom= 9.03D-01 WtEn= 9.73D-02
 Coeff-Com: -0.144D+00 0.213D+00-0.342D-01-0.307D-01 0.162D+00 0.237D+00
 Coeff-Com:  0.598D+00
 Coeff-En:   0.000D+00 0.000D+00 0.000D+00 0.000D+00 0.718D-01 0.000D+00
 Coeff-En:   0.928D+00
 Coeff:     -0.130D+00 0.192D+00-0.308D-01-0.278D-01 0.153D+00 0.214D+00
 Coeff:      0.630D+00
 Gap=     0.082 Goal=   None    Shift=    0.000
 Gap=     0.030 Goal=   None    Shift=    0.000
 RMSDP=4.80D-04 MaxDP=2.10D-02 DE=-2.04D-02 OVMax= 5.88D-02

 Cycle   8  Pass 1  IDiag  1:
 RMSU=  3.44D-04    CP:  9.53D-01  5.82D-01  7.87D-01  1.54D-01 -2.18D-01
                    CP:  1.22D+00  9.57D-01
 E= -973.648558743294     Delta-E=       -0.010813357442 Rises=F Damp=F
 DIIS: error= 5.00D-03 at cycle   8 NSaved=   8.
 NSaved= 8 IEnMin= 8 EnMin= -973.648558743294     IErMin= 8 ErrMin= 5.00D-03
 ErrMax= 5.00D-03  0.00D+00 EMaxC= 1.00D-01 BMatC= 8.68D-03 BMatP= 4.29D-02
 IDIUse=3 WtCom= 9.50D-01 WtEn= 5.00D-02
 Coeff-Com: -0.522D-01 0.993D-01-0.884D-02-0.396D-02 0.388D-01-0.152D+00
 Coeff-Com:  0.199D+00 0.880D+00
 Coeff-En:   0.000D+00 0.000D+00 0.000D+00 0.000D+00 0.000D+00 0.000D+00
 Coeff-En:   0.000D+00 0.100D+01
 Coeff:     -0.496D-01 0.943D-01-0.839D-02-0.376D-02 0.368D-01-0.145D+00
 Coeff:      0.189D+00 0.886D+00
 Gap=     0.082 Goal=   None    Shift=    0.000
 Gap=     0.044 Goal=   None    Shift=    0.000
 RMSDP=3.45D-04 MaxDP=2.45D-02 DE=-1.08D-02 OVMax= 8.11D-02

 Cycle   9  Pass 1  IDiag  1:
 RMSU=  1.47D-04    CP:  9.54D-01  6.19D-01  7.71D-01  1.82D-01 -2.33D-01
                    CP:  1.22D+00  1.24D+00  1.44D+00
 E= -973.651822777309     Delta-E=       -0.003264034015 Rises=F Damp=F
 DIIS: error= 1.67D-03 at cycle   9 NSaved=   9.
 NSaved= 9 IEnMin= 9 EnMin= -973.651822777309     IErMin= 9 ErrMin= 1.67D-03
 ErrMax= 1.67D-03  0.00D+00 EMaxC= 1.00D-01 BMatC= 8.59D-04 BMatP= 8.68D-03
 IDIUse=3 WtCom= 9.83D-01 WtEn= 1.67D-02
 Coeff-Com:  0.134D-01-0.299D-02 0.375D-01-0.295D-02 0.130D-01-0.140D+00
 Coeff-Com: -0.174D+00 0.358D+00 0.899D+00
 Coeff-En:   0.000D+00 0.000D+00 0.000D+00 0.000D+00 0.000D+00 0.000D+00
 Coeff-En:   0.000D+00 0.000D+00 0.100D+01
 Coeff:      0.131D-01-0.294D-02 0.369D-01-0.290D-02 0.128D-01-0.138D+00
 Coeff:     -0.172D+00 0.352D+00 0.900D+00
 Gap=     0.081 Goal=   None    Shift=    0.000
 Gap=     0.054 Goal=   None    Shift=    0.000
 RMSDP=2.09D-04 MaxDP=1.56D-02 DE=-3.26D-03 OVMax= 5.91D-02

 Cycle  10  Pass 1  IDiag  1:
 RMSU=  9.04D-05    CP:  9.53D-01  6.32D-01  7.67D-01  1.89D-01 -2.14D-01
                    CP:  1.20D+00  1.34D+00  1.83D+00  1.58D+00
 E= -973.652513000228     Delta-E=       -0.000690222919 Rises=F Damp=F
 DIIS: error= 8.40D-04 at cycle  10 NSaved=  10.
 NSaved=10 IEnMin=10 EnMin= -973.652513000228     IErMin=10 ErrMin= 8.40D-04
 ErrMax= 8.40D-04  0.00D+00 EMaxC= 1.00D-01 BMatC= 2.27D-04 BMatP= 8.59D-04
 IDIUse=3 WtCom= 9.92D-01 WtEn= 8.40D-03
 Coeff-Com:  0.465D-02-0.857D-02 0.126D-01-0.127D-02 0.573D-02 0.535D-01
 Coeff-Com: -0.321D-01-0.113D+00 0.341D-01 0.104D+01
 Coeff-En:   0.000D+00 0.000D+00 0.000D+00 0.000D+00 0.000D+00 0.000D+00
 Coeff-En:   0.000D+00 0.000D+00 0.000D+00 0.100D+01
 Coeff:      0.461D-02-0.850D-02 0.125D-01-0.126D-02 0.568D-02 0.530D-01
 Coeff:     -0.318D-01-0.112D+00 0.338D-01 0.104D+01
 Gap=     0.082 Goal=   None    Shift=    0.000
 Gap=     0.058 Goal=   None    Shift=    0.000
 RMSDP=1.17D-04 MaxDP=6.85D-03 DE=-6.90D-04 OVMax= 2.79D-02

 Cycle  11  Pass 1  IDiag  1:
 RMSU=  3.79D-05    CP:  9.53D-01  6.28D-01  7.68D-01  1.85D-01 -1.94D-01
                    CP:  1.17D+00  1.33D+00  1.93D+00  2.04D+00  1.54D+00
 E= -973.652688255736     Delta-E=       -0.000175255509 Rises=F Damp=F
 DIIS: error= 5.40D-04 at cycle  11 NSaved=  11.
 NSaved=11 IEnMin=11 EnMin= -973.652688255736     IErMin=11 ErrMin= 5.40D-04
 ErrMax= 5.40D-04  0.00D+00 EMaxC= 1.00D-01 BMatC= 1.10D-04 BMatP= 2.27D-04
 IDIUse=3 WtCom= 9.95D-01 WtEn= 5.40D-03
 Coeff-Com: -0.414D-02 0.690D-02-0.544D-03-0.136D-02 0.198D-02 0.339D-01
 Coeff-Com:  0.564D-01-0.217D-01-0.372D+00-0.153D+00 0.145D+01
 Coeff-En:   0.000D+00 0.000D+00 0.000D+00 0.000D+00 0.000D+00 0.000D+00
 Coeff-En:   0.000D+00 0.000D+00 0.000D+00 0.000D+00 0.100D+01
 Coeff:     -0.412D-02 0.687D-02-0.542D-03-0.135D-02 0.197D-02 0.337D-01
 Coeff:      0.561D-01-0.216D-01-0.370D+00-0.152D+00 0.145D+01
 Gap=     0.083 Goal=   None    Shift=    0.000
 Gap=     0.061 Goal=   None    Shift=    0.000
 RMSDP=1.20D-04 MaxDP=5.17D-03 DE=-1.75D-04 OVMax= 2.48D-02

 Cycle  12  Pass 1  IDiag  1:
 RMSU=  1.89D-05    CP:  9.52D-01  6.21D-01  7.70D-01  1.78D-01 -1.73D-01
                    CP:  1.15D+00  1.31D+00  2.00D+00  2.41D+00  2.14D+00
                    CP:  1.90D+00
 E= -973.652777536706     Delta-E=       -0.000089280970 Rises=F Damp=F
 DIIS: error= 1.19D-04 at cycle  12 NSaved=  12.
 NSaved=12 IEnMin=12 EnMin= -973.652777536706     IErMin=12 ErrMin= 1.19D-04
 ErrMax= 1.19D-04  0.00D+00 EMaxC= 1.00D-01 BMatC= 8.22D-06 BMatP= 1.10D-04
 IDIUse=3 WtCom= 9.99D-01 WtEn= 1.19D-03
 Coeff-Com: -0.220D-02 0.390D-02-0.247D-02-0.143D-03-0.122D-02 0.261D-02
 Coeff-Com:  0.274D-01 0.190D-01-0.182D+00-0.239D+00 0.578D+00 0.796D+00
 Coeff-En:   0.000D+00 0.000D+00 0.000D+00 0.000D+00 0.000D+00 0.000D+00
 Coeff-En:   0.000D+00 0.000D+00 0.000D+00 0.000D+00 0.000D+00 0.100D+01
 Coeff:     -0.219D-02 0.389D-02-0.247D-02-0.143D-03-0.121D-02 0.261D-02
 Coeff:      0.273D-01 0.190D-01-0.182D+00-0.239D+00 0.578D+00 0.796D+00
 Gap=     0.083 Goal=   None    Shift=    0.000
 Gap=     0.063 Goal=   None    Shift=    0.000
 RMSDP=3.68D-05 MaxDP=2.33D-03 DE=-8.93D-05 OVMax= 1.03D-02

 Cycle  13  Pass 1  IDiag  1:
 RMSU=  8.38D-06    CP:  9.52D-01  6.20D-01  7.71D-01  1.77D-01 -1.68D-01
                    CP:  1.14D+00  1.32D+00  2.03D+00  2.54D+00  2.36D+00
                    CP:  2.21D+00  1.15D+00
 E= -973.652787496343     Delta-E=       -0.000009959637 Rises=F Damp=F
 DIIS: error= 5.42D-05 at cycle  13 NSaved=  13.
 NSaved=13 IEnMin=13 EnMin= -973.652787496343     IErMin=13 ErrMin= 5.42D-05
 ErrMax= 5.42D-05  0.00D+00 EMaxC= 1.00D-01 BMatC= 2.01D-06 BMatP= 8.22D-06
 IDIUse=1 WtCom= 1.00D+00 WtEn= 0.00D+00
 Coeff-Com: -0.267D-03 0.447D-03-0.141D-02 0.354D-03-0.165D-02-0.437D-02
 Coeff-Com:  0.263D-02 0.145D-01-0.204D-01-0.647D-01-0.131D-01 0.386D+00
 Coeff-Com:  0.702D+00
 Coeff:     -0.267D-03 0.447D-03-0.141D-02 0.354D-03-0.165D-02-0.437D-02
 Coeff:      0.263D-02 0.145D-01-0.204D-01-0.647D-01-0.131D-01 0.386D+00
 Coeff:      0.702D+00
 Gap=     0.083 Goal=   None    Shift=    0.000
 Gap=     0.063 Goal=   None    Shift=    0.000
 RMSDP=9.25D-06 MaxDP=6.09D-04 DE=-9.96D-06 OVMax= 2.74D-03

 Cycle  14  Pass 1  IDiag  1:
 RMSU=  3.38D-06    CP:  9.52D-01  6.20D-01  7.71D-01  1.77D-01 -1.67D-01
                    CP:  1.14D+00  1.32D+00  2.04D+00  2.57D+00  2.41D+00
                    CP:  2.31D+00  1.30D+00  1.01D+00
 E= -973.652788525417     Delta-E=       -0.000001029073 Rises=F Damp=F
 DIIS: error= 4.14D-05 at cycle  14 NSaved=  14.
 NSaved=14 IEnMin=14 EnMin= -973.652788525417     IErMin=14 ErrMin= 4.14D-05
 ErrMax= 4.14D-05  0.00D+00 EMaxC= 1.00D-01 BMatC= 9.36D-07 BMatP= 2.01D-06
 IDIUse=1 WtCom= 1.00D+00 WtEn= 0.00D+00
 Coeff-Com:  0.996D-04-0.206D-03-0.739D-04 0.385D-04-0.148D-03-0.101D-02
 Coeff-Com: -0.196D-02 0.475D-02 0.226D-01 0.869D-02-0.909D-01-0.477D-01
 Coeff-Com:  0.168D+00 0.938D+00
 Coeff:      0.996D-04-0.206D-03-0.739D-04 0.385D-04-0.148D-03-0.101D-02
 Coeff:     -0.196D-02 0.475D-02 0.226D-01 0.869D-02-0.909D-01-0.477D-01
 Coeff:      0.168D+00 0.938D+00
 Gap=     0.083 Goal=   None    Shift=    0.000
 Gap=     0.063 Goal=   None    Shift=    0.000
 RMSDP=5.13D-06 MaxDP=2.31D-04 DE=-1.03D-06 OVMax= 6.54D-04

 Cycle  15  Pass 1  IDiag  1:
 RMSU=  1.50D-06    CP:  9.52D-01  6.20D-01  7.71D-01  1.76D-01 -1.66D-01
                    CP:  1.14D+00  1.32D+00  2.04D+00  2.57D+00  2.43D+00
                    CP:  2.36D+00  1.37D+00  1.15D+00  1.07D+00
 E= -973.652788898178     Delta-E=       -0.000000372762 Rises=F Damp=F
 DIIS: error= 9.42D-06 at cycle  15 NSaved=  15.
 NSaved=15 IEnMin=15 EnMin= -973.652788898178     IErMin=15 ErrMin= 9.42D-06
 ErrMax= 9.42D-06  0.00D+00 EMaxC= 1.00D-01 BMatC= 9.85D-08 BMatP= 9.36D-07
 IDIUse=1 WtCom= 1.00D+00 WtEn= 0.00D+00
 Coeff-Com:  0.192D-04-0.745D-04 0.573D-04-0.258D-05 0.531D-04 0.248D-03
 Coeff-Com: -0.935D-03 0.985D-03 0.135D-01 0.915D-02-0.427D-01-0.720D-01
 Coeff-Com: -0.107D-01 0.458D+00 0.645D+00
 Coeff:      0.192D-04-0.745D-04 0.573D-04-0.258D-05 0.531D-04 0.248D-03
 Coeff:     -0.935D-03 0.985D-03 0.135D-01 0.915D-02-0.427D-01-0.720D-01
 Coeff:     -0.107D-01 0.458D+00 0.645D+00
 Gap=     0.083 Goal=   None    Shift=    0.000
 Gap=     0.063 Goal=   None    Shift=    0.000
 RMSDP=1.65D-06 MaxDP=6.33D-05 DE=-3.73D-07 OVMax= 2.17D-04

 Cycle  16  Pass 1  IDiag  1:
 RMSU=  8.87D-07    CP:  9.52D-01  6.20D-01  7.71D-01  1.76D-01 -1.66D-01
                    CP:  1.14D+00  1.32D+00  2.04D+00  2.58D+00  2.43D+00
                    CP:  2.37D+00  1.39D+00  1.18D+00  1.19D+00  1.10D+00
 E= -973.652788947476     Delta-E=       -0.000000049298 Rises=F Damp=F
 DIIS: error= 5.61D-06 at cycle  16 NSaved=  16.
 NSaved=16 IEnMin=16 EnMin= -973.652788947476     IErMin=16 ErrMin= 5.61D-06
 ErrMax= 5.61D-06  0.00D+00 EMaxC= 1.00D-01 BMatC= 2.87D-08 BMatP= 9.85D-08
 IDIUse=1 WtCom= 1.00D+00 WtEn= 0.00D+00
 Coeff-Com: -0.411D-04 0.533D-04 0.772D-04-0.163D-04 0.940D-04 0.645D-03
 Coeff-Com:  0.152D-03-0.131D-02-0.345D-05 0.194D-02 0.889D-02-0.278D-01
 Coeff-Com: -0.806D-01-0.665D-01 0.460D+00 0.704D+00
 Coeff:     -0.411D-04 0.533D-04 0.772D-04-0.163D-04 0.940D-04 0.645D-03
 Coeff:      0.152D-03-0.131D-02-0.345D-05 0.194D-02 0.889D-02-0.278D-01
 Coeff:     -0.806D-01-0.665D-01 0.460D+00 0.704D+00
 Gap=     0.083 Goal=   None    Shift=    0.000
 Gap=     0.063 Goal=   None    Shift=    0.000
 RMSDP=9.75D-07 MaxDP=4.57D-05 DE=-4.93D-08 OVMax= 1.67D-04

 Cycle  17  Pass 1  IDiag  1:
 RMSU=  3.90D-07    CP:  9.52D-01  6.20D-01  7.71D-01  1.76D-01 -1.66D-01
                    CP:  1.14D+00  1.32D+00  2.04D+00  2.58D+00  2.44D+00
                    CP:  2.38D+00  1.40D+00  1.20D+00  1.25D+00  1.48D+00
                    CP:  9.21D-01
 E= -973.652788966790     Delta-E=       -0.000000019314 Rises=F Damp=F
 DIIS: error= 3.36D-06 at cycle  17 NSaved=  17.
 NSaved=17 IEnMin=17 EnMin= -973.652788966790     IErMin=17 ErrMin= 3.36D-06
 ErrMax= 3.36D-06  0.00D+00 EMaxC= 1.00D-01 BMatC= 8.36D-09 BMatP= 2.87D-08
 IDIUse=1 WtCom= 1.00D+00 WtEn= 0.00D+00
 Coeff-Com:  0.851D-05 0.372D-05 0.548D-04-0.111D-04 0.424D-04 0.756D-04
 Coeff-Com:  0.976D-04-0.106D-02-0.356D-02-0.131D-02 0.152D-01 0.120D-01
 Coeff-Com: -0.255D-01-0.145D+00-0.317D-01 0.251D+00 0.929D+00
 Coeff:      0.851D-05 0.372D-05 0.548D-04-0.111D-04 0.424D-04 0.756D-04
 Coeff:      0.976D-04-0.106D-02-0.356D-02-0.131D-02 0.152D-01 0.120D-01
 Coeff:     -0.255D-01-0.145D+00-0.317D-01 0.251D+00 0.929D+00
 Gap=     0.083 Goal=   None    Shift=    0.000
 Gap=     0.063 Goal=   None    Shift=    0.000
 RMSDP=5.55D-07 MaxDP=2.56D-05 DE=-1.93D-08 OVMax= 1.15D-04

 Cycle  18  Pass 1  IDiag  1:
 RMSU=  2.26D-07    CP:  9.52D-01  6.20D-01  7.71D-01  1.76D-01 -1.66D-01
                    CP:  1.14D+00  1.32D+00  2.04D+00  2.58D+00  2.44D+00
                    CP:  2.38D+00  1.40D+00  1.21D+00  1.29D+00  1.63D+00
                    CP:  1.20D+00  1.25D+00
 E= -973.652788972667     Delta-E=       -0.000000005877 Rises=F Damp=F
 DIIS: error= 1.77D-06 at cycle  18 NSaved=  18.
 NSaved=18 IEnMin=18 EnMin= -973.652788972667     IErMin=18 ErrMin= 1.77D-06
 ErrMax= 1.77D-06  0.00D+00 EMaxC= 1.00D-01 BMatC= 2.46D-09 BMatP= 8.36D-09
 IDIUse=1 WtCom= 1.00D+00 WtEn= 0.00D+00
 Coeff-Com:  0.181D-04-0.190D-04-0.676D-05 0.549D-05-0.190D-04-0.102D-03
 Coeff-Com:  0.102D-03-0.462D-03-0.252D-02-0.166D-02 0.847D-02 0.144D-01
 Coeff-Com:  0.340D-02-0.779D-01-0.139D+00-0.296D-01 0.561D+00 0.665D+00
 Coeff:      0.181D-04-0.190D-04-0.676D-05 0.549D-05-0.190D-04-0.102D-03
 Coeff:      0.102D-03-0.462D-03-0.252D-02-0.166D-02 0.847D-02 0.144D-01
 Coeff:      0.340D-02-0.779D-01-0.139D+00-0.296D-01 0.561D+00 0.665D+00
 Gap=     0.083 Goal=   None    Shift=    0.000
 Gap=     0.063 Goal=   None    Shift=    0.000
 RMSDP=2.87D-07 MaxDP=1.26D-05 DE=-5.88D-09 OVMax= 5.53D-05

 Cycle  19  Pass 1  IDiag  1:
 RMSU=  1.01D-07    CP:  9.52D-01  6.20D-01  7.71D-01  1.76D-01 -1.66D-01
                    CP:  1.14D+00  1.32D+00  2.04D+00  2.58D+00  2.44D+00
                    CP:  2.38D+00  1.40D+00  1.21D+00  1.31D+00  1.71D+00
                    CP:  1.27D+00  1.58D+00  1.02D+00
 E= -973.652788973946     Delta-E=       -0.000000001279 Rises=F Damp=F
 DIIS: error= 6.19D-07 at cycle  19 NSaved=  19.
 NSaved=19 IEnMin=19 EnMin= -973.652788973946     IErMin=19 ErrMin= 6.19D-07
 ErrMax= 6.19D-07  0.00D+00 EMaxC= 1.00D-01 BMatC= 3.85D-10 BMatP= 2.46D-09
 IDIUse=1 WtCom= 1.00D+00 WtEn= 0.00D+00
 Coeff-Com:  0.484D-05-0.103D-04-0.196D-04 0.445D-05-0.119D-04-0.311D-04
 Coeff-Com:  0.682D-04 0.133D-03 0.140D-03-0.305D-03-0.384D-03 0.329D-03
 Coeff-Com:  0.614D-02 0.959D-02-0.253D-01-0.599D-01-0.540D-01 0.209D+00
 Coeff-Com:  0.915D+00
 Coeff:      0.484D-05-0.103D-04-0.196D-04 0.445D-05-0.119D-04-0.311D-04
 Coeff:      0.682D-04 0.133D-03 0.140D-03-0.305D-03-0.384D-03 0.329D-03
 Coeff:      0.614D-02 0.959D-02-0.253D-01-0.599D-01-0.540D-01 0.209D+00
 Coeff:      0.915D+00
 Gap=     0.083 Goal=   None    Shift=    0.000
 Gap=     0.063 Goal=   None    Shift=    0.000
 RMSDP=1.29D-07 MaxDP=5.70D-06 DE=-1.28D-09 OVMax= 1.92D-05

 Cycle  20  Pass 1  IDiag  1:
 RMSU=  5.61D-08    CP:  9.52D-01  6.20D-01  7.71D-01  1.76D-01 -1.66D-01
                    CP:  1.14D+00  1.32D+00  2.04D+00  2.58D+00  2.44D+00
                    CP:  2.38D+00  1.40D+00  1.21D+00  1.32D+00  1.74D+00
                    CP:  1.31D+00  1.69D+00  1.21D+00  1.14D+00
 E= -973.652788974217     Delta-E=       -0.000000000271 Rises=F Damp=F
 DIIS: error= 3.98D-07 at cycle  20 NSaved=  20.
 NSaved=20 IEnMin=20 EnMin= -973.652788974217     IErMin=20 ErrMin= 3.98D-07
 ErrMax= 3.98D-07  0.00D+00 EMaxC= 1.00D-01 BMatC= 1.11D-10 BMatP= 3.85D-10
 IDIUse=1 WtCom= 1.00D+00 WtEn= 0.00D+00
 Coeff-Com: -0.319D-07 0.513D-06-0.493D-05 0.938D-06-0.389D-05-0.206D-04
 Coeff-Com:  0.124D-05 0.186D-03 0.483D-03 0.105D-04-0.166D-02-0.134D-02
 Coeff-Com:  0.358D-02 0.143D-01 0.564D-02-0.267D-01-0.106D+00 0.120D-01
 Coeff-Com:  0.426D+00 0.674D+00
 Coeff:     -0.319D-07 0.513D-06-0.493D-05 0.938D-06-0.389D-05-0.206D-04
 Coeff:      0.124D-05 0.186D-03 0.483D-03 0.105D-04-0.166D-02-0.134D-02
 Coeff:      0.358D-02 0.143D-01 0.564D-02-0.267D-01-0.106D+00 0.120D-01
 Coeff:      0.426D+00 0.674D+00
 Gap=     0.083 Goal=   None    Shift=    0.000
 Gap=     0.063 Goal=   None    Shift=    0.000
 RMSDP=5.17D-08 MaxDP=1.96D-06 DE=-2.71D-10 OVMax= 8.68D-06

 Cycle  21  Pass 1  IDiag  1:
 Restarting incremental Fock formation.
 E= -973.652788974287     Delta-E=       -0.000000000071 Rises=F Damp=F
 DIIS: error= 1.37D-07 at cycle  21 NSaved=  20.
 NSaved=20 IEnMin=20 EnMin= -973.652788974287     IErMin=20 ErrMin= 1.37D-07
 ErrMax= 1.37D-07  0.00D+00 EMaxC= 1.00D-01 BMatC= 2.19D-11 BMatP= 1.11D-10
 IDIUse=1 WtCom= 1.00D+00 WtEn= 0.00D+00
 Coeff-Com: -0.147D-05 0.324D-05 0.128D-05-0.194D-05-0.944D-05-0.189D-04
 Coeff-Com:  0.861D-04 0.191D-03 0.445D-04-0.818D-03-0.344D-03 0.991D-03
 Coeff-Com:  0.408D-02 0.644D-02-0.224D-02-0.393D-01-0.257D-01 0.305D-01
 Coeff-Com:  0.314D+00 0.712D+00
 Coeff:     -0.147D-05 0.324D-05 0.128D-05-0.194D-05-0.944D-05-0.189D-04
 Coeff:      0.861D-04 0.191D-03 0.445D-04-0.818D-03-0.344D-03 0.991D-03
 Coeff:      0.408D-02 0.644D-02-0.224D-02-0.393D-01-0.257D-01 0.305D-01
 Coeff:      0.314D+00 0.712D+00
 Gap=     0.083 Goal=   None    Shift=    0.000
 Gap=     0.063 Goal=   None    Shift=    0.000
 RMSDP=3.14D-08 MaxDP=1.40D-06 DE=-7.07D-11 OVMax= 7.26D-06

 Cycle  22  Pass 1  IDiag  1:
 RMSU=  3.14D-08    CP:  1.00D+00
 E= -973.652788974260     Delta-E=        0.000000000028 Rises=F Damp=F
 DIIS: error= 9.57D-08 at cycle  22 NSaved=  20.
 NSaved=20 IEnMin=19 EnMin= -973.652788974287     IErMin=20 ErrMin= 9.57D-08
 ErrMax= 9.57D-08  0.00D+00 EMaxC= 1.00D-01 BMatC= 4.76D-12 BMatP= 2.19D-11
 IDIUse=1 WtCom= 1.00D+00 WtEn= 0.00D+00
 Coeff-Com: -0.603D-06 0.120D-05-0.790D-06 0.179D-05-0.124D-04-0.877D-05
 Coeff-Com: -0.457D-04 0.492D-04 0.166D-04 0.270D-03-0.435D-03-0.210D-02
 Coeff-Com:  0.120D-02 0.549D-02 0.104D-01-0.100D-01-0.976D-01-0.817D-01
 Coeff-Com:  0.308D+00 0.867D+00
 Coeff:     -0.603D-06 0.120D-05-0.790D-06 0.179D-05-0.124D-04-0.877D-05
 Coeff:     -0.457D-04 0.492D-04 0.166D-04 0.270D-03-0.435D-03-0.210D-02
 Coeff:      0.120D-02 0.549D-02 0.104D-01-0.100D-01-0.976D-01-0.817D-01
 Coeff:      0.308D+00 0.867D+00
 Gap=     0.083 Goal=   None    Shift=    0.000
 Gap=     0.063 Goal=   None    Shift=    0.000
 RMSDP=2.97D-08 MaxDP=1.53D-06 DE= 2.75D-11 OVMax= 7.94D-06

 Cycle  23  Pass 1  IDiag  1:
 RMSU=  1.57D-08    CP:  1.00D+00  1.80D+00
 E= -973.652788974281     Delta-E=       -0.000000000021 Rises=F Damp=F
 DIIS: error= 7.61D-08 at cycle  23 NSaved=  20.
 NSaved=20 IEnMin=18 EnMin= -973.652788974287     IErMin=20 ErrMin= 7.61D-08
 ErrMax= 7.61D-08  0.00D+00 EMaxC= 1.00D-01 BMatC= 2.14D-12 BMatP= 4.76D-12
 IDIUse=1 WtCom= 1.00D+00 WtEn= 0.00D+00
 Coeff-Com: -0.284D-06 0.919D-07 0.113D-05 0.412D-05-0.114D-04-0.613D-04
 Coeff-Com: -0.237D-04 0.171D-03 0.231D-03-0.252D-03-0.157D-02-0.105D-02
 Coeff-Com:  0.201D-02 0.110D-01 0.213D-02-0.395D-01-0.765D-01-0.368D-01
 Coeff-Com:  0.225D+00 0.915D+00
 Coeff:     -0.284D-06 0.919D-07 0.113D-05 0.412D-05-0.114D-04-0.613D-04
 Coeff:     -0.237D-04 0.171D-03 0.231D-03-0.252D-03-0.157D-02-0.105D-02
 Coeff:      0.201D-02 0.110D-01 0.213D-02-0.395D-01-0.765D-01-0.368D-01
 Coeff:      0.225D+00 0.915D+00
 Gap=     0.083 Goal=   None    Shift=    0.000
 Gap=     0.063 Goal=   None    Shift=    0.000
 RMSDP=2.38D-08 MaxDP=1.24D-06 DE=-2.09D-11 OVMax= 6.41D-06

 Cycle  24  Pass 1  IDiag  1:
 RMSU=  5.78D-09    CP:  1.00D+00  2.48D+00  1.57D+00
 E= -973.652788974294     Delta-E=       -0.000000000013 Rises=F Damp=F
 DIIS: error= 6.02D-08 at cycle  24 NSaved=  20.
 NSaved=20 IEnMin=20 EnMin= -973.652788974294     IErMin=20 ErrMin= 6.02D-08
 ErrMax= 6.02D-08  0.00D+00 EMaxC= 1.00D-01 BMatC= 8.82D-13 BMatP= 2.14D-12
 IDIUse=1 WtCom= 1.00D+00 WtEn= 0.00D+00
 Coeff-Com: -0.988D-06 0.804D-06 0.734D-05-0.478D-05-0.161D-04-0.311D-04
 Coeff-Com:  0.922D-04 0.153D-04 0.255D-04 0.621D-04-0.936D-03-0.925D-03
 Coeff-Com:  0.192D-02 0.373D-02 0.133D-01-0.617D-02-0.138D+00-0.223D+00
 Coeff-Com:  0.543D+00 0.807D+00
 Coeff:     -0.988D-06 0.804D-06 0.734D-05-0.478D-05-0.161D-04-0.311D-04
 Coeff:      0.922D-04 0.153D-04 0.255D-04 0.621D-04-0.936D-03-0.925D-03
 Coeff:      0.192D-02 0.373D-02 0.133D-01-0.617D-02-0.138D+00-0.223D+00
 Coeff:      0.543D+00 0.807D+00
 Gap=     0.083 Goal=   None    Shift=    0.000
 Gap=     0.063 Goal=   None    Shift=    0.000
 RMSDP=2.16D-08 MaxDP=1.15D-06 DE=-1.27D-11 OVMax= 5.97D-06

 Cycle  25  Pass 1  IDiag  1:
 RMSU=  4.33D-09    CP:  1.00D+00  3.00D+00  2.27D+00  1.53D+00
 E= -973.652788974279     Delta-E=        0.000000000014 Rises=F Damp=F
 DIIS: error= 4.54D-08 at cycle  25 NSaved=  20.
 NSaved=20 IEnMin=19 EnMin= -973.652788974294     IErMin=20 ErrMin= 4.54D-08
 ErrMax= 4.54D-08  0.00D+00 EMaxC= 1.00D-01 BMatC= 3.72D-13 BMatP= 8.82D-13
 IDIUse=1 WtCom= 1.00D+00 WtEn= 0.00D+00
 Coeff-Com: -0.124D-05-0.167D-05 0.703D-05 0.533D-04 0.109D-04-0.122D-03
 Coeff-Com: -0.184D-03 0.321D-03 0.142D-02 0.555D-06-0.276D-02-0.842D-02
 Coeff-Com:  0.169D-02 0.469D-01 0.624D-01-0.333D-01-0.286D+00-0.683D+00
 Coeff-Com:  0.132D+00 0.177D+01
 Coeff:     -0.124D-05-0.167D-05 0.703D-05 0.533D-04 0.109D-04-0.122D-03
 Coeff:     -0.184D-03 0.321D-03 0.142D-02 0.555D-06-0.276D-02-0.842D-02
 Coeff:      0.169D-02 0.469D-01 0.624D-01-0.333D-01-0.286D+00-0.683D+00
 Coeff:      0.132D+00 0.177D+01
 Gap=     0.083 Goal=   None    Shift=    0.000
 Gap=     0.063 Goal=   None    Shift=    0.000
 RMSDP=4.28D-08 MaxDP=2.29D-06 DE= 1.41D-11 OVMax= 1.19D-05

 Cycle  26  Pass 1  IDiag  1:
 RMSU=  3.37D-08    CP:  1.00D+00  3.00D+00  3.00D+00  2.89D+00  3.00D+00
 E= -973.652788974311     Delta-E=       -0.000000000032 Rises=F Damp=F
 DIIS: error= 1.59D-08 at cycle  26 NSaved=  20.
 NSaved=20 IEnMin=20 EnMin= -973.652788974311     IErMin=20 ErrMin= 1.59D-08
 ErrMax= 1.59D-08  0.00D+00 EMaxC= 1.00D-01 BMatC= 1.14D-13 BMatP= 3.72D-13
 IDIUse=1 WtCom= 1.00D+00 WtEn= 0.00D+00
 Coeff-Com: -0.105D-05 0.171D-05 0.208D-04 0.113D-04-0.532D-04-0.915D-04
 Coeff-Com:  0.133D-03 0.557D-03 0.958D-05-0.126D-02-0.407D-02 0.156D-02
 Coeff-Com:  0.237D-01 0.224D-01-0.344D-02-0.823D-01-0.375D+00-0.117D+00
 Coeff-Com:  0.698D+00 0.837D+00
 Coeff:     -0.105D-05 0.171D-05 0.208D-04 0.113D-04-0.532D-04-0.915D-04
 Coeff:      0.133D-03 0.557D-03 0.958D-05-0.126D-02-0.407D-02 0.156D-02
 Coeff:      0.237D-01 0.224D-01-0.344D-02-0.823D-01-0.375D+00-0.117D+00
 Coeff:      0.698D+00 0.837D+00
 Gap=     0.083 Goal=   None    Shift=    0.000
 Gap=     0.063 Goal=   None    Shift=    0.000
 RMSDP=1.45D-08 MaxDP=7.73D-07 DE=-3.16D-11 OVMax= 4.01D-06

 Cycle  27  Pass 1  IDiag  1:
 RMSU=  5.31D-09    CP:  1.00D+00  3.00D+00  3.00D+00  3.00D+00  3.00D+00
                    CP:  1.40D+00
 E= -973.652788974306     Delta-E=        0.000000000005 Rises=F Damp=F
 DIIS: error= 6.31D-09 at cycle  27 NSaved=  20.
 NSaved=20 IEnMin=19 EnMin= -973.652788974311     IErMin=20 ErrMin= 6.31D-09
 ErrMax= 6.31D-09  0.00D+00 EMaxC= 1.00D-01 BMatC= 6.77D-14 BMatP= 1.14D-13
 IDIUse=1 WtCom= 1.00D+00 WtEn= 0.00D+00
 Coeff-Com:  0.327D-06-0.626D-05 0.577D-06 0.106D-04 0.713D-05-0.204D-04
 Coeff-Com: -0.129D-03 0.117D-03 0.219D-03-0.151D-06 0.204D-03-0.134D-02
 Coeff-Com: -0.859D-02 0.152D-01 0.602D-01-0.912D-02-0.152D+00-0.206D+00
 Coeff-Com:  0.619D+00 0.682D+00
 Coeff:      0.327D-06-0.626D-05 0.577D-06 0.106D-04 0.713D-05-0.204D-04
 Coeff:     -0.129D-03 0.117D-03 0.219D-03-0.151D-06 0.204D-03-0.134D-02
 Coeff:     -0.859D-02 0.152D-01 0.602D-01-0.912D-02-0.152D+00-0.206D+00
 Coeff:      0.619D+00 0.682D+00
 Gap=     0.083 Goal=   None    Shift=    0.000
 Gap=     0.063 Goal=   None    Shift=    0.000
 RMSDP=7.59D-09 MaxDP=4.03D-07 DE= 5.46D-12 OVMax= 2.09D-06

 NEqSol: Computing the fast-slow partition of the PCM polarization charges.
 Error on total polarization charges =  0.01277
 SCF Done:  E(UB3LYP) =  -973.652788974     A.U. after   27 cycles
            NFock= 27  Conv=0.76D-08     -V/T= 2.0049
 <Sx>= 0.0000 <Sy>= 0.0000 <Sz>= 1.0000 <S**2>= 2.0077 S= 1.0026
 <L.S>= 0.000000000000E+00
 KE= 9.688936134141D+02 PE=-4.264403487436D+03 EE= 1.331410801236D+03
 Annihilation of the first spin contaminant:
 S**2 before annihilation     2.0077,   after     2.0000
 Leave Link  502 at Tue Aug 18 20:47:34 2026, MaxMem=  2684354560 cpu:            2816.2 elap:             119.5
 (Enter /mnt/data/applications/G16/g16/l601.exe)
 Copying SCF densities to generalized density rwf, IOpCl= 1 IROHF=0.

 **********************************************************************

            Population analysis using the SCF density.

 **********************************************************************

 Alpha  occ. eigenvalues --  -88.95599 -19.11219 -10.25003 -10.25002 -10.23435
 Alpha  occ. eigenvalues --  -10.22085 -10.22083 -10.21658 -10.21657 -10.21315
 Alpha  occ. eigenvalues --  -10.21315 -10.20153 -10.20153 -10.19723 -10.19723
 Alpha  occ. eigenvalues --   -8.01743  -5.97959  -5.97823  -5.97527  -1.00265
 Alpha  occ. eigenvalues --   -0.90706  -0.87605  -0.83259  -0.78635  -0.77384
 Alpha  occ. eigenvalues --   -0.76532  -0.72807  -0.66535  -0.63761  -0.61204
 Alpha  occ. eigenvalues --   -0.60258  -0.56162  -0.54563  -0.49935  -0.47890
 Alpha  occ. eigenvalues --   -0.47807  -0.47603  -0.44739  -0.44052  -0.44004
 Alpha  occ. eigenvalues --   -0.43016  -0.41435  -0.40124  -0.39299  -0.38502
 Alpha  occ. eigenvalues --   -0.38373  -0.36688  -0.35549  -0.34466  -0.34347
 Alpha  occ. eigenvalues --   -0.28743  -0.27940  -0.27496  -0.25397  -0.24719
 Alpha  occ. eigenvalues --   -0.13284
 Alpha virt. eigenvalues --   -0.04939  -0.02739  -0.02666   0.01246   0.04064
 Alpha virt. eigenvalues --    0.05091   0.07989   0.08324   0.10161   0.10584
 Alpha virt. eigenvalues --    0.12018   0.12757   0.14429   0.14769   0.15208
 Alpha virt. eigenvalues --    0.16442   0.19618   0.22825   0.23978   0.25147
 Alpha virt. eigenvalues --    0.27925   0.28168   0.28684   0.31200   0.31386
 Alpha virt. eigenvalues --    0.33255   0.38662   0.39372   0.40082   0.40648
 Alpha virt. eigenvalues --    0.41995   0.42939   0.43894   0.44323   0.45898
 Alpha virt. eigenvalues --    0.46075   0.46788   0.47425   0.47779   0.47851
 Alpha virt. eigenvalues --    0.48024   0.48975   0.49754   0.49763   0.50511
 Alpha virt. eigenvalues --    0.50711   0.51115   0.51936   0.51949   0.55344
 Alpha virt. eigenvalues --    0.55441   0.55770   0.57270   0.58212   0.60110
 Alpha virt. eigenvalues --    0.61379   0.61638   0.62541   0.63209   0.63241
 Alpha virt. eigenvalues --    0.63798   0.65628   0.65672   0.66287   0.68704
 Alpha virt. eigenvalues --    0.70136   0.70570   0.72161   0.73954   0.75217
 Alpha virt. eigenvalues --    0.75227   0.79020   0.82503   0.82890   0.85069
 Alpha virt. eigenvalues --    0.86872   0.87043   0.87271   0.89255   0.89310
 Alpha virt. eigenvalues --    0.90760   0.91006   0.91921   0.93011   0.95830
 Alpha virt. eigenvalues --    0.96453   0.96562   0.97752   0.98674   0.99714
 Alpha virt. eigenvalues --    1.01158   1.01430   1.02193   1.03476   1.03492
 Alpha virt. eigenvalues --    1.04744   1.04777   1.06860   1.07700   1.12475
 Alpha virt. eigenvalues --    1.14011   1.15673   1.16337   1.18804   1.19662
 Alpha virt. eigenvalues --    1.19870   1.27285   1.29847   1.31543   1.33940
 Alpha virt. eigenvalues --    1.35063   1.36663   1.39325   1.43159   1.45328
 Alpha virt. eigenvalues --    1.46094   1.46356   1.47015   1.47282   1.48907
 Alpha virt. eigenvalues --    1.49334   1.50109   1.50288   1.51371   1.53350
 Alpha virt. eigenvalues --    1.58090   1.60168   1.60569   1.60635   1.62813
 Alpha virt. eigenvalues --    1.62932   1.63886   1.64546   1.65810   1.66933
 Alpha virt. eigenvalues --    1.67014   1.69392   1.69435   1.72068   1.72455
 Alpha virt. eigenvalues --    1.74697   1.75487   1.76784   1.77302   1.77800
 Alpha virt. eigenvalues --    1.77913   1.78715   1.79724   1.82233   1.82603
 Alpha virt. eigenvalues --    1.83382   1.85109   1.85110   1.86419   1.90367
 Alpha virt. eigenvalues --    1.90820   1.92987   1.94646   1.95666   1.96152
 Alpha virt. eigenvalues --    1.99124   1.99615   2.01505   2.06912   2.07769
 Alpha virt. eigenvalues --    2.13031   2.15392   2.15639   2.17707   2.19002
 Alpha virt. eigenvalues --    2.20768   2.22821   2.27889   2.35652   2.35675
 Alpha virt. eigenvalues --    2.37034   2.38365   2.42062   2.43411   2.45684
 Alpha virt. eigenvalues --    2.53782   2.55913   2.63494   2.64366   2.68742
 Alpha virt. eigenvalues --    2.69423   2.71407   2.73826   2.75595   2.76209
 Alpha virt. eigenvalues --    2.81138   2.81946   2.95944   3.01926   3.31804
 Alpha virt. eigenvalues --    3.41726   3.43890   3.54066
  Beta  occ. eigenvalues --  -88.95333 -19.10076 -10.24801 -10.24800 -10.23103
  Beta  occ. eigenvalues --  -10.22000 -10.21998 -10.21625 -10.21624 -10.21211
  Beta  occ. eigenvalues --  -10.21211 -10.19977 -10.19977 -10.19608 -10.19608
  Beta  occ. eigenvalues --   -8.01471  -5.97795  -5.97374  -5.96942  -0.98042
  Beta  occ. eigenvalues --   -0.89904  -0.87135  -0.82543  -0.77855  -0.76943
  Beta  occ. eigenvalues --   -0.76040  -0.71949  -0.65746  -0.63387  -0.60881
  Beta  occ. eigenvalues --   -0.59613  -0.55625  -0.54323  -0.49485  -0.47603
  Beta  occ. eigenvalues --   -0.47573  -0.47412  -0.44525  -0.43857  -0.42773
  Beta  occ. eigenvalues --   -0.41910  -0.40524  -0.39739  -0.37996  -0.37937
  Beta  occ. eigenvalues --   -0.36511  -0.35343  -0.34387  -0.33935  -0.32136
  Beta  occ. eigenvalues --   -0.27049  -0.26117  -0.24606  -0.24311
  Beta virt. eigenvalues --   -0.18050  -0.05957  -0.03525  -0.01232  -0.01120
  Beta virt. eigenvalues --    0.01615   0.05639   0.06629   0.08079   0.08859
  Beta virt. eigenvalues --    0.10217   0.10658   0.12937   0.13292   0.14590
  Beta virt. eigenvalues --    0.14907   0.15330   0.18487   0.19851   0.23226
  Beta virt. eigenvalues --    0.24389   0.25438   0.28078   0.28556   0.28871
  Beta virt. eigenvalues --    0.31657   0.31686   0.33741   0.39000   0.39561
  Beta virt. eigenvalues --    0.40630   0.40975   0.43045   0.43633   0.45134
  Beta virt. eigenvalues --    0.45384   0.46231   0.46418   0.47922   0.48125
  Beta virt. eigenvalues --    0.48127   0.48345   0.48369   0.49369   0.50017
  Beta virt. eigenvalues --    0.50848   0.50892   0.51135   0.51527   0.52290
  Beta virt. eigenvalues --    0.52663   0.55600   0.56192   0.56556   0.57442
  Beta virt. eigenvalues --    0.59167   0.60693   0.62456   0.62648   0.63105
  Beta virt. eigenvalues --    0.63291   0.63501   0.64084   0.65767   0.66456
  Beta virt. eigenvalues --    0.66607   0.69063   0.70324   0.70727   0.72693
  Beta virt. eigenvalues --    0.74613   0.75374   0.75542   0.79920   0.82955
  Beta virt. eigenvalues --    0.83118   0.85226   0.87492   0.87652   0.87905
  Beta virt. eigenvalues --    0.89502   0.90003   0.90975   0.91628   0.92142
  Beta virt. eigenvalues --    0.93276   0.96012   0.96959   0.97260   0.98067
  Beta virt. eigenvalues --    0.99086   1.01149   1.01469   1.01838   1.02740
  Beta virt. eigenvalues --    1.04019   1.04136   1.04956   1.06724   1.07037
  Beta virt. eigenvalues --    1.07978   1.14300   1.14430   1.16437   1.16550
  Beta virt. eigenvalues --    1.19561   1.20045   1.20713   1.27549   1.30106
  Beta virt. eigenvalues --    1.31965   1.34322   1.35450   1.37095   1.40398
  Beta virt. eigenvalues --    1.44029   1.45873   1.46504   1.46517   1.47297
  Beta virt. eigenvalues --    1.47634   1.49285   1.49548   1.50339   1.50946
  Beta virt. eigenvalues --    1.51849   1.53583   1.58262   1.60636   1.60750
  Beta virt. eigenvalues --    1.60774   1.63107   1.63163   1.64102   1.64775
  Beta virt. eigenvalues --    1.66109   1.67129   1.67411   1.69696   1.69769
  Beta virt. eigenvalues --    1.72752   1.72859   1.75006   1.76024   1.77340
  Beta virt. eigenvalues --    1.77529   1.78167   1.78591   1.78990   1.80010
  Beta virt. eigenvalues --    1.82438   1.82773   1.83963   1.85253   1.85263
  Beta virt. eigenvalues --    1.86577   1.90588   1.91204   1.93324   1.95080
  Beta virt. eigenvalues --    1.96288   1.96433   1.99386   1.99968   2.01715
  Beta virt. eigenvalues --    2.07282   2.07969   2.13855   2.15943   2.16232
  Beta virt. eigenvalues --    2.18583   2.19642   2.21103   2.23524   2.28077
  Beta virt. eigenvalues --    2.35905   2.35936   2.37170   2.38461   2.42274
  Beta virt. eigenvalues --    2.44106   2.45929   2.54000   2.56157   2.63743
  Beta virt. eigenvalues --    2.64650   2.69618   2.71529   2.72160   2.74929
  Beta virt. eigenvalues --    2.75794   2.78013   2.81262   2.82188   2.97143
  Beta virt. eigenvalues --    3.05244   3.32206   3.41926   3.45189   3.54339
          Condensed to atoms (all electrons):
               1          2          3          4          5          6
     1  C    4.787669   0.491779   0.005656  -0.074669   0.010909   0.439757
     2  C    0.491779   4.743387   0.449005   0.006326  -0.077314   0.014983
     3  C    0.005656   0.449005   5.469374   0.287009  -0.051606  -0.084369
     4  C   -0.074669   0.006326   0.287009   5.425100   0.344653   0.015367
     5  C    0.010909  -0.077314  -0.051606   0.344653   5.004251   0.413832
     6  C    0.439757   0.014983  -0.084369   0.015367   0.413832   4.818791
     7  C   -0.000676   0.007589  -0.058899   0.156521  -0.081411   0.015074
     8  C    0.000067  -0.000547  -0.058637  -0.003103   0.025935  -0.000593
     9  C   -0.000149   0.001835  -0.003687  -0.058641  -0.000023   0.000089
    10  C    0.000001  -0.000241   0.001836  -0.000548   0.000047   0.000001
    11  H   -0.000000  -0.000009   0.000435   0.000026  -0.000002   0.000000
    12  C    0.000000   0.000001  -0.000149   0.000067   0.000001  -0.000000
    13  C   -0.000000   0.000001   0.000089  -0.000592  -0.000007   0.000000
    14  C    0.000001   0.000047  -0.000024   0.025944  -0.001095  -0.000007
    15  H    0.397144  -0.044098   0.010660   0.000042   0.009220  -0.049654
    16  H   -0.043898   0.392613  -0.050157   0.011617  -0.000554   0.009673
    17  H    0.010679  -0.001175   0.015421  -0.053028   0.393405  -0.057214
    18  H   -0.051916   0.009602   0.000440   0.009580  -0.041208   0.393243
    19  H    0.000000  -0.000000   0.000002   0.000001   0.000000  -0.000000
    20  H    0.000000   0.000000  -0.000000   0.000001  -0.000000  -0.000000
    21  H    0.000000   0.000002  -0.000186   0.003592  -0.000151  -0.000003
    22  S    0.005345  -0.086441   0.303366  -0.062098   0.007353  -0.000356
    23  O   -0.000004  -0.000051   0.005299  -0.131379   0.016983   0.001407
               7          8          9         10         11         12
     1  C   -0.000676   0.000067  -0.000149   0.000001  -0.000000   0.000000
     2  C    0.007589  -0.000547   0.001835  -0.000241  -0.000009   0.000001
     3  C   -0.058899  -0.058637  -0.003687   0.001836   0.000435  -0.000149
     4  C    0.156521  -0.003103  -0.058641  -0.000548   0.000026   0.000067
     5  C   -0.081411   0.025935  -0.000023   0.000047  -0.000002   0.000001
     6  C    0.015074  -0.000593   0.000089   0.000001   0.000000  -0.000000
     7  C    5.329038   0.156718  -0.058883   0.007591  -0.000122  -0.000675
     8  C    0.156718   5.424955   0.286949   0.006312   0.011615  -0.074659
     9  C   -0.058883   0.286949   5.469227   0.449011  -0.050159   0.005634
    10  C    0.007591   0.006312   0.449011   4.743412   0.392625   0.491787
    11  H   -0.000122   0.011615  -0.050159   0.392625   0.703565  -0.043881
    12  C   -0.000675  -0.074659   0.005634   0.491787  -0.043881   4.787827
    13  C    0.015060   0.015357  -0.084354   0.014968   0.009671   0.439697
    14  C   -0.081488   0.344489  -0.051517  -0.077295  -0.000555   0.010887
    15  H    0.000030   0.000001   0.000002  -0.000000  -0.000000   0.000000
    16  H   -0.000122   0.000026   0.000435  -0.000009   0.000011  -0.000000
    17  H   -0.032011   0.003598  -0.000187   0.000002  -0.000000   0.000000
    18  H   -0.000367   0.000001  -0.000000   0.000000   0.000000   0.000000
    19  H    0.000030   0.000043   0.010659  -0.044073  -0.013926   0.397134
    20  H   -0.000367   0.009582   0.000439   0.009601  -0.000256  -0.051953
    21  H   -0.031964  -0.053086   0.015412  -0.001173   0.000048   0.010684
    22  S   -0.026622  -0.062076   0.303489  -0.086488  -0.007874   0.005346
    23  O    0.687741  -0.131311   0.005295  -0.000051   0.000001  -0.000004
              13         14         15         16         17         18
     1  C   -0.000000   0.000001   0.397144  -0.043898   0.010679  -0.051916
     2  C    0.000001   0.000047  -0.044098   0.392613  -0.001175   0.009602
     3  C    0.000089  -0.000024   0.010660  -0.050157   0.015421   0.000440
     4  C   -0.000592   0.025944   0.000042   0.011617  -0.053028   0.009580
     5  C   -0.000007  -0.001095   0.009220  -0.000554   0.393405  -0.041208
     6  C    0.000000  -0.000007  -0.049654   0.009673  -0.057214   0.393243
     7  C    0.015060  -0.081488   0.000030  -0.000122  -0.032011  -0.000367
     8  C    0.015357   0.344489   0.000001   0.000026   0.003598   0.000001
     9  C   -0.084354  -0.051517   0.000002   0.000435  -0.000187  -0.000000
    10  C    0.014968  -0.077295  -0.000000  -0.000009   0.000002   0.000000
    11  H    0.009671  -0.000555  -0.000000   0.000011  -0.000000   0.000000
    12  C    0.439697   0.010887   0.000000  -0.000000   0.000000   0.000000
    13  C    4.818680   0.414054  -0.000000   0.000000  -0.000003  -0.000000
    14  C    0.414054   5.004091   0.000000  -0.000002  -0.000151  -0.000000
    15  H   -0.000000   0.000000   0.713107  -0.013931  -0.000185  -0.013976
    16  H    0.000000  -0.000002  -0.013931   0.703663   0.000048  -0.000256
    17  H   -0.000003  -0.000151  -0.000185   0.000048   0.746312  -0.015060
    18  H   -0.000000  -0.000000  -0.013976  -0.000256  -0.015060   0.710940
    19  H   -0.049668   0.009217  -0.000000  -0.000000   0.000000   0.000000
    20  H    0.393224  -0.041149   0.000000   0.000000  -0.000000  -0.000000
    21  H   -0.057164   0.393465   0.000000  -0.000000  -0.000074  -0.000000
    22  S   -0.000355   0.007354  -0.000246  -0.007869  -0.000149   0.000032
    23  O    0.001403   0.016997   0.000000   0.000001   0.031776  -0.000017
              19         20         21         22         23
     1  C    0.000000   0.000000   0.000000   0.005345  -0.000004
     2  C   -0.000000   0.000000   0.000002  -0.086441  -0.000051
     3  C    0.000002  -0.000000  -0.000186   0.303366   0.005299
     4  C    0.000001   0.000001   0.003592  -0.062098  -0.131379
     5  C    0.000000  -0.000000  -0.000151   0.007353   0.016983
     6  C   -0.000000  -0.000000  -0.000003  -0.000356   0.001407
     7  C    0.000030  -0.000367  -0.031964  -0.026622   0.687741
     8  C    0.000043   0.009582  -0.053086  -0.062076  -0.131311
     9  C    0.010659   0.000439   0.015412   0.303489   0.005295
    10  C   -0.044073   0.009601  -0.001173  -0.086488  -0.000051
    11  H   -0.013926  -0.000256   0.000048  -0.007874   0.000001
    12  C    0.397134  -0.051953   0.010684   0.005346  -0.000004
    13  C   -0.049668   0.393224  -0.057164  -0.000355   0.001403
    14  C    0.009217  -0.041149   0.393465   0.007354   0.016997
    15  H   -0.000000   0.000000   0.000000  -0.000246   0.000000
    16  H   -0.000000   0.000000  -0.000000  -0.007869   0.000001
    17  H    0.000000  -0.000000  -0.000074  -0.000149   0.031776
    18  H    0.000000  -0.000000  -0.000000   0.000032  -0.000017
    19  H    0.713100  -0.013970  -0.000185  -0.000246   0.000000
    20  H   -0.013970   0.710947  -0.015075   0.000032  -0.000017
    21  H   -0.000185  -0.015075   0.746273  -0.000149   0.031692
    22  S   -0.000246   0.000032  -0.000149  15.416953  -0.000192
    23  O    0.000000  -0.000017   0.031692  -0.000192   7.787979
          Atomic-Atomic Spin Densities.
               1          2          3          4          5          6
     1  C    0.150013  -0.022673  -0.010376   0.002939  -0.011728   0.009700
     2  C   -0.022673   0.010659   0.040049  -0.002392   0.003821  -0.004405
     3  C   -0.010376   0.040049   0.153105  -0.002557   0.007413  -0.001738
     4  C    0.002939  -0.002392  -0.002557   0.063097  -0.023572  -0.004645
     5  C   -0.011728   0.003821   0.007413  -0.023572   0.110974   0.011370
     6  C    0.009700  -0.004405  -0.001738  -0.004645   0.011370   0.062870
     7  C    0.000328  -0.000916  -0.010630   0.051362  -0.011304  -0.000183
     8  C    0.000010  -0.000038  -0.000105   0.005429  -0.001353  -0.000018
     9  C   -0.000021   0.000446   0.008742  -0.000103   0.000088  -0.000006
    10  C   -0.000000   0.000013   0.000446  -0.000038  -0.000002  -0.000000
    11  H   -0.000000  -0.000001  -0.000005   0.000003   0.000000  -0.000000
    12  C    0.000000  -0.000000  -0.000021   0.000010  -0.000000   0.000000
    13  C    0.000000  -0.000000  -0.000006  -0.000018   0.000000   0.000000
    14  C   -0.000000  -0.000002   0.000088  -0.001353   0.000104   0.000000
    15  H    0.002391  -0.000168  -0.000062  -0.000048  -0.000029  -0.000049
    16  H    0.000109   0.000767   0.000326  -0.000036   0.000007  -0.000058
    17  H   -0.000124   0.000027  -0.000139   0.002747   0.002333  -0.000531
    18  H   -0.000070  -0.000020  -0.000030  -0.000025  -0.000248   0.001588
    19  H    0.000000   0.000000  -0.000000  -0.000000   0.000000   0.000000
    20  H    0.000000   0.000000  -0.000000   0.000000   0.000000   0.000000
    21  H   -0.000000  -0.000000  -0.000003  -0.000130   0.000012   0.000000
    22  S    0.000674  -0.010335  -0.072284  -0.002544  -0.000548   0.000270
    23  O   -0.000006   0.000003   0.000147  -0.007393   0.003874  -0.000014
               7          8          9         10         11         12
     1  C    0.000328   0.000010  -0.000021  -0.000000  -0.000000   0.000000
     2  C   -0.000916  -0.000038   0.000446   0.000013  -0.000001  -0.000000
     3  C   -0.010630  -0.000105   0.008742   0.000446  -0.000005  -0.000021
     4  C    0.051362   0.005429  -0.000103  -0.000038   0.000003   0.000010
     5  C   -0.011304  -0.001353   0.000088  -0.000002   0.000000  -0.000000
     6  C   -0.000183  -0.000018  -0.000006  -0.000000  -0.000000   0.000000
     7  C    0.210531   0.051389  -0.010639  -0.000917  -0.000009   0.000328
     8  C    0.051389   0.063171  -0.002581  -0.002393  -0.000036   0.002944
     9  C   -0.010639  -0.002581   0.153298   0.040068   0.000326  -0.010389
    10  C   -0.000917  -0.002393   0.040068   0.010644   0.000768  -0.022682
    11  H   -0.000009  -0.000036   0.000326   0.000768  -0.002585   0.000109
    12  C    0.000328   0.002944  -0.010389  -0.022682   0.000109   0.150206
    13  C   -0.000183  -0.004651  -0.001737  -0.004407  -0.000058   0.009684
    14  C   -0.011302  -0.023602   0.007418   0.003822   0.000007  -0.011737
    15  H   -0.000000  -0.000000  -0.000000   0.000000   0.000000   0.000000
    16  H   -0.000009   0.000003  -0.000005  -0.000001  -0.000001  -0.000000
    17  H   -0.000044  -0.000130  -0.000003  -0.000000   0.000000  -0.000000
    18  H    0.000004   0.000000  -0.000000   0.000000  -0.000000   0.000000
    19  H   -0.000000  -0.000048  -0.000062  -0.000168   0.000172   0.002394
    20  H    0.000004  -0.000025  -0.000030  -0.000020   0.000003  -0.000069
    21  H   -0.000044   0.002747  -0.000139   0.000027  -0.000002  -0.000124
    22  S    0.006222  -0.002540  -0.072318  -0.010342  -0.000471   0.000675
    23  O   -0.088428  -0.007394   0.000147   0.000003  -0.000000  -0.000006
              13         14         15         16         17         18
     1  C    0.000000  -0.000000   0.002391   0.000109  -0.000124  -0.000070
     2  C   -0.000000  -0.000002  -0.000168   0.000767   0.000027  -0.000020
     3  C   -0.000006   0.000088  -0.000062   0.000326  -0.000139  -0.000030
     4  C   -0.000018  -0.001353  -0.000048  -0.000036   0.002747  -0.000025
     5  C    0.000000   0.000104  -0.000029   0.000007   0.002333  -0.000248
     6  C    0.000000   0.000000  -0.000049  -0.000058  -0.000531   0.001588
     7  C   -0.000183  -0.011302  -0.000000  -0.000009  -0.000044   0.000004
     8  C   -0.004651  -0.023602  -0.000000   0.000003  -0.000130   0.000000
     9  C   -0.001737   0.007418  -0.000000  -0.000005  -0.000003  -0.000000
    10  C   -0.004407   0.003822   0.000000  -0.000001  -0.000000   0.000000
    11  H   -0.000058   0.000007   0.000000  -0.000001   0.000000  -0.000000
    12  C    0.009684  -0.011737   0.000000  -0.000000  -0.000000   0.000000
    13  C    0.062903   0.011397   0.000000  -0.000000   0.000000   0.000000
    14  C    0.011397   0.111057   0.000000   0.000000   0.000012   0.000000
    15  H    0.000000   0.000000  -0.008624   0.000172   0.000001   0.000169
    16  H   -0.000000   0.000000   0.000172  -0.002585  -0.000002   0.000003
    17  H    0.000000   0.000012   0.000001  -0.000002  -0.008754   0.000174
    18  H    0.000000   0.000000   0.000169   0.000003   0.000174  -0.005042
    19  H   -0.000048  -0.000029  -0.000000   0.000000   0.000000   0.000000
    20  H    0.001589  -0.000249   0.000000  -0.000000   0.000000  -0.000000
    21  H   -0.000531   0.002331   0.000000   0.000000   0.000007   0.000000
    22  S    0.000271  -0.000548   0.000000  -0.000470  -0.000004   0.000001
    23  O   -0.000014   0.003869  -0.000000  -0.000000  -0.001237   0.000000
              19         20         21         22         23
     1  C    0.000000   0.000000  -0.000000   0.000674  -0.000006
     2  C    0.000000   0.000000  -0.000000  -0.010335   0.000003
     3  C   -0.000000  -0.000000  -0.000003  -0.072284   0.000147
     4  C   -0.000000   0.000000  -0.000130  -0.002544  -0.007393
     5  C    0.000000   0.000000   0.000012  -0.000548   0.003874
     6  C    0.000000   0.000000   0.000000   0.000270  -0.000014
     7  C   -0.000000   0.000004  -0.000044   0.006222  -0.088428
     8  C   -0.000048  -0.000025   0.002747  -0.002540  -0.007394
     9  C   -0.000062  -0.000030  -0.000139  -0.072318   0.000147
    10  C   -0.000168  -0.000020   0.000027  -0.010342   0.000003
    11  H    0.000172   0.000003  -0.000002  -0.000471  -0.000000
    12  C    0.002394  -0.000069  -0.000124   0.000675  -0.000006
    13  C   -0.000048   0.001589  -0.000531   0.000271  -0.000014
    14  C   -0.000029  -0.000249   0.002331  -0.000548   0.003869
    15  H   -0.000000   0.000000   0.000000   0.000000  -0.000000
    16  H    0.000000  -0.000000   0.000000  -0.000470  -0.000000
    17  H    0.000000   0.000000   0.000007  -0.000004  -0.001237
    18  H    0.000000  -0.000000   0.000000   0.000001   0.000000
    19  H   -0.008634   0.000169   0.000001   0.000000  -0.000000
    20  H    0.000169  -0.005045   0.000175   0.000001   0.000000
    21  H    0.000001   0.000175  -0.008756  -0.000004  -0.001234
    22  S    0.000000   0.000001  -0.000004   0.588348   0.000015
    23  O   -0.000000   0.000000  -0.001234   0.000015   0.533060
 Mulliken charges and spin densities:
               1          2
     1  C    0.022304   0.121168
     2  C    0.092708   0.014835
     3  C   -0.240877   0.112362
     4  C    0.098213   0.080734
     5  C    0.026782   0.091214
     6  C    0.069979   0.074153
     7  C   -0.001785   0.185560
     8  C    0.098364   0.080779
     9  C   -0.240876   0.112502
    10  C    0.092686   0.014821
    11  H   -0.001211  -0.001781
    12  C    0.022255   0.121320
    13  C    0.069940   0.074191
    14  C    0.026739   0.091285
    15  H   -0.008117  -0.006246
    16  H   -0.001289  -0.001780
    17  H   -0.042004  -0.005666
    18  H   -0.001037  -0.003495
    19  H   -0.008118  -0.006254
    20  H   -0.001038  -0.003496
    21  H   -0.041959  -0.005667
    22  S    0.291891   0.424068
    23  O   -0.323549   0.435395
 Sum of Mulliken charges =  -0.00000   2.00000
 Mulliken charges and spin densities with hydrogens summed into heavy atoms:
               1          2
     1  C    0.014186   0.114921
     2  C    0.091419   0.013055
     3  C   -0.240877   0.112362
     4  C    0.098213   0.080734
     5  C   -0.015221   0.085548
     6  C    0.068942   0.070658
     7  C   -0.001785   0.185560
     8  C    0.098364   0.080779
     9  C   -0.240876   0.112502
    10  C    0.091475   0.013041
    12  C    0.014137   0.115066
    13  C    0.068902   0.070694
    14  C   -0.015220   0.085617
    22  S    0.291891   0.424068
    23  O   -0.323549   0.435395
 Electronic spatial extent (au):  <R**2>=          20122.9141
 Charge=             -0.0000 electrons
 Dipole moment (field-independent basis, Debye):
    X=              3.2232    Y=             -5.4816    Z=              0.0797  Tot=              6.3595
 Quadrupole moment (field-independent basis, Debye-Ang):
   XX=           -115.3570   YY=           -111.0944   ZZ=            -96.6465
   XY=             52.0821   XZ=             -0.4093   YZ=              0.1378
 Traceless Quadrupole moment (field-independent basis, Debye-Ang):
   XX=             -7.6577   YY=             -3.3951   ZZ=             11.0528
   XY=             52.0821   XZ=             -0.4093   YZ=              0.1378
 Octapole moment (field-independent basis, Debye-Ang**2):
  XXX=           1778.2035  YYY=           -655.5368  ZZZ=             -2.3849  XYY=            766.6272
  XXY=           -603.0359  XXZ=              1.5888  XZZ=            597.2378  YZZ=           -200.6377
  YYZ=             -0.0019  XYZ=             -0.8483
 Hexadecapole moment (field-independent basis, Debye-Ang**3):
 XXXX=         -22939.1448 YYYY=          -4355.8239 ZZZZ=           -105.7341 XXXY=           6162.9326
 XXXZ=             -4.3004 YYYX=           4000.6900 YYYZ=              1.8727 ZZZX=              8.1684
 ZZZY=             -1.1494 XXYY=          -6275.7114 XXZZ=          -4215.7715 YYZZ=           -738.2818
 XXYZ=              5.6431 YYXZ=             -3.1830 ZZXY=           1057.2436
 N-N= 9.904462838125D+02 E-N=-4.264403488541D+03  KE= 9.688936134142D+02

 Atomic contributions to Alpha molecular orbitals:
 Alpha occ 37 OE=-0.476 is C3-p=0.0823
 Alpha occ 38 OE=-0.447 is H11-s=0.0975
 Alpha occ 39 OE=-0.441 is S22-p=0.1576 C7-p=0.1353 C9-p=0.1215 C3-p=0.1215 C4-p=0.1041 C8-p=0.1040
 Alpha occ 40 OE=-0.440 is C5-p=0.1053 C14-p=0.1052
 Alpha occ 41 OE=-0.430 is C1-p=0.0771
 Alpha occ 42 OE=-0.414 is O23-p=0.4263 C7-p=0.1352
 Alpha occ 43 OE=-0.401 is S22-p=0.1405
 Alpha occ 44 OE=-0.393 is C9-p=0.1171 C3-p=0.1169
 Alpha occ 45 OE=-0.385 is O23-p=0.3425 S22-p=0.2210 C7-p=0.2168
 Alpha occ 46 OE=-0.384 is S22-p=0.1583
 Alpha occ 47 OE=-0.367 is C13-p=0.0741
 Alpha occ 48 OE=-0.355 is S22-p=0.0813
 Alpha occ 49 OE=-0.345 is S22-p=0.2427 C13-p=0.1333 C6-p=0.1332 C12-p=0.1084 C1-p=0.1084
 Alpha occ 50 OE=-0.343 is S22-p=0.2092
 Alpha occ 51 OE=-0.287 is C6-p=0.1617 C13-p=0.1617 C3-p=0.1543 C9-p=0.1543
 Alpha occ 52 OE=-0.279 is O23-p=0.2830 C8-p=0.1232 C4-p=0.1227
 Alpha occ 53 OE=-0.275 is C1-p=0.1496 C12-p=0.1492 C4-p=0.1491 C8-p=0.1487
 Alpha occ 54 OE=-0.254 is O23-p=0.7708
 Alpha occ 55 OE=-0.247 is S22-p=0.2678 C6-p=0.1053 C13-p=0.1053
 Alpha occ 56 OE=-0.133 is C7-p=0.2322 O23-p=0.1340
 Alpha vir 57 OE=-0.049 is C4-p=0.1366 C8-p=0.1366 C13-p=0.1229 C6-p=0.1229 C3-p=0.1100 C9-p=0.1099
 Alpha vir 58 OE=-0.027 is C2-p=0.1238 C10-p=0.1222 C3-p=0.1159 C9-p=0.1152 C5-p=0.1113 C14-p=0.1098
 Alpha vir 59 OE=-0.027 is C10-p=0.1674 C2-p=0.1658 C14-p=0.1512 C5-p=0.1498
 Alpha vir 60 OE=0.012 is S22-p=0.4875 S22-d=0.1012
 Alpha vir 61 OE=0.041 is C7-p=0.1982 C1-p=0.1399 C12-p=0.1399
 Alpha vir 62 OE=0.051 is S22-p=0.1771 H19-s=0.1078 H15-s=0.1078
 Alpha vir 63 OE=0.080 is H19-s=0.2290 H15-s=0.2289 H20-s=0.2182 H18-s=0.2180
 Alpha vir 64 OE=0.083 is S22-p=0.1554 H18-s=0.1522 H20-s=0.1519 H16-s=0.1164 H11-s=0.1162
 Alpha vir 65 OE=0.102 is H11-s=0.2426 H16-s=0.2423 H21-s=0.1710 H17-s=0.1709 H20-s=0.1214 H18-s=0.1212
 Alpha vir 66 OE=0.106 is H16-s=0.2091 H11-s=0.2090 H17-s=0.1633 H21-s=0.1630 H18-s=0.1225 H20-s=0.1224
 Alpha vir 67 OE=0.120 is C13-p=0.0969
 Alpha vir 68 OE=0.128 is H17-s=0.2259 H21-s=0.2257 H16-s=0.1095 H11-s=0.1095
 Alpha vir 69 OE=0.144 is H19-s=0.2876 H15-s=0.2868 H18-s=0.1429 H20-s=0.1425
 Alpha vir 70 OE=0.148 is H16-s=0.2372 H11-s=0.2364 H15-s=0.1875 H19-s=0.1863 H21-s=0.1093 H17-s=0.1089
 Alpha vir 71 OE=0.152 is H21-s=0.2755 H17-s=0.2749 H20-s=0.2388 H18-s=0.2384
 Alpha vir 72 OE=0.164 is C7-p=0.1706 C4-p=0.1430 C8-p=0.1429
 Alpha vir 73 OE=0.196 is C3-p=0.2352 C9-p=0.2351
 Alpha vir 74 OE=0.228 is C7-p=0.2070 C8-p=0.1446 C4-p=0.1446
 Alpha vir 75 OE=0.240 is C6-p=0.1044 C13-p=0.1043
 Alpha vir 76 OE=0.251 is C2-p=0.1928 C10-p=0.1925

 Atomic contributions to Beta  molecular orbitals:
 Beta  occ 35 OE=-0.476 is C12-p=0.1088 C1-p=0.1079 C6-p=0.1067 C13-p=0.1045
 Beta  occ 36 OE=-0.476 is C7-p=0.1002
 Beta  occ 37 OE=-0.474 is C9-p=0.0841
 Beta  occ 38 OE=-0.445 is H11-s=0.0980
 Beta  occ 39 OE=-0.439 is C5-p=0.1057 C14-p=0.1056
 Beta  occ 40 OE=-0.428 is C1-p=0.0742
 Beta  occ 41 OE=-0.419 is S22-p=0.1414 C3-p=0.1363 C9-p=0.1363 C4-p=0.1054 C8-p=0.1053
 Beta  occ 42 OE=-0.405 is O23-p=0.3888 C7-p=0.1126
 Beta  occ 43 OE=-0.397 is S22-p=0.1110
 Beta  occ 44 OE=-0.380 is C9-p=0.1078 C3-p=0.1078
 Beta  occ 45 OE=-0.379 is S22-p=0.1965
 Beta  occ 46 OE=-0.365 is C13-p=0.0748
 Beta  occ 47 OE=-0.353 is S22-p=0.0814
 Beta  occ 48 OE=-0.344 is C7-p=0.2669 O23-p=0.2141 S22-p=0.1816
 Beta  occ 49 OE=-0.339 is S22-p=0.2267
 Beta  occ 50 OE=-0.321 is S22-p=0.1935 C13-p=0.1460 C6-p=0.1460 C1-p=0.1205 C12-p=0.1205
 Beta  occ 51 OE=-0.270 is C14-p=0.1544 C5-p=0.1544 C10-p=0.1248 C2-p=0.1248
 Beta  occ 52 OE=-0.261 is C1-p=0.1571 C12-p=0.1571 C4-p=0.1393 C8-p=0.1392
 Beta  occ 53 OE=-0.246 is O23-p=0.2183 C2-p=0.1142 C10-p=0.1142 C5-p=0.1105 C14-p=0.1105
 Beta  occ 54 OE=-0.243 is O23-p=0.7742
 Beta  vir 55 OE=-0.181 is S22-p=0.3296 O23-p=0.1420
 Beta  vir 56 OE=-0.060 is O23-p=0.1825 C7-p=0.1242 C12-p=0.1032 C1-p=0.1031
 Beta  vir 57 OE=-0.035 is C6-p=0.1410 C13-p=0.1409 C3-p=0.1325 C9-p=0.1324 C4-p=0.1008 C8-p=0.1008
 Beta  vir 58 OE=-0.012 is C5-p=0.1468 C14-p=0.1453 C2-p=0.1429 C10-p=0.1414
 Beta  vir 59 OE=-0.011 is C9-p=0.1449 C3-p=0.1442
 Beta  vir 60 OE=0.016 is S22-p=0.4847
 Beta  vir 61 OE=0.056 is H19-s=0.1351 H15-s=0.1350 S22-p=0.1268
 Beta  vir 62 OE=0.066 is C7-p=0.2108 C12-p=0.1321 C1-p=0.1321
 Beta  vir 63 OE=0.081 is H15-s=0.2257 H19-s=0.2256 H18-s=0.2209 H20-s=0.2208
 Beta  vir 64 OE=0.089 is S22-p=0.1906 H20-s=0.1348 H18-s=0.1347
 Beta  vir 65 OE=0.102 is H11-s=0.2505 H16-s=0.2503 H21-s=0.1682 H17-s=0.1681 H20-s=0.1186 H18-s=0.1185
 Beta  vir 66 OE=0.107 is H16-s=0.2081 H11-s=0.2080 H17-s=0.1634 H21-s=0.1631 H18-s=0.1195 H20-s=0.1195
 Beta  vir 67 OE=0.129 is H17-s=0.2279 H21-s=0.2277 H16-s=0.1130 H11-s=0.1130 H19-s=0.1008 H15-s=0.1006
 Beta  vir 68 OE=0.133 is C14-p=0.0972
 Beta  vir 69 OE=0.146 is H19-s=0.2833 H15-s=0.2824 H18-s=0.1476 H20-s=0.1472
 Beta  vir 70 OE=0.149 is H16-s=0.2364 H11-s=0.2356 H15-s=0.1841 H19-s=0.1829 H21-s=0.1110 H17-s=0.1105
 Beta  vir 71 OE=0.153 is H21-s=0.2729 H17-s=0.2722 H20-s=0.2390 H18-s=0.2385
 Beta  vir 72 OE=0.185 is C7-p=0.2105 C8-p=0.1382 C4-p=0.1382
 Beta  vir 73 OE=0.199 is C3-p=0.2422 C9-p=0.2421
 Beta  vir 74 OE=0.232 is C7-p=0.2004 C4-p=0.1445 C8-p=0.1445
 
                          Isotropic Fermi Contact Couplings
        Atom                 a.u.       MegaHertz       Gauss      10(-4) cm-1
     1  C(13)              0.01263       7.09987       2.53341       2.36826
     2  C(13)             -0.00295      -1.65579      -0.59083      -0.55231
     3  C(13)              0.01028       5.77755       2.06157       1.92718
     4  C(13)             -0.00398      -2.23457      -0.79735      -0.74537
     5  C(13)              0.00687       3.86139       1.37784       1.28802
     6  C(13)              0.00434       2.43754       0.86977       0.81308
     7  C(13)              0.01346       7.56426       2.69912       2.52317
     8  C(13)             -0.00397      -2.23425      -0.79723      -0.74526
     9  C(13)              0.01030       5.78852       2.06549       1.93084
    10  C(13)             -0.00295      -1.65939      -0.59211      -0.55351
    11  H(1)              -0.00056      -1.24288      -0.44349      -0.41458
    12  C(13)              0.01265       7.11009       2.53706       2.37167
    13  C(13)              0.00434       2.43761       0.86980       0.81310
    14  C(13)              0.00688       3.86616       1.37954       1.28961
    15  H(1)              -0.00206      -4.59831      -1.64079      -1.53383
    16  H(1)              -0.00056      -1.24264      -0.44340      -0.41450
    17  H(1)              -0.00153      -3.42195      -1.22104      -1.14144
    18  H(1)              -0.00119      -2.66020      -0.94923      -0.88735
    19  H(1)              -0.00206      -4.60369      -1.64271      -1.53563
    20  H(1)              -0.00119      -2.66162      -0.94973      -0.88782
    21  H(1)              -0.00153      -3.42453      -1.22196      -1.14230
    22  S(33)              0.08218      14.11393       5.03620       4.70790
    23  O(17)              0.09134     -27.68476      -9.87861      -9.23464
 --------------------------------------------------------
       Center         ----  Spin Dipole Couplings  ----
                      3XX-RR        3YY-RR        3ZZ-RR
 --------------------------------------------------------
     1   Atom       -0.070538     -0.068334      0.138871
     2   Atom       -0.017143     -0.017754      0.034898
     3   Atom       -0.088633     -0.084217      0.172851
     4   Atom       -0.050633     -0.039588      0.090221
     5   Atom       -0.044972     -0.046638      0.091610
     6   Atom       -0.045947     -0.043740      0.089687
     7   Atom       -0.151368     -0.130357      0.281725
     8   Atom       -0.037793     -0.052492      0.090285
     9   Atom       -0.084975     -0.088058      0.173033
    10   Atom       -0.013330     -0.021572      0.034902
    11   Atom        0.006597     -0.000372     -0.006225
    12   Atom       -0.066613     -0.072431      0.139044
    13   Atom       -0.042710     -0.047026      0.089737
    14   Atom       -0.041822     -0.049873      0.091695
    15   Atom       -0.004877      0.007437     -0.002560
    16   Atom       -0.001812      0.008034     -0.006222
    17   Atom        0.002784      0.004591     -0.007376
    18   Atom        0.010750     -0.006603     -0.004147
    19   Atom        0.013598     -0.011039     -0.002559
    20   Atom       -0.002441      0.006591     -0.004150
    21   Atom        0.003767      0.003604     -0.007371
    22   Atom       -0.981439     -1.000474      1.981913
    23   Atom       -0.853338     -0.863030      1.716368
 --------------------------------------------------------
                        XY            XZ            YZ
 --------------------------------------------------------
     1   Atom        0.002726     -0.001669      0.002023
     2   Atom        0.005032     -0.000453      0.000552
     3   Atom        0.000433     -0.002081      0.002486
     4   Atom        0.005209     -0.001149      0.001320
     5   Atom        0.005247     -0.001105      0.001373
     6   Atom        0.001847     -0.001072      0.001311
     7   Atom       -0.018926     -0.003412      0.003831
     8   Atom       -0.001950     -0.001066      0.001288
     9   Atom       -0.001655     -0.002023      0.002479
    10   Atom        0.002912     -0.000426      0.000551
    11   Atom       -0.003633      0.000136     -0.000084
    12   Atom        0.000495     -0.001644      0.001961
    13   Atom        0.000029     -0.001060      0.001254
    14   Atom        0.003469     -0.001105      0.001304
    15   Atom        0.010663     -0.000121     -0.000012
    16   Atom        0.001050      0.000025     -0.000128
    17   Atom       -0.000450      0.000085     -0.000118
    18   Atom        0.000069      0.000116      0.000025
    19   Atom        0.000384      0.000125      0.000081
    20   Atom        0.007415     -0.000054     -0.000040
    21   Atom       -0.001019      0.000101     -0.000106
    22   Atom        0.016923     -0.023923      0.028803
    23   Atom        0.008563     -0.021036      0.024732
 --------------------------------------------------------


 ---------------------------------------------------------------------------------
              Anisotropic Spin Dipole Couplings in Principal Axis System
 ---------------------------------------------------------------------------------

       Atom             a.u.   MegaHertz   Gauss  10(-4) cm-1        Axes

              Baa    -0.0724    -9.716    -3.467    -3.241  0.8282 -0.5603  0.0119
     1 C(13)  Bbb    -0.0665    -8.923    -3.184    -2.977  0.5604  0.8282 -0.0036
              Bcc     0.1389    18.640     6.651     6.217 -0.0078  0.0097  0.9999
 
              Baa    -0.0225    -3.019    -1.077    -1.007 -0.6852  0.7282 -0.0124
     2 C(13)  Bbb    -0.0124    -1.665    -0.594    -0.555  0.7283  0.6853 -0.0010
              Bcc     0.0349     4.684     1.671     1.562 -0.0078  0.0097  0.9999
 
              Baa    -0.0887   -11.902    -4.247    -3.970  0.9948 -0.1010  0.0089
     3 C(13)  Bbb    -0.0842   -11.298    -4.031    -3.769  0.1011  0.9948 -0.0088
              Bcc     0.1729    23.200     8.278     7.739 -0.0079  0.0097  0.9999
 
              Baa    -0.0527    -7.074    -2.524    -2.360  0.9291 -0.3697  0.0109
     4 C(13)  Bbb    -0.0375    -5.035    -1.797    -1.680  0.3698  0.9291 -0.0063
              Bcc     0.0902    12.110     4.321     4.039 -0.0078  0.0099  0.9999
 
              Baa    -0.0511    -6.862    -2.449    -2.289 -0.6492  0.7605 -0.0123
     5 C(13)  Bbb    -0.0405    -5.434    -1.939    -1.812  0.7605  0.6493 -0.0004
              Bcc     0.0916    12.296     4.388     4.102 -0.0077  0.0096  0.9999
 
              Baa    -0.0470    -6.309    -2.251    -2.104  0.8689 -0.4948  0.0116
     6 C(13)  Bbb    -0.0427    -5.729    -2.044    -1.911  0.4949  0.8689 -0.0046
              Bcc     0.0897    12.038     4.295     4.015 -0.0078  0.0097  0.9999
 
              Baa    -0.1625   -21.807    -7.781    -7.274  0.8619  0.5071  0.0022
     7 C(13)  Bbb    -0.1193   -16.006    -5.711    -5.339 -0.5070  0.8619 -0.0125
              Bcc     0.2818    37.814    13.493    12.613 -0.0083  0.0097  0.9999
 
              Baa    -0.0528    -7.079    -2.526    -2.361  0.1287  0.9917 -0.0080
     8 C(13)  Bbb    -0.0376    -5.039    -1.798    -1.681  0.9917 -0.1286  0.0096
              Bcc     0.0903    12.118     4.324     4.042 -0.0085  0.0091  0.9999
 
              Baa    -0.0888   -11.914    -4.251    -3.974  0.3957  0.9183 -0.0056
     9 C(13)  Bbb    -0.0843   -11.310    -4.036    -3.773  0.9183 -0.3957  0.0110
              Bcc     0.1731    23.225     8.287     7.747 -0.0079  0.0095  0.9999
 
              Baa    -0.0225    -3.020    -1.078    -1.007 -0.3030  0.9529 -0.0114
    10 C(13)  Bbb    -0.0124    -1.665    -0.594    -0.555  0.9530  0.3031  0.0051
              Bcc     0.0349     4.685     1.672     1.563 -0.0083  0.0093  0.9999
 
              Baa    -0.0062    -3.322    -1.185    -1.108 -0.0079  0.0094  0.9999
    11 H(1)   Bbb    -0.0019    -1.025    -0.366    -0.342  0.3924  0.9198 -0.0055
              Bcc     0.0081     4.347     1.551     1.450  0.9198 -0.3923  0.0110
 
              Baa    -0.0725    -9.728    -3.471    -3.245 -0.0866  0.9962 -0.0099
    12 C(13)  Bbb    -0.0666    -8.935    -3.188    -2.980  0.9962  0.0867  0.0071
              Bcc     0.1391    18.663     6.659     6.225 -0.0080  0.0093  0.9999
 
              Baa    -0.0470    -6.312    -2.252    -2.105 -0.0089  0.9999 -0.0092
    13 C(13)  Bbb    -0.0427    -5.732    -2.045    -1.912  0.9999  0.0090  0.0079
              Bcc     0.0898    12.045     4.298     4.018 -0.0080  0.0092  0.9999
 
              Baa    -0.0512    -6.868    -2.451    -2.291 -0.3487  0.9372 -0.0113
    14 C(13)  Bbb    -0.0405    -5.440    -1.941    -1.814  0.9372  0.3488  0.0044
              Bcc     0.0917    12.307     4.392     4.105 -0.0080  0.0090  0.9999
 
              Baa    -0.0110    -5.887    -2.101    -1.964  0.8660 -0.4999  0.0116
    15 H(1)   Bbb    -0.0026    -1.365    -0.487    -0.455 -0.0078  0.0096  0.9999
              Bcc     0.0136     7.252     2.588     2.419  0.5000  0.8660 -0.0044
 
              Baa    -0.0062    -3.321    -1.185    -1.108 -0.0079  0.0096  0.9999
    16 H(1)   Bbb    -0.0019    -1.026    -0.366    -0.342  0.9945 -0.1047  0.0088
              Bcc     0.0081     4.346     1.551     1.450  0.1048  0.9945 -0.0087
 
              Baa    -0.0074    -3.936    -1.405    -1.313 -0.0080  0.0095  0.9999
    17 H(1)   Bbb     0.0027     1.429     0.510     0.477  0.9734  0.2292  0.0056
              Bcc     0.0047     2.507     0.895     0.836 -0.2291  0.9733 -0.0111
 
              Baa    -0.0066    -3.523    -1.257    -1.175 -0.0039  0.9999 -0.0098
    18 H(1)   Bbb    -0.0041    -2.213    -0.790    -0.738 -0.0078  0.0098  0.9999
              Bcc     0.0108     5.737     2.047     1.914  1.0000  0.0040  0.0078
 
              Baa    -0.0110    -5.894    -2.103    -1.966 -0.0155  0.9998 -0.0093
    19 H(1)   Bbb    -0.0026    -1.366    -0.487    -0.456 -0.0080  0.0092  0.9999
              Bcc     0.0136     7.259     2.590     2.421  0.9998  0.0156  0.0078
 
              Baa    -0.0066    -3.525    -1.258    -1.176  0.8718 -0.4897  0.0113
    20 H(1)   Bbb    -0.0042    -2.214    -0.790    -0.739 -0.0079  0.0091  0.9999
              Bcc     0.0108     5.740     2.048     1.915  0.4898  0.8718 -0.0041
 
              Baa    -0.0074    -3.934    -1.404    -1.312 -0.0082  0.0089  0.9999
    21 H(1)   Bbb     0.0027     1.421     0.507     0.474  0.6783  0.7348 -0.0010
              Bcc     0.0047     2.513     0.897     0.838  0.7347 -0.6783  0.0121
 
              Baa    -1.0108   -41.443   -14.788   -13.824 -0.5065  0.8622 -0.0123
    22 S(33)  Bbb    -0.9716   -39.833   -14.213   -13.287  0.8622  0.5066  0.0020
              Bcc     1.9824    81.276    29.001    27.111 -0.0080  0.0096  0.9999
 
              Baa    -0.8684    62.838    22.422    20.961 -0.5067  0.8620 -0.0124
    23 O(17)  Bbb    -0.8484    61.387    21.904    20.476  0.8621  0.5068  0.0022
              Bcc     1.7168  -124.225   -44.326   -41.437 -0.0082  0.0096  0.9999
 

 ---------------------------------------------------------------------------------

 No NMR shielding tensors so no spin-rotation constants.
 Leave Link  601 at Tue Aug 18 20:47:35 2026, MaxMem=  2684354560 cpu:               8.4 elap:               0.4
 (Enter /mnt/data/applications/G16/g16/l9999.exe)
 1\1\GINC-KIMIK2198\SP\UB3LYP\Gen\C13H8O1S1(3)\ASOLE\18-Aug-2026\0\\#p 
 b3lyp/gen EmpiricalDispersion=GD3BJ pseudo=read scrf=(solvent=acetonit
 rile,pcm,read) nosymm pop=(Orbitals=20)\\Title Card Required\\0,3\C,0,
 -9.142056,-0.412361,0.008517\C,0,-7.750261,-0.470429,0.020042\C,0,-6.9
 98514,0.716612,0.014503\C,0,-7.611836,2.012796,-0.002902\C,0,-9.025711
 ,2.026663,-0.014163\C,0,-9.768178,0.848712,-0.008577\C,0,-6.879274,3.2
 66244,-0.009232\C,0,-5.427838,3.296797,0.002554\C,0,-4.593596,2.130385
 ,0.020259\C,0,-3.190839,2.209674,0.030739\H,0,-2.600982,1.290969,0.044
 019\C,0,-2.564476,3.45399,0.024176\C,0,-3.36172,4.614498,0.007105\C,0,
 -4.752044,4.538833,-0.003375\H,0,-9.73133,-1.32921,0.012734\H,0,-7.234
 577,-1.432654,0.033386\H,0,-9.513422,3.000198,-0.02741\H,0,-10.858876,
 0.906971,-0.017667\H,0,-1.476784,3.522831,0.032195\H,0,-2.88218,5.5958
 86,0.001945\H,0,-5.364947,5.438757,-0.016523\S,0,-5.260722,0.512864,0.
 030366\O,0,-7.533138,4.378094,-0.02511\\Version=AM64L-G16RevA.03\HF=-9
 73.652789\S2=2.007674\S2-1=0.\S2A=2.000031\RMSD=7.592e-09\Dipole=1.268
 1076,-2.1566229,0.0313622\Quadrupole=-5.6933417,-2.5241805,8.2175221,3
 8.7217301,-0.3042858,0.1024277\PG=C01 [X(C13H8O1S1)]\\@


 Change starts when someone sees the next step.
                            -- William Drayton
 Job cpu time:       0 days  0 hours 47 minutes 54.5 seconds.
 Elapsed time:       0 days  0 hours  2 minutes  2.1 seconds.
 File lengths (MBytes):  RWF=    131 Int=      0 D2E=      0 Chk=      7 Scr=      1
 Normal termination of Gaussian 16 at Tue Aug 18 20:47:35 2026.
