 Entering Gaussian System, Link 0=g16
 Initial command:
 /mnt/data/applications/G16/g16/l1.exe "/scratch/Gau-7728.inp" -scrdir="/scratch/"
 Entering Link 1 = /mnt/data/applications/G16/g16/l1.exe PID=      7729.
  
 Copyright (c) 1988,1990,1992,1993,1995,1998,2003,2009,2016,
            Gaussian, Inc.  All Rights Reserved.
  
 This is part of the Gaussian(R) 16 program.  It is based on
 the Gaussian(R) 09 system (copyright 2009, Gaussian, Inc.),
 the Gaussian(R) 03 system (copyright 2003, Gaussian, Inc.),
 the Gaussian(R) 98 system (copyright 1998, Gaussian, Inc.),
 the Gaussian(R) 94 system (copyright 1995, Gaussian, Inc.),
 the Gaussian 92(TM) system (copyright 1992, Gaussian, Inc.),
 the Gaussian 90(TM) system (copyright 1990, Gaussian, Inc.),
 the Gaussian 88(TM) system (copyright 1988, Gaussian, Inc.),
 the Gaussian 86(TM) system (copyright 1986, Carnegie Mellon
 University), and the Gaussian 82(TM) system (copyright 1983,
 Carnegie Mellon University). Gaussian is a federally registered
 trademark of Gaussian, Inc.
  
 This software contains proprietary and confidential information,
 including trade secrets, belonging to Gaussian, Inc.
  
 This software is provided under written license and may be
 used, copied, transmitted, or stored only in accord with that
 written license.
  
 The following legend is applicable only to US Government
 contracts under FAR:
  
                    RESTRICTED RIGHTS LEGEND
  
 Use, reproduction and disclosure by the US Government is
 subject to restrictions as set forth in subparagraphs (a)
 and (c) of the Commercial Computer Software - Restricted
 Rights clause in FAR 52.227-19.
  
 Gaussian, Inc.
 340 Quinnipiac St., Bldg. 40, Wallingford CT 06492
  
  
 ---------------------------------------------------------------
 Warning -- This program may not be used in any manner that
 competes with the business of Gaussian, Inc. or will provide
 assistance to any competitor of Gaussian, Inc.  The licensee
 of this program is prohibited from giving any competitor of
 Gaussian, Inc. access to this program.  By using this program,
 the user acknowledges that Gaussian, Inc. is engaged in the
 business of creating and licensing software in the field of
 computational chemistry and represents and warrants to the
 licensee that it is not a competitor of Gaussian, Inc. and that
 it will not use this program in any manner prohibited above.
 ---------------------------------------------------------------
  

 Cite this work as:
 Gaussian 16, Revision A.03,
 M. J. Frisch, G. W. Trucks, H. B. Schlegel, G. E. Scuseria, 
 M. A. Robb, J. R. Cheeseman, G. Scalmani, V. Barone, 
 G. A. Petersson, H. Nakatsuji, X. Li, M. Caricato, A. V. Marenich, 
 J. Bloino, B. G. Janesko, R. Gomperts, B. Mennucci, H. P. Hratchian, 
 J. V. Ortiz, A. F. Izmaylov, J. L. Sonnenberg, D. Williams-Young, 
 F. Ding, F. Lipparini, F. Egidi, J. Goings, B. Peng, A. Petrone, 
 T. Henderson, D. Ranasinghe, V. G. Zakrzewski, J. Gao, N. Rega, 
 G. Zheng, W. Liang, M. Hada, M. Ehara, K. Toyota, R. Fukuda, 
 J. Hasegawa, M. Ishida, T. Nakajima, Y. Honda, O. Kitao, H. Nakai, 
 T. Vreven, K. Throssell, J. A. Montgomery, Jr., J. E. Peralta, 
 F. Ogliaro, M. J. Bearpark, J. J. Heyd, E. N. Brothers, K. N. Kudin, 
 V. N. Staroverov, T. A. Keith, R. Kobayashi, J. Normand, 
 K. Raghavachari, A. P. Rendell, J. C. Burant, S. S. Iyengar, 
 J. Tomasi, M. Cossi, J. M. Millam, M. Klene, C. Adamo, R. Cammi, 
 J. W. Ochterski, R. L. Martin, K. Morokuma, O. Farkas, 
 J. B. Foresman, and D. J. Fox, Gaussian, Inc., Wallingford CT, 2016.
 
 ******************************************
 Gaussian 16:  AM64L-G16RevA.03 25-Dec-2016
                18-Aug-2026 
 ******************************************
 %mem=20GB
 %chk=TX_triplet.chk
 ----------------------------------------------------------------------
 #p opt freq b3lyp/gen EmpiricalDispersion=GD3BJ pseudo=read scrf=(solv
 ent=acetonitrile,pcm) nosymm pop=(Orbitals=20)
 ----------------------------------------------------------------------
 1/18=20,19=15,26=3,38=1/1,3;
 2/9=110,12=2,15=1,17=6,18=5,40=1/2;
 3/5=7,11=2,16=1,17=8,25=1,30=1,70=2201,71=1,72=2,74=-5,124=41/1,2,3;
 4//1;
 5/5=2,38=5,53=2/2;
 6/7=2,8=2,9=2,10=2,28=1,96=20/1;
 7/30=1/1,2,3,16;
 1/18=20,19=15,26=3/3(2);
 2/9=110,15=1/2;
 99//99;
 2/9=110,15=1/2;
 3/5=7,6=1,11=2,16=1,17=8,25=1,30=1,70=2205,71=1,72=2,74=-5,82=7,124=41/1,2,3;
 4/5=5,16=3,69=1/1;
 5/5=2,38=5,53=2/2;
 7/30=1/1,2,3,16;
 1/18=20,19=15,26=3/3(-5);
 2/9=110,15=1/2;
 6/7=2,8=2,9=2,10=2,19=2,28=1,96=20/1;
 99/9=1/99;
 Leave Link    1 at Tue Aug 18 12:14:37 2026, MaxMem=  2684354560 cpu:               0.0 elap:               0.1
 (Enter /mnt/data/applications/G16/g16/l101.exe)
 -------------------
 Title Card Required
 -------------------
 Symbolic Z-matrix:
 Charge =  0 Multiplicity = 3
 C                    -9.14563  -0.38528   0.00813 
 C                    -7.75898  -0.46528   0.0198 
 C                    -6.9823    0.70961   0.01471 
 C                    -7.60777   1.97326  -0.00232 
 C                    -9.01825   2.0233   -0.01394 
 C                    -9.78353   0.86714  -0.00885 
 C                    -6.87858   3.26514  -0.00887 
 C                    -5.39522   3.27402   0.0032 
 C                    -4.5954    2.11283   0.02055 
 C                    -3.19114   2.21987   0.03076 
 H                    -2.58131   1.31431   0.04407 
 C                    -2.58641   3.47032   0.02389 
 C                    -3.37033   4.63692   0.00672 
 C                    -4.75273   4.53072  -0.00339 
 H                    -9.73635  -1.30345   0.01227 
 H                    -7.2646   -1.43865   0.03295 
 H                    -9.48165   3.00982  -0.02705 
 H                    -10.87301   0.92845  -0.01796 
 H                    -1.49685   3.53968   0.03192 
 H                    -2.89401   5.61871   0.00139 
 H                    -5.38901   5.41563  -0.0168 
 S                    -5.23591   0.4706    0.03097 
 O                    -7.50433   4.32945  -0.02457 
 
 ITRead=  0  0  0  0  0  0  0  0  0  0  0  0  0  0  0  0  0  0  0  0
 ITRead=  0  0  0
 MicOpt= -1 -1 -1 -1 -1 -1 -1 -1 -1 -1 -1 -1 -1 -1 -1 -1 -1 -1 -1 -1
 MicOpt= -1 -1 -1
 NAtoms=     23 NQM=       23 NQMF=       0 NMMI=      0 NMMIF=      0
                NMic=       0 NMicF=      0.
                    Isotopes and Nuclear Properties:
 (Nuclear quadrupole moments (NQMom) in fm**2, nuclear magnetic moments (NMagM)
  in nuclear magnetons)

  Atom         1           2           3           4           5           6           7           8           9          10
 IAtWgt=          12          12          12          12          12          12          12          12          12          12
 AtmWgt=  12.0000000  12.0000000  12.0000000  12.0000000  12.0000000  12.0000000  12.0000000  12.0000000  12.0000000  12.0000000
 NucSpn=           0           0           0           0           0           0           0           0           0           0
 AtZEff=  -0.0000000  -0.0000000  -0.0000000  -0.0000000  -0.0000000  -0.0000000  -0.0000000  -0.0000000  -0.0000000  -0.0000000
 NQMom=    0.0000000   0.0000000   0.0000000   0.0000000   0.0000000   0.0000000   0.0000000   0.0000000   0.0000000   0.0000000
 NMagM=    0.0000000   0.0000000   0.0000000   0.0000000   0.0000000   0.0000000   0.0000000   0.0000000   0.0000000   0.0000000
 AtZNuc=   6.0000000   6.0000000   6.0000000   6.0000000   6.0000000   6.0000000   6.0000000   6.0000000   6.0000000   6.0000000

  Atom        11          12          13          14          15          16          17          18          19          20
 IAtWgt=           1          12          12          12           1           1           1           1           1           1
 AtmWgt=   1.0078250  12.0000000  12.0000000  12.0000000   1.0078250   1.0078250   1.0078250   1.0078250   1.0078250   1.0078250
 NucSpn=           1           0           0           0           1           1           1           1           1           1
 AtZEff=  -0.0000000  -0.0000000  -0.0000000  -0.0000000  -0.0000000  -0.0000000  -0.0000000  -0.0000000  -0.0000000  -0.0000000
 NQMom=    0.0000000   0.0000000   0.0000000   0.0000000   0.0000000   0.0000000   0.0000000   0.0000000   0.0000000   0.0000000
 NMagM=    2.7928460   0.0000000   0.0000000   0.0000000   2.7928460   2.7928460   2.7928460   2.7928460   2.7928460   2.7928460
 AtZNuc=   1.0000000   6.0000000   6.0000000   6.0000000   1.0000000   1.0000000   1.0000000   1.0000000   1.0000000   1.0000000

  Atom        21          22          23
 IAtWgt=           1          32          16
 AtmWgt=   1.0078250  31.9720718  15.9949146
 NucSpn=           1           0           0
 AtZEff=  -0.0000000  -0.0000000  -0.0000000
 NQMom=    0.0000000   0.0000000   0.0000000
 NMagM=    2.7928460   0.0000000   0.0000000
 AtZNuc=   1.0000000  16.0000000   8.0000000
 Leave Link  101 at Tue Aug 18 12:14:38 2026, MaxMem=  2684354560 cpu:               0.3 elap:               0.3
 (Enter /mnt/data/applications/G16/g16/l103.exe)

 GradGradGradGradGradGradGradGradGradGradGradGradGradGradGradGradGradGrad
 Berny optimization.
 Initialization pass.
                           ----------------------------
                           !    Initial Parameters    !
                           ! (Angstroms and Degrees)  !
 --------------------------                            --------------------------
 ! Name  Definition              Value          Derivative Info.                !
 --------------------------------------------------------------------------------
 ! R1    R(1,2)                  1.389          estimate D2E/DX2                !
 ! R2    R(1,6)                  1.4056         estimate D2E/DX2                !
 ! R3    R(1,15)                 1.0918         estimate D2E/DX2                !
 ! R4    R(2,3)                  1.4084         estimate D2E/DX2                !
 ! R5    R(2,16)                 1.0918         estimate D2E/DX2                !
 ! R6    R(3,4)                  1.4101         estimate D2E/DX2                !
 ! R7    R(3,22)                 1.7627         estimate D2E/DX2                !
 ! R8    R(4,5)                  1.4114         estimate D2E/DX2                !
 ! R9    R(4,7)                  1.4835         estimate D2E/DX2                !
 ! R10   R(5,6)                  1.3865         estimate D2E/DX2                !
 ! R11   R(5,17)                 1.09           estimate D2E/DX2                !
 ! R12   R(6,18)                 1.0912         estimate D2E/DX2                !
 ! R13   R(7,8)                  1.4834         estimate D2E/DX2                !
 ! R14   R(7,23)                 1.2347         estimate D2E/DX2                !
 ! R15   R(8,9)                  1.4101         estimate D2E/DX2                !
 ! R16   R(8,14)                 1.4114         estimate D2E/DX2                !
 ! R17   R(9,10)                 1.4084         estimate D2E/DX2                !
 ! R18   R(9,22)                 1.7627         estimate D2E/DX2                !
 ! R19   R(10,11)                1.0918         estimate D2E/DX2                !
 ! R20   R(10,12)                1.389          estimate D2E/DX2                !
 ! R21   R(12,13)                1.4056         estimate D2E/DX2                !
 ! R22   R(12,19)                1.0918         estimate D2E/DX2                !
 ! R23   R(13,14)                1.3865         estimate D2E/DX2                !
 ! R24   R(13,20)                1.0912         estimate D2E/DX2                !
 ! R25   R(14,21)                1.09           estimate D2E/DX2                !
 ! A1    A(2,1,6)              120.2963         estimate D2E/DX2                !
 ! A2    A(2,1,15)             119.4505         estimate D2E/DX2                !
 ! A3    A(6,1,15)             120.2532         estimate D2E/DX2                !
 ! A4    A(1,2,3)              120.162          estimate D2E/DX2                !
 ! A5    A(1,2,16)             120.2313         estimate D2E/DX2                !
 ! A6    A(3,2,16)             119.6067         estimate D2E/DX2                !
 ! A7    A(2,3,4)              120.1988         estimate D2E/DX2                !
 ! A8    A(2,3,22)             115.6708         estimate D2E/DX2                !
 ! A9    A(4,3,22)             124.1304         estimate D2E/DX2                !
 ! A10   A(3,4,5)              118.3691         estimate D2E/DX2                !
 ! A11   A(3,4,7)              124.2242         estimate D2E/DX2                !
 ! A12   A(5,4,7)              117.4067         estimate D2E/DX2                !
 ! A13   A(4,5,6)              121.4659         estimate D2E/DX2                !
 ! A14   A(4,5,17)             117.196          estimate D2E/DX2                !
 ! A15   A(6,5,17)             121.3381         estimate D2E/DX2                !
 ! A16   A(1,6,5)              119.5079         estimate D2E/DX2                !
 ! A17   A(1,6,18)             120.2153         estimate D2E/DX2                !
 ! A18   A(5,6,18)             120.2769         estimate D2E/DX2                !
 ! A19   A(4,7,8)              119.7814         estimate D2E/DX2                !
 ! A20   A(4,7,23)             120.1056         estimate D2E/DX2                !
 ! A21   A(8,7,23)             120.113          estimate D2E/DX2                !
 ! A22   A(7,8,9)              124.2185         estimate D2E/DX2                !
 ! A23   A(7,8,14)             117.4177         estimate D2E/DX2                !
 ! A24   A(9,8,14)             118.3638         estimate D2E/DX2                !
 ! A25   A(8,9,10)             120.2024         estimate D2E/DX2                !
 ! A26   A(8,9,22)             124.1356         estimate D2E/DX2                !
 ! A27   A(10,9,22)            115.662          estimate D2E/DX2                !
 ! A28   A(9,10,11)            119.601          estimate D2E/DX2                !
 ! A29   A(9,10,12)            120.1642         estimate D2E/DX2                !
 ! A30   A(11,10,12)           120.2348         estimate D2E/DX2                !
 ! A31   A(10,12,13)           120.2923         estimate D2E/DX2                !
 ! A32   A(10,12,19)           119.4477         estimate D2E/DX2                !
 ! A33   A(13,12,19)           120.26           estimate D2E/DX2                !
 ! A34   A(12,13,14)           119.5095         estimate D2E/DX2                !
 ! A35   A(12,13,20)           120.2206         estimate D2E/DX2                !
 ! A36   A(14,13,20)           120.2699         estimate D2E/DX2                !
 ! A37   A(8,14,13)            121.4679         estimate D2E/DX2                !
 ! A38   A(8,14,21)            117.2053         estimate D2E/DX2                !
 ! A39   A(13,14,21)           121.3269         estimate D2E/DX2                !
 ! A40   A(3,22,9)             103.5099         estimate D2E/DX2                !
 ! D1    D(6,1,2,3)              0.0011         estimate D2E/DX2                !
 ! D2    D(6,1,2,16)          -179.9978         estimate D2E/DX2                !
 ! D3    D(15,1,2,3)          -179.9979         estimate D2E/DX2                !
 ! D4    D(15,1,2,16)            0.0031         estimate D2E/DX2                !
 ! D5    D(2,1,6,5)              0.0031         estimate D2E/DX2                !
 ! D6    D(2,1,6,18)          -179.9973         estimate D2E/DX2                !
 ! D7    D(15,1,6,5)          -179.9979         estimate D2E/DX2                !
 ! D8    D(15,1,6,18)            0.0017         estimate D2E/DX2                !
 ! D9    D(1,2,3,4)             -0.003          estimate D2E/DX2                !
 ! D10   D(1,2,3,22)           179.9912         estimate D2E/DX2                !
 ! D11   D(16,2,3,4)           179.9959         estimate D2E/DX2                !
 ! D12   D(16,2,3,22)           -0.0099         estimate D2E/DX2                !
 ! D13   D(2,3,4,5)              0.0007         estimate D2E/DX2                !
 ! D14   D(2,3,4,7)            179.9984         estimate D2E/DX2                !
 ! D15   D(22,3,4,5)          -179.993          estimate D2E/DX2                !
 ! D16   D(22,3,4,7)             0.0047         estimate D2E/DX2                !
 ! D17   D(2,3,22,9)          -179.9915         estimate D2E/DX2                !
 ! D18   D(4,3,22,9)             0.0024         estimate D2E/DX2                !
 ! D19   D(3,4,5,6)              0.0036         estimate D2E/DX2                !
 ! D20   D(3,4,5,17)          -179.9993         estimate D2E/DX2                !
 ! D21   D(7,4,5,6)           -179.9943         estimate D2E/DX2                !
 ! D22   D(7,4,5,17)             0.0028         estimate D2E/DX2                !
 ! D23   D(3,4,7,8)             -0.0171         estimate D2E/DX2                !
 ! D24   D(3,4,7,23)           179.9694         estimate D2E/DX2                !
 ! D25   D(5,4,7,8)            179.9806         estimate D2E/DX2                !
 ! D26   D(5,4,7,23)            -0.0329         estimate D2E/DX2                !
 ! D27   D(4,5,6,1)             -0.0055         estimate D2E/DX2                !
 ! D28   D(4,5,6,18)           179.9949         estimate D2E/DX2                !
 ! D29   D(17,5,6,1)           179.9975         estimate D2E/DX2                !
 ! D30   D(17,5,6,18)           -0.0021         estimate D2E/DX2                !
 ! D31   D(4,7,8,9)              0.0228         estimate D2E/DX2                !
 ! D32   D(4,7,8,14)          -179.9849         estimate D2E/DX2                !
 ! D33   D(23,7,8,9)          -179.9637         estimate D2E/DX2                !
 ! D34   D(23,7,8,14)            0.0286         estimate D2E/DX2                !
 ! D35   D(7,8,9,10)           179.9859         estimate D2E/DX2                !
 ! D36   D(7,8,9,22)            -0.0156         estimate D2E/DX2                !
 ! D37   D(14,8,9,10)           -0.0063         estimate D2E/DX2                !
 ! D38   D(14,8,9,22)          179.9922         estimate D2E/DX2                !
 ! D39   D(7,8,14,13)         -179.9896         estimate D2E/DX2                !
 ! D40   D(7,8,14,21)            0.0089         estimate D2E/DX2                !
 ! D41   D(9,8,14,13)            0.0032         estimate D2E/DX2                !
 ! D42   D(9,8,14,21)         -179.9983         estimate D2E/DX2                !
 ! D43   D(8,9,10,11)         -179.9934         estimate D2E/DX2                !
 ! D44   D(8,9,10,12)            0.0048         estimate D2E/DX2                !
 ! D45   D(22,9,10,11)           0.008          estimate D2E/DX2                !
 ! D46   D(22,9,10,12)        -179.9939         estimate D2E/DX2                !
 ! D47   D(8,9,22,3)             0.0028         estimate D2E/DX2                !
 ! D48   D(10,9,22,3)         -179.9986         estimate D2E/DX2                !
 ! D49   D(9,10,12,13)           0.0001         estimate D2E/DX2                !
 ! D50   D(9,10,12,19)        -179.9988         estimate D2E/DX2                !
 ! D51   D(11,10,12,13)        179.9983         estimate D2E/DX2                !
 ! D52   D(11,10,12,19)         -0.0006         estimate D2E/DX2                !
 ! D53   D(10,12,13,14)         -0.0033         estimate D2E/DX2                !
 ! D54   D(10,12,13,20)        179.9968         estimate D2E/DX2                !
 ! D55   D(19,12,13,14)        179.9956         estimate D2E/DX2                !
 ! D56   D(19,12,13,20)         -0.0043         estimate D2E/DX2                !
 ! D57   D(12,13,14,8)           0.0016         estimate D2E/DX2                !
 ! D58   D(12,13,14,21)       -179.9968         estimate D2E/DX2                !
 ! D59   D(20,13,14,8)        -179.9985         estimate D2E/DX2                !
 ! D60   D(20,13,14,21)          0.003          estimate D2E/DX2                !
 --------------------------------------------------------------------------------
 Trust Radius=3.00D-01 FncErr=1.00D-07 GrdErr=1.00D-06 EigMax=2.50D+02 EigMin=1.00D-04
 Number of steps in this run=    135 maximum allowed number of steps=    138.
 GradGradGradGradGradGradGradGradGradGradGradGradGradGradGradGradGradGrad

 Leave Link  103 at Tue Aug 18 12:14:39 2026, MaxMem=  2684354560 cpu:               0.0 elap:               0.0
 (Enter /mnt/data/applications/G16/g16/l202.exe)
                          Input orientation:                          
 ---------------------------------------------------------------------
 Center     Atomic      Atomic             Coordinates (Angstroms)
 Number     Number       Type             X           Y           Z
 ---------------------------------------------------------------------
      1          6           0       -9.145630   -0.385280    0.008130
      2          6           0       -7.758980   -0.465280    0.019800
      3          6           0       -6.982300    0.709610    0.014710
      4          6           0       -7.607770    1.973260   -0.002320
      5          6           0       -9.018250    2.023300   -0.013940
      6          6           0       -9.783530    0.867140   -0.008850
      7          6           0       -6.878580    3.265140   -0.008870
      8          6           0       -5.395220    3.274020    0.003200
      9          6           0       -4.595400    2.112830    0.020550
     10          6           0       -3.191140    2.219870    0.030760
     11          1           0       -2.581310    1.314310    0.044070
     12          6           0       -2.586410    3.470320    0.023890
     13          6           0       -3.370330    4.636920    0.006720
     14          6           0       -4.752730    4.530720   -0.003390
     15          1           0       -9.736350   -1.303450    0.012270
     16          1           0       -7.264600   -1.438650    0.032950
     17          1           0       -9.481650    3.009820   -0.027050
     18          1           0      -10.873010    0.928450   -0.017960
     19          1           0       -1.496850    3.539680    0.031920
     20          1           0       -2.894010    5.618710    0.001390
     21          1           0       -5.389010    5.415630   -0.016800
     22         16           0       -5.235910    0.470600    0.030970
     23          8           0       -7.504330    4.329450   -0.024570
 ---------------------------------------------------------------------
                    Distance matrix (angstroms):
                    1          2          3          4          5
     1  C    0.000000
     2  C    1.389005   0.000000
     3  C    2.424629   1.408412   0.000000
     4  C    2.815641   2.443324   1.410076   0.000000
     5  C    2.412047   2.789253   2.423158   1.411415   0.000000
     6  C    1.405618   2.423833   2.805755   2.440794   1.386501
     7  C    4.297135   3.833009   2.557743   1.483481   2.473940
     8  C    5.239855   4.423799   3.015817   2.566590   3.832876
     9  C    5.190886   4.081040   2.768818   3.015688   4.423891
    10  C    6.499482   5.298614   4.080936   4.423633   5.830596
    11  H    6.780870   5.475016   4.442436   5.069681   6.476128
    12  C    7.608500   6.499573   5.190901   5.239841   6.592713
    13  C    7.653534   6.729997   5.335743   5.005104   6.223378
    14  C    6.592781   5.830788   4.424047   3.832996   4.947922
    15  H    1.091789   2.147691   3.411335   3.907415   3.403472
    16  H    2.156033   1.091803   2.166806   3.429306   3.881055
    17  H    3.411869   3.878931   3.396978   2.141610   1.090015
    18  H    2.170348   3.411904   3.896997   3.428362   2.153798
    19  H    8.597076   7.433312   6.172500   6.308580   7.672872
    20  H    8.667796   7.789943   6.388549   5.958931   7.101656
    21  H    6.911105   6.340599   4.968520   4.095487   4.967826
    22  S    4.002370   2.691074   1.762745   2.807991   4.088886
    23  O    4.992356   4.801693   3.657499   2.358564   2.758694
                    6          7          8          9         10
     6  C    0.000000
     7  C    3.766847   0.000000
     8  C    5.005046   1.483436   0.000000
     9  C    5.335663   2.557654   1.410098   0.000000
    10  C    6.729863   3.832933   2.443350   1.408371   0.000000
    11  H    7.216283   4.719647   3.429318   2.166736   1.091837
    12  C    7.653506   4.297196   2.815737   2.424630   1.389018
    13  C    7.439127   3.766941   2.440838   2.805712   2.423802
    14  C    6.223407   2.474058   1.411429   2.423122   2.789222
    15  H    2.171205   5.388813   6.308623   6.172553   7.433297
    16  H    3.415175   4.719788   5.069983   4.442724   5.475203
    17  H    2.163918   2.615625   4.095073   4.968128   6.340180
    18  H    1.091242   4.627707   5.958887   6.388476   7.789818
    19  H    8.707077   5.388882   3.907517   3.411311   2.147677
    20  H    8.369170   4.627764   3.428356   3.896959   3.411929
    21  H    6.324605   2.616006   2.141712   3.397013   3.878889
    22  S    4.565050   3.241821   2.808080   1.762748   2.690916
    23  O    4.145189   1.234733   2.358612   3.657501   4.801770
                   11         12         13         14         15
    11  H    0.000000
    12  C    2.156110   0.000000
    13  C    3.415214   1.405625   0.000000
    14  C    3.881058   2.412081   1.386510   0.000000
    15  H    7.618942   8.597131   8.707137   7.672956   0.000000
    16  H    5.432506   6.781116   7.216549   6.476433   2.475531
    17  H    7.105949   6.910788   6.324304   4.967533   4.320962
    18  H    8.300905   8.667791   8.369203   7.101717   2.504853
    19  H    2.475575   1.091795   2.171289   3.403551   9.557492
    20  H    4.315954   2.170416   1.091247   2.153737   9.733141
    21  H    4.970685   3.411811   2.163796   1.089999   8.002890
    22  S    2.785484   4.002277   4.564997   4.088914   4.837516
    23  O    5.773379   4.992634   4.145536   2.759033   6.059112
                   16         17         18         19         20
    16  H    0.000000
    17  H    4.970694   0.000000
    18  H    4.315829   2.503611   0.000000
    19  H    7.619102   8.002578   9.733108   0.000000
    20  H    8.301168   7.085486   9.255450   2.505066   0.000000
    21  H    7.106438   4.747392   7.085834   4.320934   2.503317
    22  S    2.785825   4.947455   5.655875   4.837336   5.655829
    23  O    5.773366   2.377230   4.786946   6.059434   4.787266
                   21         22         23
    21  H    0.000000
    22  S    4.947630   0.000000
    23  O    2.377904   4.476554   0.000000
 Symmetry turned off by external request.
 Stoichiometry    C13H8OS(3)
 Framework group  C1[X(C13H8OS)]
 Deg. of freedom    63
 Full point group                 C1      NOp   1
 Rotational constants (GHZ):           1.2174964           0.4226740           0.3137504
 Leave Link  202 at Tue Aug 18 12:14:39 2026, MaxMem=  2684354560 cpu:               0.0 elap:               0.0
 (Enter /mnt/data/applications/G16/g16/l301.exe)
 General basis read from cards:  (5D, 7F)
 Centers:       1      2      3      4      5      6      7      8      9     10
 Centers:      12     13     14     22     23     11     15     16     17     18
 Centers:      19     20     21
 cc-pVDZ
 ****
 ======================================================================================================
                                       Pseudopotential Parameters
 ======================================================================================================
  Center     Atomic      Valence      Angular      Power
  Number     Number     Electrons     Momentum     of R      Exponent        Coefficient   SO-Coeffient
 ======================================================================================================
    1          6
                                   No pseudopotential on this center.
    2          6
                                   No pseudopotential on this center.
    3          6
                                   No pseudopotential on this center.
    4          6
                                   No pseudopotential on this center.
    5          6
                                   No pseudopotential on this center.
    6          6
                                   No pseudopotential on this center.
    7          6
                                   No pseudopotential on this center.
    8          6
                                   No pseudopotential on this center.
    9          6
                                   No pseudopotential on this center.
   10          6
                                   No pseudopotential on this center.
   11          1
                                   No pseudopotential on this center.
   12          6
                                   No pseudopotential on this center.
   13          6
                                   No pseudopotential on this center.
   14          6
                                   No pseudopotential on this center.
   15          1
                                   No pseudopotential on this center.
   16          1
                                   No pseudopotential on this center.
   17          1
                                   No pseudopotential on this center.
   18          1
                                   No pseudopotential on this center.
   19          1
                                   No pseudopotential on this center.
   20          1
                                   No pseudopotential on this center.
   21          1
                                   No pseudopotential on this center.
   22         16
                                   No pseudopotential on this center.
   23          8
                                   No pseudopotential on this center.
 ======================================================================================================
 Ernie: Thresh=  0.10000D-02 Tol=  0.10000D-05 Strict=F.
 Ernie:  38 primitive shells out of 398 were deleted.
   254 basis functions,   589 primitive gaussians,   269 cartesian basis functions
    56 alpha electrons       54 beta electrons
       nuclear repulsion energy       991.4075582406 Hartrees.
 IExCor=  402 DFT=T Ex+Corr=B3LYP ExCW=0 ScaHFX=  0.200000
 ScaDFX=  0.800000  0.720000  1.000000  0.810000 ScalE2=  1.000000  1.000000
 IRadAn=      5 IRanWt=     -1 IRanGd=            0 ICorTp=0 IEmpDi=141
 NAtoms=   23 NActive=   23 NUniq=   23 SFac= 1.00D+00 NAtFMM=   60 NAOKFM=F Big=F
 Integral buffers will be    131072 words long.
 Raffenetti 2 integral format.
 Two-electron integral symmetry is turned off.
 R6Disp:  Grimme-D3(BJ) Dispersion energy=       -0.0581024690 Hartrees.
 Nuclear repulsion after empirical dispersion term =      991.3494557716 Hartrees.
 ------------------------------------------------------------------------------
 Polarizable Continuum Model (PCM)
 =================================
 Model                : PCM.
 Atomic radii         : UFF (Universal Force Field).
 Polarization charges : Total charges.
 Charge compensation  : None.
 Solution method      : On-the-fly selection.
 Cavity type          : Scaled VdW (van der Waals Surface) (Alpha=1.100).
 Cavity algorithm     : GePol (No added spheres)
                        Default sphere list used, NSphG=   23.
                        Lebedev-Laikov grids with approx.  5.0 points / Ang**2.
                        Smoothing algorithm: York/Karplus (Gamma=1.0000).
                        Polarization charges: spherical gaussians, with
                                              point-specific exponents (IZeta= 3).
                        Self-potential: point-specific (ISelfS= 7).
                        Self-field    : sphere-specific E.n sum rule (ISelfD= 2).
 1st derivatives      : Analytical E(r).r(x)/FMM algorithm (CHGder, D1EAlg=3).
                        Cavity 1st derivative terms included.
 Solvent              : Acetonitrile, Eps=  35.688000 Eps(inf)=   1.806874
 ------------------------------------------------------------------------------
 GePol: Number of generator spheres                  =      23
 GePol: Total number of spheres                      =      23
 GePol: Number of exposed spheres                    =      23 (100.00%)
 GePol: Number of points                             =    1989
 GePol: Average weight of points                     =       0.13
 GePol: Minimum weight of points                     =   0.78D-10
 GePol: Maximum weight of points                     =    0.20577
 GePol: Number of points with low weight             =      96
 GePol: Fraction of low-weight points (<1% of avg)   =       4.83%
 GePol: Cavity surface area                          =    255.926 Ang**2
 GePol: Cavity volume                                =    277.038 Ang**3
 Leave Link  301 at Tue Aug 18 12:14:39 2026, MaxMem=  2684354560 cpu:               0.1 elap:               0.1
 (Enter /mnt/data/applications/G16/g16/l302.exe)
 NPDir=0 NMtPBC=     1 NCelOv=     1 NCel=       1 NClECP=     1 NCelD=      1
         NCelK=      1 NCelE2=     1 NClLst=     1 CellRange=     0.0.
 One-electron integrals computed using PRISM.
   1 Symmetry operations used in ECPInt.
 ECPInt:  NShTT=    6786 NPrTT=   65756 LenC2=    6458 LenP2D=   34293.
 LDataN:  DoStor=T MaxTD1= 4 Len=   56
 NBasis=   254 RedAO= T EigKep=  2.46D-04  NBF=   254
 NBsUse=   254 1.00D-06 EigRej= -1.00D+00 NBFU=   254
 Precomputing XC quadrature grid using
 IXCGrd= 4 IRadAn=           5 IRanWt=          -1 IRanGd=           0 AccXCQ= 0.00D+00.
 Generated NRdTot=       0 NPtTot=           0 NUsed=           0 NTot=          32
 NSgBfM=   268   268   268   268   268 MxSgAt=    23 MxSgA2=    23.
 Leave Link  302 at Tue Aug 18 12:14:41 2026, MaxMem=  2684354560 cpu:               1.2 elap:               1.2
 (Enter /mnt/data/applications/G16/g16/l303.exe)
 DipDrv:  MaxL=1.
 Leave Link  303 at Tue Aug 18 12:14:41 2026, MaxMem=  2684354560 cpu:               0.1 elap:               0.1
 (Enter /mnt/data/applications/G16/g16/l401.exe)
 ExpMin= 1.22D-01 ExpMax= 1.11D+05 ExpMxC= 1.07D+03 IAcc=3 IRadAn=         5 AccDes= 0.00D+00
 Harris functional with IExCor=  402 and IRadAn=       5 diagonalized for initial guess.
 HarFok:  IExCor=  402 AccDes= 0.00D+00 IRadAn=         5 IDoV= 1 UseB2=F ITyADJ=14
 ICtDFT=  3500011 ScaDFX=  1.000000  1.000000  1.000000  1.000000
 FoFCou: FMM=F IPFlag=           0 FMFlag=      100000 FMFlg1=           0
         NFxFlg=           0 DoJE=T BraDBF=F KetDBF=T FulRan=T
         wScrn=  0.000000 ICntrl=       500 IOpCl=  0 I1Cent=   200000004 NGrid=           0
         NMat0=    1 NMatS0=      1 NMatT0=    0 NMatD0=    1 NMtDS0=    0 NMtDT0=    0
 Symmetry not used in FoFCou.
 Harris En= -973.619671335959    
 JPrj=0 DoOrth=F DoCkMO=F.
 Initial guess <Sx>= 0.0000 <Sy>= 0.0000 <Sz>= 1.0000 <S**2>= 2.0000 S= 1.0000
 Leave Link  401 at Tue Aug 18 12:14:57 2026, MaxMem=  2684354560 cpu:              16.1 elap:              16.1
 (Enter /mnt/data/applications/G16/g16/l502.exe)
 Keep R1 and R2 ints in memory in canonical form, NReq=1058662964.
 FoFCou: FMM=F IPFlag=           0 FMFlag=           0 FMFlg1=           0
         NFxFlg=           0 DoJE=F BraDBF=F KetDBF=F FulRan=T
         wScrn=  0.000000 ICntrl=       600 IOpCl=  0 I1Cent=           0 NGrid=           0
         NMat0=    1 NMatS0=  32385 NMatT0=    0 NMatD0=    1 NMtDS0=    0 NMtDT0=    0
 Symmetry not used in FoFCou.
 Two-electron integral symmetry not used.
 UHF open shell SCF:
 Using DIIS extrapolation, IDIIS=  1040.
 NGot=  2684354560 LenX=  1635385430 LenY=  1635312628
 Requested convergence on RMS density matrix=1.00D-08 within 128 cycles.
 Requested convergence on MAX density matrix=1.00D-06.
 Requested convergence on             energy=1.00D-06.
 No special actions if energy rises.

 Cycle   1  Pass 1  IDiag  1:
 Inv3:  Mode=1 IEnd=    11868363.
 Iteration    1 A*A^-1 deviation from unit magnitude is 1.78D-15 for    358.
 Iteration    1 A*A^-1 deviation from orthogonality  is 1.06D-15 for   1144    237.
 Iteration    1 A^-1*A deviation from unit magnitude is 1.67D-15 for    667.
 Iteration    1 A^-1*A deviation from orthogonality  is 7.82D-16 for   1012    812.
 E= -973.174520624906    
 DIIS: error= 4.76D-02 at cycle   1 NSaved=   1.
 NSaved= 1 IEnMin= 1 EnMin= -973.174520624906     IErMin= 1 ErrMin= 4.76D-02
 ErrMax= 4.76D-02  0.00D+00 EMaxC= 1.00D-01 BMatC= 1.58D+00 BMatP= 1.58D+00
 IDIUse=3 WtCom= 5.24D-01 WtEn= 4.76D-01
 Coeff-Com:  0.100D+01
 Coeff-En:   0.100D+01
 Coeff:      0.100D+01
 Gap=     0.076 Goal=   None    Shift=    0.000
 Gap=    -0.043 Goal=   None    Shift=    0.000
 GapD=   -0.043 DampG=0.250 DampE=0.500 DampFc=0.2500 IDamp=-1.
 Damping current iteration by 2.50D-01
 RMSDP=1.29D-02 MaxDP=6.79D-01              OVMax= 8.78D-01

 Cycle   2  Pass 1  IDiag  1:
 E= -973.320709363007     Delta-E=       -0.146188738102 Rises=F Damp=T
 DIIS: error= 2.45D-02 at cycle   2 NSaved=   2.
 NSaved= 2 IEnMin= 2 EnMin= -973.320709363007     IErMin= 2 ErrMin= 2.45D-02
 ErrMax= 2.45D-02  0.00D+00 EMaxC= 1.00D-01 BMatC= 2.65D-01 BMatP= 1.58D+00
 IDIUse=3 WtCom= 7.55D-01 WtEn= 2.45D-01
 Coeff-Com: -0.307D+00 0.131D+01
 Coeff-En:   0.743D-01 0.926D+00
 Coeff:     -0.213D+00 0.121D+01
 Gap=     0.140 Goal=   None    Shift=    0.000
 Gap=     0.228 Goal=   None    Shift=    0.000
 RMSDP=4.36D-03 MaxDP=1.73D-01 DE=-1.46D-01 OVMax= 8.96D-01

 Cycle   3  Pass 1  IDiag  1:
 E= -973.481868622884     Delta-E=       -0.161159259877 Rises=F Damp=F
 DIIS: error= 3.15D-02 at cycle   3 NSaved=   3.
 NSaved= 3 IEnMin= 3 EnMin= -973.481868622884     IErMin= 2 ErrMin= 2.45D-02
 ErrMax= 3.15D-02  0.00D+00 EMaxC= 1.00D-01 BMatC= 6.30D-01 BMatP= 2.65D-01
 IDIUse=2 WtCom= 0.00D+00 WtEn= 1.00D+00
 Coeff-En:   0.000D+00 0.151D+00 0.849D+00
 Coeff:      0.000D+00 0.151D+00 0.849D+00
 Gap=     0.027 Goal=   None    Shift=    0.000
 Gap=     0.074 Goal=   None    Shift=    0.000
 RMSDP=7.42D-03 MaxDP=3.38D-01 DE=-1.61D-01 OVMax= 9.37D-01

 Cycle   4  Pass 1  IDiag  1:
 E= -972.544348968394     Delta-E=        0.937519654490 Rises=F Damp=F
 DIIS: error= 9.13D-02 at cycle   4 NSaved=   4.
 NSaved= 4 IEnMin= 3 EnMin= -973.481868622884     IErMin= 2 ErrMin= 2.45D-02
 ErrMax= 9.13D-02  0.00D+00 EMaxC= 1.00D-01 BMatC= 3.94D+00 BMatP= 2.65D-01
 IDIUse=2 WtCom= 0.00D+00 WtEn= 1.00D+00
 Coeff-En:   0.000D+00 0.000D+00 0.796D+00 0.204D+00
 Coeff:      0.000D+00 0.000D+00 0.796D+00 0.204D+00
 Gap=     0.043 Goal=   None    Shift=    0.000
 Gap=     0.042 Goal=   None    Shift=    0.000
 RMSDP=4.65D-03 MaxDP=1.93D-01 DE= 9.38D-01 OVMax= 4.72D-01

 Cycle   5  Pass 1  IDiag  1:
 E= -973.447762289359     Delta-E=       -0.903413320965 Rises=F Damp=F
 DIIS: error= 3.52D-02 at cycle   5 NSaved=   5.
 NSaved= 5 IEnMin= 3 EnMin= -973.481868622884     IErMin= 2 ErrMin= 2.45D-02
 ErrMax= 3.52D-02  0.00D+00 EMaxC= 1.00D-01 BMatC= 6.78D-01 BMatP= 2.65D-01
 IDIUse=2 WtCom= 0.00D+00 WtEn= 1.00D+00
 Coeff-En:   0.000D+00 0.000D+00 0.532D+00 0.000D+00 0.468D+00
 Coeff:      0.000D+00 0.000D+00 0.532D+00 0.000D+00 0.468D+00
 Gap=     0.089 Goal=   None    Shift=    0.000
 Gap=    -0.019 Goal=   None    Shift=    0.000
 RMSDP=3.94D-03 MaxDP=2.62D-01 DE=-9.03D-01 OVMax= 9.97D-01

 Cycle   6  Pass 1  IDiag  1:
 E= -973.618366108922     Delta-E=       -0.170603819562 Rises=F Damp=F
 DIIS: error= 1.29D-02 at cycle   6 NSaved=   6.
 NSaved= 6 IEnMin= 6 EnMin= -973.618366108922     IErMin= 6 ErrMin= 1.29D-02
 ErrMax= 1.29D-02  0.00D+00 EMaxC= 1.00D-01 BMatC= 9.15D-02 BMatP= 2.65D-01
 IDIUse=3 WtCom= 8.71D-01 WtEn= 1.29D-01
 Coeff-Com: -0.124D+00 0.233D+00 0.185D+00-0.563D-01 0.338D+00 0.424D+00
 Coeff-En:   0.000D+00 0.000D+00 0.000D+00 0.000D+00 0.167D+00 0.833D+00
 Coeff:     -0.108D+00 0.203D+00 0.161D+00-0.490D-01 0.316D+00 0.477D+00
 Gap=     0.081 Goal=   None    Shift=    0.000
 Gap=     0.017 Goal=   None    Shift=    0.000
 RMSDP=6.94D-04 MaxDP=2.46D-02 DE=-1.71D-01 OVMax= 8.58D-02

 Cycle   7  Pass 1  IDiag  1:
 E= -973.634453144687     Delta-E=       -0.016087035765 Rises=F Damp=F
 DIIS: error= 7.61D-03 at cycle   7 NSaved=   7.
 NSaved= 7 IEnMin= 7 EnMin= -973.634453144687     IErMin= 7 ErrMin= 7.61D-03
 ErrMax= 7.61D-03  0.00D+00 EMaxC= 1.00D-01 BMatC= 3.68D-02 BMatP= 9.15D-02
 IDIUse=3 WtCom= 9.24D-01 WtEn= 7.61D-02
 Coeff-Com: -0.137D+00 0.193D+00-0.468D-01-0.233D-01 0.129D+00 0.272D+00
 Coeff-Com:  0.613D+00
 Coeff-En:   0.000D+00 0.000D+00 0.000D+00 0.000D+00 0.502D-01 0.000D+00
 Coeff-En:   0.950D+00
 Coeff:     -0.126D+00 0.179D+00-0.433D-01-0.215D-01 0.123D+00 0.251D+00
 Coeff:      0.638D+00
 Gap=     0.076 Goal=   None    Shift=    0.000
 Gap=     0.033 Goal=   None    Shift=    0.000
 RMSDP=4.60D-04 MaxDP=1.72D-02 DE=-1.61D-02 OVMax= 4.15D-02

 Cycle   8  Pass 1  IDiag  1:
 E= -973.643862609552     Delta-E=       -0.009409464865 Rises=F Damp=F
 DIIS: error= 3.92D-03 at cycle   8 NSaved=   8.
 NSaved= 8 IEnMin= 8 EnMin= -973.643862609552     IErMin= 8 ErrMin= 3.92D-03
 ErrMax= 3.92D-03  0.00D+00 EMaxC= 1.00D-01 BMatC= 6.58D-03 BMatP= 3.68D-02
 IDIUse=3 WtCom= 9.61D-01 WtEn= 3.92D-02
 Coeff-Com: -0.450D-01 0.819D-01-0.225D-01-0.149D-02 0.265D-01-0.130D+00
 Coeff-Com:  0.182D+00 0.909D+00
 Coeff-En:   0.000D+00 0.000D+00 0.000D+00 0.000D+00 0.000D+00 0.000D+00
 Coeff-En:   0.000D+00 0.100D+01
 Coeff:     -0.432D-01 0.787D-01-0.216D-01-0.143D-02 0.255D-01-0.125D+00
 Coeff:      0.175D+00 0.912D+00
 Gap=     0.075 Goal=   None    Shift=    0.000
 Gap=     0.044 Goal=   None    Shift=    0.000
 RMSDP=2.85D-04 MaxDP=1.74D-02 DE=-9.41D-03 OVMax= 5.93D-02

 Cycle   9  Pass 1  IDiag  1:
 E= -973.646074694655     Delta-E=       -0.002212085103 Rises=F Damp=F
 DIIS: error= 1.41D-03 at cycle   9 NSaved=   9.
 NSaved= 9 IEnMin= 9 EnMin= -973.646074694655     IErMin= 9 ErrMin= 1.41D-03
 ErrMax= 1.41D-03  0.00D+00 EMaxC= 1.00D-01 BMatC= 7.15D-04 BMatP= 6.58D-03
 IDIUse=3 WtCom= 9.86D-01 WtEn= 1.41D-02
 Coeff-Com:  0.122D-01-0.450D-02 0.187D-01-0.398D-03 0.614D-02-0.149D+00
 Coeff-Com: -0.131D+00 0.416D+00 0.833D+00
 Coeff-En:   0.000D+00 0.000D+00 0.000D+00 0.000D+00 0.000D+00 0.000D+00
 Coeff-En:   0.000D+00 0.000D+00 0.100D+01
 Coeff:      0.121D-01-0.444D-02 0.184D-01-0.393D-03 0.605D-02-0.147D+00
 Coeff:     -0.130D+00 0.410D+00 0.835D+00
 Gap=     0.074 Goal=   None    Shift=    0.000
 Gap=     0.050 Goal=   None    Shift=    0.000
 RMSDP=1.56D-04 MaxDP=9.58D-03 DE=-2.21D-03 OVMax= 3.88D-02

 Cycle  10  Pass 1  IDiag  1:
 E= -973.646504148629     Delta-E=       -0.000429453973 Rises=F Damp=F
 DIIS: error= 3.33D-04 at cycle  10 NSaved=  10.
 NSaved=10 IEnMin=10 EnMin= -973.646504148629     IErMin=10 ErrMin= 3.33D-04
 ErrMax= 3.33D-04  0.00D+00 EMaxC= 1.00D-01 BMatC= 7.81D-05 BMatP= 7.15D-04
 IDIUse=3 WtCom= 9.97D-01 WtEn= 3.33D-03
 Coeff-Com:  0.648D-02-0.108D-01 0.951D-02 0.397D-03 0.408D-03 0.221D-01
 Coeff-Com: -0.364D-01-0.760D-01 0.925D-01 0.992D+00
 Coeff-En:   0.000D+00 0.000D+00 0.000D+00 0.000D+00 0.000D+00 0.000D+00
 Coeff-En:   0.000D+00 0.000D+00 0.000D+00 0.100D+01
 Coeff:      0.646D-02-0.108D-01 0.948D-02 0.396D-03 0.407D-03 0.220D-01
 Coeff:     -0.363D-01-0.758D-01 0.922D-01 0.992D+00
 Gap=     0.074 Goal=   None    Shift=    0.000
 Gap=     0.053 Goal=   None    Shift=    0.000
 RMSDP=7.78D-05 MaxDP=4.52D-03 DE=-4.29D-04 OVMax= 2.16D-02

 Cycle  11  Pass 1  IDiag  1:
 E= -973.646585990134     Delta-E=       -0.000081841505 Rises=F Damp=F
 DIIS: error= 3.41D-04 at cycle  11 NSaved=  11.
 NSaved=11 IEnMin=11 EnMin= -973.646585990134     IErMin=10 ErrMin= 3.33D-04
 ErrMax= 3.41D-04  0.00D+00 EMaxC= 1.00D-01 BMatC= 6.55D-05 BMatP= 7.81D-05
 IDIUse=3 WtCom= 9.97D-01 WtEn= 3.33D-03
 Coeff-Com: -0.137D-02 0.177D-02 0.293D-02-0.416D-03-0.357D-03 0.364D-01
 Coeff-Com:  0.248D-01-0.572D-01-0.215D+00 0.165D+00 0.104D+01
 Coeff-En:   0.000D+00 0.000D+00 0.000D+00 0.000D+00 0.000D+00 0.000D+00
 Coeff-En:   0.000D+00 0.000D+00 0.000D+00 0.000D+00 0.100D+01
 Coeff:     -0.137D-02 0.176D-02 0.293D-02-0.415D-03-0.356D-03 0.363D-01
 Coeff:      0.247D-01-0.570D-01-0.214D+00 0.165D+00 0.104D+01
 Gap=     0.074 Goal=   None    Shift=    0.000
 Gap=     0.054 Goal=   None    Shift=    0.000
 RMSDP=5.90D-05 MaxDP=2.21D-03 DE=-8.18D-05 OVMax= 1.22D-02

 Cycle  12  Pass 1  IDiag  1:
 E= -973.646627388091     Delta-E=       -0.000041397957 Rises=F Damp=F
 DIIS: error= 1.56D-04 at cycle  12 NSaved=  12.
 NSaved=12 IEnMin=12 EnMin= -973.646627388091     IErMin=12 ErrMin= 1.56D-04
 ErrMax= 1.56D-04  0.00D+00 EMaxC= 1.00D-01 BMatC= 1.53D-05 BMatP= 6.55D-05
 IDIUse=3 WtCom= 9.98D-01 WtEn= 1.56D-03
 Coeff-Com: -0.264D-02 0.436D-02-0.313D-03-0.470D-03-0.490D-03 0.149D-01
 Coeff-Com:  0.274D-01 0.359D-02-0.194D+00-0.229D+00 0.630D+00 0.747D+00
 Coeff-En:   0.000D+00 0.000D+00 0.000D+00 0.000D+00 0.000D+00 0.000D+00
 Coeff-En:   0.000D+00 0.000D+00 0.000D+00 0.000D+00 0.000D+00 0.100D+01
 Coeff:     -0.264D-02 0.435D-02-0.312D-03-0.469D-03-0.490D-03 0.149D-01
 Coeff:      0.274D-01 0.358D-02-0.194D+00-0.229D+00 0.629D+00 0.747D+00
 Gap=     0.075 Goal=   None    Shift=    0.000
 Gap=     0.054 Goal=   None    Shift=    0.000
 RMSDP=3.82D-05 MaxDP=1.44D-03 DE=-4.14D-05 OVMax= 9.77D-03

 Cycle  13  Pass 1  IDiag  1:
 E= -973.646640840592     Delta-E=       -0.000013452501 Rises=F Damp=F
 DIIS: error= 5.30D-05 at cycle  13 NSaved=  13.
 NSaved=13 IEnMin=13 EnMin= -973.646640840592     IErMin=13 ErrMin= 5.30D-05
 ErrMax= 5.30D-05  0.00D+00 EMaxC= 1.00D-01 BMatC= 2.38D-06 BMatP= 1.53D-05
 IDIUse=1 WtCom= 1.00D+00 WtEn= 0.00D+00
 Coeff-Com: -0.980D-03 0.138D-02-0.180D-02 0.215D-03-0.139D-02-0.187D-02
 Coeff-Com:  0.645D-02 0.176D-01-0.425D-01-0.113D+00-0.778D-01 0.338D+00
 Coeff-Com:  0.876D+00
 Coeff:     -0.980D-03 0.138D-02-0.180D-02 0.215D-03-0.139D-02-0.187D-02
 Coeff:      0.645D-02 0.176D-01-0.425D-01-0.113D+00-0.778D-01 0.338D+00
 Coeff:      0.876D+00
 Gap=     0.075 Goal=   None    Shift=    0.000
 Gap=     0.055 Goal=   None    Shift=    0.000
 RMSDP=1.95D-05 MaxDP=1.08D-03 DE=-1.35D-05 OVMax= 5.36D-03

 Cycle  14  Pass 1  IDiag  1:
 E= -973.646643671863     Delta-E=       -0.000002831271 Rises=F Damp=F
 DIIS: error= 3.68D-05 at cycle  14 NSaved=  14.
 NSaved=14 IEnMin=14 EnMin= -973.646643671863     IErMin=14 ErrMin= 3.68D-05
 ErrMax= 3.68D-05  0.00D+00 EMaxC= 1.00D-01 BMatC= 6.68D-07 BMatP= 2.38D-06
 IDIUse=1 WtCom= 1.00D+00 WtEn= 0.00D+00
 Coeff-Com: -0.129D-03 0.155D-03-0.669D-03 0.111D-03-0.543D-03-0.246D-02
 Coeff-Com: -0.382D-03 0.943D-02 0.394D-02-0.162D-01-0.124D+00 0.518D-01
 Coeff-Com:  0.405D+00 0.674D+00
 Coeff:     -0.129D-03 0.155D-03-0.669D-03 0.111D-03-0.543D-03-0.246D-02
 Coeff:     -0.382D-03 0.943D-02 0.394D-02-0.162D-01-0.124D+00 0.518D-01
 Coeff:      0.405D+00 0.674D+00
 Gap=     0.075 Goal=   None    Shift=    0.000
 Gap=     0.055 Goal=   None    Shift=    0.000
 RMSDP=4.84D-06 MaxDP=1.62D-04 DE=-2.83D-06 OVMax= 1.02D-03

 Cycle  15  Pass 1  IDiag  1:
 E= -973.646643939943     Delta-E=       -0.000000268080 Rises=F Damp=F
 DIIS: error= 1.50D-05 at cycle  15 NSaved=  15.
 NSaved=15 IEnMin=15 EnMin= -973.646643939943     IErMin=15 ErrMin= 1.50D-05
 ErrMax= 1.50D-05  0.00D+00 EMaxC= 1.00D-01 BMatC= 1.89D-07 BMatP= 6.68D-07
 IDIUse=1 WtCom= 1.00D+00 WtEn= 0.00D+00
 Coeff-Com:  0.825D-04-0.130D-03-0.440D-04 0.182D-04-0.756D-04-0.687D-03
 Coeff-Com: -0.125D-02 0.223D-02 0.118D-01 0.138D-01-0.495D-01-0.544D-01
 Coeff-Com: -0.608D-02 0.381D+00 0.704D+00
 Coeff:      0.825D-04-0.130D-03-0.440D-04 0.182D-04-0.756D-04-0.687D-03
 Coeff:     -0.125D-02 0.223D-02 0.118D-01 0.138D-01-0.495D-01-0.544D-01
 Coeff:     -0.608D-02 0.381D+00 0.704D+00
 Gap=     0.075 Goal=   None    Shift=    0.000
 Gap=     0.055 Goal=   None    Shift=    0.000
 RMSDP=2.55D-06 MaxDP=7.87D-05 DE=-2.68D-07 OVMax= 4.80D-04

 Cycle  16  Pass 1  IDiag  1:
 E= -973.646644030120     Delta-E=       -0.000000090177 Rises=F Damp=F
 DIIS: error= 4.68D-06 at cycle  16 NSaved=  16.
 NSaved=16 IEnMin=16 EnMin= -973.646644030120     IErMin=16 ErrMin= 4.68D-06
 ErrMax= 4.68D-06  0.00D+00 EMaxC= 1.00D-01 BMatC= 1.77D-08 BMatP= 1.89D-07
 IDIUse=1 WtCom= 1.00D+00 WtEn= 0.00D+00
 Coeff-Com:  0.100D-04-0.381D-04 0.367D-04-0.448D-05 0.473D-04 0.460D-03
 Coeff-Com:  0.143D-03-0.759D-03 0.211D-02 0.533D-02 0.674D-02-0.220D-01
 Coeff-Com: -0.797D-01 0.947D-02 0.222D+00 0.857D+00
 Coeff:      0.100D-04-0.381D-04 0.367D-04-0.448D-05 0.473D-04 0.460D-03
 Coeff:      0.143D-03-0.759D-03 0.211D-02 0.533D-02 0.674D-02-0.220D-01
 Coeff:     -0.797D-01 0.947D-02 0.222D+00 0.857D+00
 Gap=     0.075 Goal=   None    Shift=    0.000
 Gap=     0.055 Goal=   None    Shift=    0.000
 RMSDP=9.12D-07 MaxDP=3.42D-05 DE=-9.02D-08 OVMax= 1.46D-04

 Cycle  17  Pass 1  IDiag  1:
 E= -973.646644042405     Delta-E=       -0.000000012285 Rises=F Damp=F
 DIIS: error= 2.47D-06 at cycle  17 NSaved=  17.
 NSaved=17 IEnMin=17 EnMin= -973.646644042405     IErMin=17 ErrMin= 2.47D-06
 ErrMax= 2.47D-06  0.00D+00 EMaxC= 1.00D-01 BMatC= 3.97D-09 BMatP= 1.77D-08
 IDIUse=1 WtCom= 1.00D+00 WtEn= 0.00D+00
 Coeff-Com:  0.197D-05-0.260D-05 0.435D-04-0.488D-05 0.313D-04 0.270D-03
 Coeff-Com:  0.205D-03-0.763D-03-0.110D-02 0.341D-04 0.111D-01 0.306D-02
 Coeff-Com: -0.329D-01-0.605D-01-0.309D-01 0.383D+00 0.728D+00
 Coeff:      0.197D-05-0.260D-05 0.435D-04-0.488D-05 0.313D-04 0.270D-03
 Coeff:      0.205D-03-0.763D-03-0.110D-02 0.341D-04 0.111D-01 0.306D-02
 Coeff:     -0.329D-01-0.605D-01-0.309D-01 0.383D+00 0.728D+00
 Gap=     0.075 Goal=   None    Shift=    0.000
 Gap=     0.055 Goal=   None    Shift=    0.000
 RMSDP=3.01D-07 MaxDP=1.51D-05 DE=-1.23D-08 OVMax= 4.34D-05

 Cycle  18  Pass 1  IDiag  1:
 E= -973.646644044780     Delta-E=       -0.000000002375 Rises=F Damp=F
 DIIS: error= 1.56D-06 at cycle  18 NSaved=  18.
 NSaved=18 IEnMin=18 EnMin= -973.646644044780     IErMin=18 ErrMin= 1.56D-06
 ErrMax= 1.56D-06  0.00D+00 EMaxC= 1.00D-01 BMatC= 2.30D-09 BMatP= 3.97D-09
 IDIUse=1 WtCom= 1.00D+00 WtEn= 0.00D+00
 Coeff-Com:  0.546D-05 0.646D-05 0.236D-04-0.978D-06 0.222D-05-0.549D-04
 Coeff-Com:  0.285D-04-0.279D-03-0.159D-02-0.229D-02 0.453D-02 0.125D-01
 Coeff-Com:  0.107D-01-0.478D-01-0.123D+00-0.119D+00 0.540D+00 0.726D+00
 Coeff:      0.546D-05 0.646D-05 0.236D-04-0.978D-06 0.222D-05-0.549D-04
 Coeff:      0.285D-04-0.279D-03-0.159D-02-0.229D-02 0.453D-02 0.125D-01
 Coeff:      0.107D-01-0.478D-01-0.123D+00-0.119D+00 0.540D+00 0.726D+00
 Gap=     0.075 Goal=   None    Shift=    0.000
 Gap=     0.055 Goal=   None    Shift=    0.000
 RMSDP=2.67D-07 MaxDP=1.32D-05 DE=-2.37D-09 OVMax= 4.73D-05

 Cycle  19  Pass 1  IDiag  1:
 E= -973.646644046252     Delta-E=       -0.000000001472 Rises=F Damp=F
 DIIS: error= 7.14D-07 at cycle  19 NSaved=  19.
 NSaved=19 IEnMin=19 EnMin= -973.646644046252     IErMin=19 ErrMin= 7.14D-07
 ErrMax= 7.14D-07  0.00D+00 EMaxC= 1.00D-01 BMatC= 4.61D-10 BMatP= 2.30D-09
 IDIUse=1 WtCom= 1.00D+00 WtEn= 0.00D+00
 Coeff-Com:  0.334D-05 0.574D-06-0.316D-06 0.131D-05-0.511D-05-0.832D-04
 Coeff-Com: -0.539D-05-0.306D-04-0.713D-03-0.143D-02 0.469D-03 0.637D-02
 Coeff-Com:  0.128D-01-0.152D-01-0.652D-01-0.161D+00 0.157D+00 0.430D+00
 Coeff-Com:  0.637D+00
 Coeff:      0.334D-05 0.574D-06-0.316D-06 0.131D-05-0.511D-05-0.832D-04
 Coeff:     -0.539D-05-0.306D-04-0.713D-03-0.143D-02 0.469D-03 0.637D-02
 Coeff:      0.128D-01-0.152D-01-0.652D-01-0.161D+00 0.157D+00 0.430D+00
 Coeff:      0.637D+00
 Gap=     0.075 Goal=   None    Shift=    0.000
 Gap=     0.055 Goal=   None    Shift=    0.000
 RMSDP=1.09D-07 MaxDP=5.51D-06 DE=-1.47D-09 OVMax= 1.96D-05

 Cycle  20  Pass 1  IDiag  1:
 E= -973.646644046509     Delta-E=       -0.000000000257 Rises=F Damp=F
 DIIS: error= 3.25D-07 at cycle  20 NSaved=  20.
 NSaved=20 IEnMin=20 EnMin= -973.646644046509     IErMin=20 ErrMin= 3.25D-07
 ErrMax= 3.25D-07  0.00D+00 EMaxC= 1.00D-01 BMatC= 8.05D-11 BMatP= 4.61D-10
 IDIUse=1 WtCom= 1.00D+00 WtEn= 0.00D+00
 Coeff-Com: -0.517D-06-0.128D-05-0.942D-05 0.146D-05-0.528D-05-0.206D-04
 Coeff-Com:  0.503D-05 0.732D-04 0.463D-04-0.186D-03-0.796D-03-0.594D-04
 Coeff-Com:  0.420D-02 0.586D-02 0.856D-03-0.514D-01-0.663D-01 0.140D-01
 Coeff-Com:  0.307D+00 0.787D+00
 Coeff:     -0.517D-06-0.128D-05-0.942D-05 0.146D-05-0.528D-05-0.206D-04
 Coeff:      0.503D-05 0.732D-04 0.463D-04-0.186D-03-0.796D-03-0.594D-04
 Coeff:      0.420D-02 0.586D-02 0.856D-03-0.514D-01-0.663D-01 0.140D-01
 Coeff:      0.307D+00 0.787D+00
 Gap=     0.075 Goal=   None    Shift=    0.000
 Gap=     0.055 Goal=   None    Shift=    0.000
 RMSDP=5.07D-08 MaxDP=2.48D-06 DE=-2.57D-10 OVMax= 5.71D-06

 Cycle  21  Pass 1  IDiag  1:
 E= -973.646644046566     Delta-E=       -0.000000000057 Rises=F Damp=F
 DIIS: error= 1.85D-07 at cycle  21 NSaved=  20.
 NSaved=20 IEnMin=20 EnMin= -973.646644046566     IErMin=20 ErrMin= 1.85D-07
 ErrMax= 1.85D-07  0.00D+00 EMaxC= 1.00D-01 BMatC= 1.94D-11 BMatP= 8.05D-11
 IDIUse=1 WtCom= 1.00D+00 WtEn= 0.00D+00
 Coeff-Com: -0.167D-05 0.239D-05-0.172D-05-0.124D-05 0.254D-05-0.491D-05
 Coeff-Com:  0.562D-04 0.199D-03 0.186D-03-0.515D-03-0.132D-02-0.798D-03
 Coeff-Com:  0.454D-02 0.122D-01 0.132D-01-0.485D-01-0.750D-01-0.250D-01
 Coeff-Com:  0.248D+00 0.873D+00
 Coeff:     -0.167D-05 0.239D-05-0.172D-05-0.124D-05 0.254D-05-0.491D-05
 Coeff:      0.562D-04 0.199D-03 0.186D-03-0.515D-03-0.132D-02-0.798D-03
 Coeff:      0.454D-02 0.122D-01 0.132D-01-0.485D-01-0.750D-01-0.250D-01
 Coeff:      0.248D+00 0.873D+00
 Gap=     0.075 Goal=   None    Shift=    0.000
 Gap=     0.055 Goal=   None    Shift=    0.000
 RMSDP=2.19D-08 MaxDP=8.44D-07 DE=-5.66D-11 OVMax= 2.30D-06

 Cycle  22  Pass 1  IDiag  1:
 E= -973.646644046570     Delta-E=       -0.000000000004 Rises=F Damp=F
 DIIS: error= 5.29D-08 at cycle  22 NSaved=  20.
 NSaved=20 IEnMin=20 EnMin= -973.646644046570     IErMin=20 ErrMin= 5.29D-08
 ErrMax= 5.29D-08  0.00D+00 EMaxC= 1.00D-01 BMatC= 1.39D-12 BMatP= 1.94D-11
 IDIUse=1 WtCom= 1.00D+00 WtEn= 0.00D+00
 Coeff-Com: -0.223D-06 0.867D-06-0.262D-06 0.171D-05-0.440D-05-0.242D-05
 Coeff-Com: -0.174D-04 0.408D-04-0.843D-05 0.934D-04-0.440D-04-0.127D-02
 Coeff-Com: -0.392D-03 0.567D-02 0.656D-02 0.198D-02-0.277D-01-0.105D+00
 Coeff-Com: -0.482D-01 0.117D+01
 Coeff:     -0.223D-06 0.867D-06-0.262D-06 0.171D-05-0.440D-05-0.242D-05
 Coeff:     -0.174D-04 0.408D-04-0.843D-05 0.934D-04-0.440D-04-0.127D-02
 Coeff:     -0.392D-03 0.567D-02 0.656D-02 0.198D-02-0.277D-01-0.105D+00
 Coeff:     -0.482D-01 0.117D+01
 Gap=     0.075 Goal=   None    Shift=    0.000
 Gap=     0.055 Goal=   None    Shift=    0.000
 RMSDP=7.98D-09 MaxDP=3.64D-07 DE=-3.87D-12 OVMax= 9.45D-07

 Error on total polarization charges =  0.01284
 SCF Done:  E(UB3LYP) =  -973.646644047     A.U. after   22 cycles
            NFock= 22  Conv=0.80D-08     -V/T= 2.0047
 <Sx>= 0.0000 <Sy>= 0.0000 <Sz>= 1.0000 <S**2>= 2.0067 S= 1.0022
 <L.S>= 0.000000000000E+00
 KE= 9.690616308688D+02 PE=-4.266371080179D+03 EE= 1.332313349492D+03
 Annihilation of the first spin contaminant:
 S**2 before annihilation     2.0067,   after     2.0000
 Leave Link  502 at Tue Aug 18 12:32:29 2026, MaxMem=  2684354560 cpu:            1049.3 elap:            1050.9
 (Enter /mnt/data/applications/G16/g16/l601.exe)
 Copying SCF densities to generalized density rwf, IOpCl= 1 IROHF=0.

 **********************************************************************

            Population analysis using the SCF density.

 **********************************************************************

 Alpha  occ. eigenvalues --  -88.96204 -19.10333 -10.24892 -10.24891 -10.23398
 Alpha  occ. eigenvalues --  -10.21544 -10.21543 -10.21519 -10.21518 -10.21294
 Alpha  occ. eigenvalues --  -10.21293 -10.19828 -10.19828 -10.19545 -10.19544
 Alpha  occ. eigenvalues --   -8.02263  -5.98471  -5.98369  -5.98056  -1.02047
 Alpha  occ. eigenvalues --   -0.90671  -0.87731  -0.83360  -0.78089  -0.77441
 Alpha  occ. eigenvalues --   -0.76351  -0.73012  -0.65880  -0.63518  -0.61270
 Alpha  occ. eigenvalues --   -0.60384  -0.55772  -0.54410  -0.49904  -0.47835
 Alpha  occ. eigenvalues --   -0.47689  -0.47378  -0.44521  -0.44061  -0.44040
 Alpha  occ. eigenvalues --   -0.42717  -0.41674  -0.40704  -0.39389  -0.38779
 Alpha  occ. eigenvalues --   -0.38100  -0.36450  -0.35534  -0.34813  -0.34642
 Alpha  occ. eigenvalues --   -0.28862  -0.27573  -0.27343  -0.25029  -0.24785
 Alpha  occ. eigenvalues --   -0.12085
 Alpha virt. eigenvalues --   -0.04611  -0.02830  -0.02606   0.00324   0.04477
 Alpha virt. eigenvalues --    0.04978   0.07928   0.08104   0.10258   0.10682
 Alpha virt. eigenvalues --    0.12362   0.12848   0.14634   0.14801   0.15226
 Alpha virt. eigenvalues --    0.16579   0.19596   0.23686   0.24427   0.25399
 Alpha virt. eigenvalues --    0.28200   0.28692   0.28696   0.31091   0.32540
 Alpha virt. eigenvalues --    0.32955   0.38519   0.38736   0.40439   0.40547
 Alpha virt. eigenvalues --    0.41975   0.43601   0.43643   0.44163   0.46045
 Alpha virt. eigenvalues --    0.46368   0.46760   0.47340   0.47756   0.47950
 Alpha virt. eigenvalues --    0.48435   0.49168   0.49553   0.49847   0.50479
 Alpha virt. eigenvalues --    0.50937   0.51018   0.51876   0.52601   0.55345
 Alpha virt. eigenvalues --    0.55623   0.55762   0.57732   0.58195   0.60934
 Alpha virt. eigenvalues --    0.61126   0.61818   0.62686   0.63347   0.63420
 Alpha virt. eigenvalues --    0.64172   0.65645   0.65818   0.67388   0.69032
 Alpha virt. eigenvalues --    0.70422   0.70684   0.72597   0.74130   0.74197
 Alpha virt. eigenvalues --    0.75024   0.79322   0.82339   0.82701   0.85065
 Alpha virt. eigenvalues --    0.86407   0.86955   0.87060   0.89139   0.89710
 Alpha virt. eigenvalues --    0.91000   0.91216   0.92207   0.93476   0.96369
 Alpha virt. eigenvalues --    0.96466   0.97077   0.97173   0.98788   1.00758
 Alpha virt. eigenvalues --    1.01482   1.01516   1.01863   1.03245   1.04083
 Alpha virt. eigenvalues --    1.04808   1.05428   1.07177   1.08140   1.12553
 Alpha virt. eigenvalues --    1.13599   1.15542   1.15896   1.17932   1.19262
 Alpha virt. eigenvalues --    1.20260   1.27505   1.30286   1.32389   1.34161
 Alpha virt. eigenvalues --    1.34739   1.37352   1.40511   1.43099   1.43604
 Alpha virt. eigenvalues --    1.46124   1.46405   1.47239   1.47625   1.49013
 Alpha virt. eigenvalues --    1.49998   1.50614   1.50751   1.50811   1.54303
 Alpha virt. eigenvalues --    1.58654   1.60728   1.60841   1.61644   1.62666
 Alpha virt. eigenvalues --    1.62848   1.63892   1.64421   1.65731   1.66192
 Alpha virt. eigenvalues --    1.67389   1.69122   1.69463   1.72631   1.73561
 Alpha virt. eigenvalues --    1.74965   1.75380   1.76872   1.78483   1.78592
 Alpha virt. eigenvalues --    1.78651   1.79708   1.80797   1.82795   1.83295
 Alpha virt. eigenvalues --    1.83504   1.85284   1.85364   1.86326   1.90649
 Alpha virt. eigenvalues --    1.90684   1.93785   1.94606   1.95018   1.96005
 Alpha virt. eigenvalues --    1.98857   1.99958   2.01313   2.05914   2.08292
 Alpha virt. eigenvalues --    2.12885   2.16017   2.16305   2.17907   2.19193
 Alpha virt. eigenvalues --    2.20766   2.22469   2.28495   2.35267   2.36124
 Alpha virt. eigenvalues --    2.37072   2.38645   2.42217   2.43272   2.46018
 Alpha virt. eigenvalues --    2.54327   2.55354   2.63893   2.64597   2.70310
 Alpha virt. eigenvalues --    2.70501   2.71802   2.74599   2.76202   2.77406
 Alpha virt. eigenvalues --    2.81299   2.81998   3.00322   3.07348   3.34454
 Alpha virt. eigenvalues --    3.42332   3.49201   3.57063
  Beta  occ. eigenvalues --  -88.95925 -19.09393 -10.24698 -10.24698 -10.23090
  Beta  occ. eigenvalues --  -10.21492 -10.21491 -10.21419 -10.21419 -10.21172
  Beta  occ. eigenvalues --  -10.21172 -10.19654 -10.19654 -10.19427 -10.19426
  Beta  occ. eigenvalues --   -8.01977  -5.98298  -5.97894  -5.97445  -1.00259
  Beta  occ. eigenvalues --   -0.89898  -0.87239  -0.82590  -0.77389  -0.76906
  Beta  occ. eigenvalues --   -0.75899  -0.72079  -0.65108  -0.63132  -0.60918
  Beta  occ. eigenvalues --   -0.59745  -0.55208  -0.54162  -0.49445  -0.47623
  Beta  occ. eigenvalues --   -0.47475  -0.47064  -0.44282  -0.43883  -0.42465
  Beta  occ. eigenvalues --   -0.41881  -0.40824  -0.40258  -0.38023  -0.37720
  Beta  occ. eigenvalues --   -0.36296  -0.35277  -0.34934  -0.34442  -0.32190
  Beta  occ. eigenvalues --   -0.26895  -0.26072  -0.24999  -0.23904
  Beta virt. eigenvalues --   -0.18429  -0.05119  -0.03172  -0.01174  -0.00981
  Beta virt. eigenvalues --    0.00724   0.05592   0.07136   0.08014   0.08616
  Beta virt. eigenvalues --    0.10315   0.10758   0.13008   0.13727   0.14801
  Beta virt. eigenvalues --    0.14935   0.15351   0.18638   0.19797   0.24123
  Beta virt. eigenvalues --    0.24802   0.25669   0.28364   0.28887   0.29075
  Beta virt. eigenvalues --    0.31584   0.32852   0.33384   0.38883   0.38946
  Beta virt. eigenvalues --    0.40883   0.41046   0.43104   0.44262   0.45071
  Beta virt. eigenvalues --    0.45208   0.46384   0.46747   0.47932   0.48144
  Beta virt. eigenvalues --    0.48259   0.48300   0.48786   0.49637   0.50111
  Beta virt. eigenvalues --    0.50690   0.50891   0.51255   0.51456   0.52595
  Beta virt. eigenvalues --    0.52936   0.55995   0.56130   0.56465   0.57911
  Beta virt. eigenvalues --    0.59200   0.61530   0.62356   0.62665   0.63299
  Beta virt. eigenvalues --    0.63437   0.63646   0.64485   0.65971   0.66465
  Beta virt. eigenvalues --    0.67780   0.69459   0.70595   0.70897   0.73045
  Beta virt. eigenvalues --    0.74280   0.74917   0.75338   0.80200   0.82581
  Beta virt. eigenvalues --    0.83188   0.85240   0.87069   0.87379   0.87917
  Beta virt. eigenvalues --    0.89390   0.90445   0.91231   0.91854   0.92454
  Beta virt. eigenvalues --    0.93751   0.96649   0.96913   0.97480   0.97794
  Beta virt. eigenvalues --    0.99201   1.01763   1.01792   1.02168   1.02446
  Beta virt. eigenvalues --    1.03737   1.04775   1.05011   1.07284   1.07417
  Beta virt. eigenvalues --    1.08403   1.14015   1.14080   1.16087   1.16322
  Beta virt. eigenvalues --    1.18704   1.20132   1.20649   1.27777   1.30543
  Beta virt. eigenvalues --    1.32822   1.34474   1.35139   1.37805   1.41567
  Beta virt. eigenvalues --    1.43963   1.44279   1.46297   1.46860   1.47479
  Beta virt. eigenvalues --    1.47975   1.49394   1.50217   1.51013   1.51220
  Beta virt. eigenvalues --    1.51346   1.54552   1.58839   1.61034   1.61189
  Beta virt. eigenvalues --    1.61792   1.63023   1.63029   1.64119   1.64662
  Beta virt. eigenvalues --    1.65991   1.66572   1.67672   1.69397   1.69862
  Beta virt. eigenvalues --    1.73356   1.73964   1.75277   1.75967   1.77470
  Beta virt. eigenvalues --    1.78846   1.78863   1.79321   1.80007   1.81121
  Beta virt. eigenvalues --    1.83012   1.83484   1.84106   1.85439   1.85514
  Beta virt. eigenvalues --    1.86507   1.90914   1.91089   1.94089   1.95051
  Beta virt. eigenvalues --    1.95617   1.96351   1.99128   2.00318   2.01529
  Beta virt. eigenvalues --    2.06266   2.08513   2.13576   2.16599   2.16928
  Beta virt. eigenvalues --    2.18698   2.19853   2.21128   2.23175   2.28688
  Beta virt. eigenvalues --    2.35573   2.36356   2.37184   2.38788   2.42459
  Beta virt. eigenvalues --    2.43877   2.46274   2.54555   2.55612   2.64165
  Beta virt. eigenvalues --    2.64909   2.70501   2.71931   2.73314   2.75203
  Beta virt. eigenvalues --    2.76406   2.78919   2.81429   2.82555   3.01269
  Beta virt. eigenvalues --    3.10087   3.34791   3.42539   3.50332   3.57341
          Condensed to atoms (all electrons):
               1          2          3          4          5          6
     1  C    4.790709   0.500038   0.004003  -0.076454   0.007711   0.438671
     2  C    0.500038   4.740418   0.443304   0.006577  -0.075563   0.016086
     3  C    0.004003   0.443304   5.481729   0.282525  -0.055055  -0.083425
     4  C   -0.076454   0.006577   0.282525   5.439096   0.345639   0.018639
     5  C    0.007711  -0.075563  -0.055055   0.345639   4.992242   0.413214
     6  C    0.438671   0.016086  -0.083425   0.018639   0.413214   4.814503
     7  C   -0.000372   0.006673  -0.062989   0.191927  -0.069994   0.013986
     8  C    0.000052  -0.000480  -0.054741  -0.016368   0.024245  -0.000568
     9  C   -0.000157   0.001794  -0.006338  -0.054741   0.000345   0.000093
    10  C    0.000001  -0.000253   0.001794  -0.000479   0.000050   0.000001
    11  H   -0.000000  -0.000006   0.000443   0.000029  -0.000002   0.000000
    12  C    0.000000   0.000001  -0.000157   0.000051   0.000001  -0.000000
    13  C   -0.000000   0.000001   0.000093  -0.000568  -0.000007   0.000000
    14  C    0.000001   0.000050   0.000346   0.024237  -0.001187  -0.000007
    15  H    0.395119  -0.043056   0.011218  -0.000029   0.009651  -0.052089
    16  H   -0.042165   0.391546  -0.052388   0.012070  -0.000394   0.009889
    17  H    0.010636  -0.001134   0.015738  -0.052819   0.391887  -0.060137
    18  H   -0.050768   0.009426   0.000497   0.009388  -0.043152   0.395115
    19  H    0.000000  -0.000000   0.000003   0.000001   0.000000  -0.000000
    20  H    0.000000   0.000000  -0.000000   0.000001  -0.000000  -0.000000
    21  H    0.000000   0.000002  -0.000197   0.003828  -0.000179  -0.000004
    22  S    0.005210  -0.084872   0.305598  -0.066249   0.006530  -0.000396
    23  O   -0.000011  -0.000062   0.005243  -0.133977   0.018367   0.001485
               7          8          9         10         11         12
     1  C   -0.000372   0.000052  -0.000157   0.000001  -0.000000   0.000000
     2  C    0.006673  -0.000480   0.001794  -0.000253  -0.000006   0.000001
     3  C   -0.062989  -0.054741  -0.006338   0.001794   0.000443  -0.000157
     4  C    0.191927  -0.016368  -0.054741  -0.000479   0.000029   0.000051
     5  C   -0.069994   0.024245   0.000345   0.000050  -0.000002   0.000001
     6  C    0.013986  -0.000568   0.000093   0.000001   0.000000  -0.000000
     7  C    5.187688   0.191997  -0.063013   0.006674  -0.000164  -0.000371
     8  C    0.191997   5.438887   0.282424   0.006569   0.012070  -0.076441
     9  C   -0.063013   0.282424   5.481837   0.443328  -0.052408   0.003978
    10  C    0.006674   0.006569   0.443328   4.740361   0.391525   0.500075
    11  H   -0.000164   0.012070  -0.052408   0.391525   0.706870  -0.042132
    12  C   -0.000371  -0.076441   0.003978   0.500075  -0.042132   4.790836
    13  C    0.013983   0.018656  -0.083432   0.016082   0.009887   0.438599
    14  C   -0.070013   0.345688  -0.055004  -0.075538  -0.000394   0.007700
    15  H    0.000025   0.000001   0.000003  -0.000000  -0.000000   0.000000
    16  H   -0.000164   0.000029   0.000442  -0.000006   0.000009  -0.000000
    17  H   -0.032044   0.003835  -0.000198   0.000002  -0.000000   0.000000
    18  H   -0.000322   0.000001  -0.000000   0.000000   0.000000   0.000000
    19  H    0.000025  -0.000028   0.011219  -0.043022  -0.015172   0.395102
    20  H   -0.000322   0.009386   0.000496   0.009426  -0.000227  -0.050812
    21  H   -0.032029  -0.052759   0.015742  -0.001133   0.000054   0.010637
    22  S   -0.021314  -0.066220   0.305614  -0.084886  -0.007938   0.005211
    23  O    0.732574  -0.133930   0.005244  -0.000061   0.000001  -0.000011
              13         14         15         16         17         18
     1  C   -0.000000   0.000001   0.395119  -0.042165   0.010636  -0.050768
     2  C    0.000001   0.000050  -0.043056   0.391546  -0.001134   0.009426
     3  C    0.000093   0.000346   0.011218  -0.052388   0.015738   0.000497
     4  C   -0.000568   0.024237  -0.000029   0.012070  -0.052819   0.009388
     5  C   -0.000007  -0.001187   0.009651  -0.000394   0.391887  -0.043152
     6  C    0.000000  -0.000007  -0.052089   0.009889  -0.060137   0.395115
     7  C    0.013983  -0.070013   0.000025  -0.000164  -0.032044  -0.000322
     8  C    0.018656   0.345688   0.000001   0.000029   0.003835   0.000001
     9  C   -0.083432  -0.055004   0.000003   0.000442  -0.000198  -0.000000
    10  C    0.016082  -0.075538  -0.000000  -0.000006   0.000002   0.000000
    11  H    0.009887  -0.000394  -0.000000   0.000009  -0.000000   0.000000
    12  C    0.438599   0.007700   0.000000  -0.000000   0.000000   0.000000
    13  C    4.814507   0.413329  -0.000000   0.000000  -0.000004  -0.000000
    14  C    0.413329   4.991951   0.000000  -0.000002  -0.000180  -0.000000
    15  H   -0.000000   0.000000   0.720093  -0.015175  -0.000231  -0.014029
    16  H    0.000000  -0.000002  -0.015175   0.706870   0.000054  -0.000227
    17  H   -0.000004  -0.000180  -0.000231   0.000054   0.747879  -0.014193
    18  H   -0.000000  -0.000000  -0.014029  -0.000227  -0.014193   0.709564
    19  H   -0.052103   0.009647  -0.000000  -0.000000   0.000000   0.000000
    20  H    0.395109  -0.043101   0.000000   0.000000  -0.000000  -0.000000
    21  H   -0.060145   0.391938   0.000000  -0.000000  -0.000092  -0.000000
    22  S   -0.000396   0.006526  -0.000247  -0.007940  -0.000116   0.000033
    23  O    0.001482   0.018361   0.000000   0.000001   0.033552  -0.000011
              19         20         21         22         23
     1  C    0.000000   0.000000   0.000000   0.005210  -0.000011
     2  C   -0.000000   0.000000   0.000002  -0.084872  -0.000062
     3  C    0.000003  -0.000000  -0.000197   0.305598   0.005243
     4  C    0.000001   0.000001   0.003828  -0.066249  -0.133977
     5  C    0.000000  -0.000000  -0.000179   0.006530   0.018367
     6  C   -0.000000  -0.000000  -0.000004  -0.000396   0.001485
     7  C    0.000025  -0.000322  -0.032029  -0.021314   0.732574
     8  C   -0.000028   0.009386  -0.052759  -0.066220  -0.133930
     9  C    0.011219   0.000496   0.015742   0.305614   0.005244
    10  C   -0.043022   0.009426  -0.001133  -0.084886  -0.000061
    11  H   -0.015172  -0.000227   0.000054  -0.007938   0.000001
    12  C    0.395102  -0.050812   0.010637   0.005211  -0.000011
    13  C   -0.052103   0.395109  -0.060145  -0.000396   0.001482
    14  C    0.009647  -0.043101   0.391938   0.006526   0.018361
    15  H   -0.000000   0.000000   0.000000  -0.000247   0.000000
    16  H   -0.000000   0.000000  -0.000000  -0.007940   0.000001
    17  H    0.000000  -0.000000  -0.000092  -0.000116   0.033552
    18  H    0.000000  -0.000000  -0.000000   0.000033  -0.000011
    19  H    0.720083  -0.014022  -0.000231  -0.000247   0.000000
    20  H   -0.014022   0.709564  -0.014199   0.000033  -0.000011
    21  H   -0.000231  -0.014199   0.747718  -0.000116   0.033485
    22  S   -0.000247   0.000033  -0.000116  15.400753  -0.000138
    23  O    0.000000  -0.000011   0.033485  -0.000138   7.713284
          Atomic-Atomic Spin Densities.
               1          2          3          4          5          6
     1  C    0.153922  -0.024803  -0.010576   0.004183  -0.013331   0.006468
     2  C   -0.024803   0.025890   0.042746  -0.003620   0.004006  -0.004578
     3  C   -0.010576   0.042746   0.146269  -0.006389   0.007716  -0.001463
     4  C    0.004183  -0.003620  -0.006389   0.082801  -0.032399  -0.005638
     5  C   -0.013331   0.004006   0.007716  -0.032399   0.118875   0.015795
     6  C    0.006468  -0.004578  -0.001463  -0.005638   0.015795   0.075376
     7  C    0.000362  -0.000919  -0.009723   0.054889  -0.012375  -0.000224
     8  C    0.000015  -0.000072  -0.000701   0.006194  -0.001274  -0.000016
     9  C   -0.000023   0.000500   0.009363  -0.000700   0.000056  -0.000005
    10  C   -0.000000   0.000014   0.000500  -0.000072  -0.000001  -0.000000
    11  H   -0.000000  -0.000001  -0.000006   0.000003   0.000000  -0.000000
    12  C    0.000000  -0.000000  -0.000023   0.000015  -0.000000   0.000000
    13  C    0.000000  -0.000000  -0.000005  -0.000016   0.000000   0.000000
    14  C   -0.000000  -0.000001   0.000056  -0.001273   0.000106   0.000000
    15  H    0.002533  -0.000240  -0.000063  -0.000057  -0.000025  -0.000049
    16  H    0.000137   0.000998   0.000308  -0.000053   0.000001  -0.000061
    17  H   -0.000108   0.000024  -0.000142   0.002377   0.002337  -0.000292
    18  H   -0.000048  -0.000021  -0.000037  -0.000001  -0.000228   0.001736
    19  H   -0.000000   0.000000  -0.000000  -0.000000   0.000000   0.000000
    20  H    0.000000   0.000000   0.000000   0.000000   0.000000   0.000000
    21  H    0.000000  -0.000000  -0.000006  -0.000110   0.000012   0.000000
    22  S    0.000600  -0.010812  -0.071777  -0.001374  -0.000442   0.000256
    23  O   -0.000008   0.000005   0.000238  -0.008307   0.004439   0.000003
               7          8          9         10         11         12
     1  C    0.000362   0.000015  -0.000023  -0.000000  -0.000000   0.000000
     2  C   -0.000919  -0.000072   0.000500   0.000014  -0.000001  -0.000000
     3  C   -0.009723  -0.000701   0.009363   0.000500  -0.000006  -0.000023
     4  C    0.054889   0.006194  -0.000700  -0.000072   0.000003   0.000015
     5  C   -0.012375  -0.001274   0.000056  -0.000001   0.000000  -0.000000
     6  C   -0.000224  -0.000016  -0.000005  -0.000000  -0.000000   0.000000
     7  C    0.210994   0.054907  -0.009729  -0.000920  -0.000008   0.000362
     8  C    0.054907   0.082838  -0.006408  -0.003622  -0.000053   0.004186
     9  C   -0.009729  -0.006408   0.146362   0.042760   0.000308  -0.010583
    10  C   -0.000920  -0.003622   0.042760   0.025887   0.000999  -0.024812
    11  H   -0.000008  -0.000053   0.000308   0.000999  -0.003399   0.000137
    12  C    0.000362   0.004186  -0.010583  -0.024812   0.000137   0.154060
    13  C   -0.000224  -0.005642  -0.001462  -0.004578  -0.000061   0.006451
    14  C   -0.012372  -0.032419   0.007718   0.004006   0.000001  -0.013337
    15  H   -0.000000  -0.000000  -0.000000   0.000000   0.000000  -0.000000
    16  H   -0.000008   0.000003  -0.000006  -0.000001  -0.000000  -0.000000
    17  H    0.000040  -0.000110  -0.000006  -0.000000   0.000000   0.000000
    18  H    0.000004   0.000000   0.000000   0.000000  -0.000000   0.000000
    19  H   -0.000000  -0.000057  -0.000063  -0.000241   0.000199   0.002535
    20  H    0.000004  -0.000001  -0.000037  -0.000021   0.000003  -0.000048
    21  H    0.000041   0.002375  -0.000143   0.000024  -0.000002  -0.000108
    22  S    0.004932  -0.001370  -0.071789  -0.010817  -0.000456   0.000600
    23  O   -0.092956  -0.008309   0.000238   0.000005  -0.000000  -0.000008
              13         14         15         16         17         18
     1  C    0.000000  -0.000000   0.002533   0.000137  -0.000108  -0.000048
     2  C   -0.000000  -0.000001  -0.000240   0.000998   0.000024  -0.000021
     3  C   -0.000005   0.000056  -0.000063   0.000308  -0.000142  -0.000037
     4  C   -0.000016  -0.001273  -0.000057  -0.000053   0.002377  -0.000001
     5  C    0.000000   0.000106  -0.000025   0.000001   0.002337  -0.000228
     6  C    0.000000   0.000000  -0.000049  -0.000061  -0.000292   0.001736
     7  C   -0.000224  -0.012372  -0.000000  -0.000008   0.000040   0.000004
     8  C   -0.005642  -0.032419  -0.000000   0.000003  -0.000110   0.000000
     9  C   -0.001462   0.007718  -0.000000  -0.000006  -0.000006   0.000000
    10  C   -0.004578   0.004006   0.000000  -0.000001  -0.000000   0.000000
    11  H   -0.000061   0.000001   0.000000  -0.000000   0.000000  -0.000000
    12  C    0.006451  -0.013337  -0.000000  -0.000000   0.000000   0.000000
    13  C    0.075384   0.015816   0.000000  -0.000000   0.000000   0.000000
    14  C    0.015816   0.118935   0.000000   0.000000   0.000012   0.000000
    15  H    0.000000   0.000000  -0.008807   0.000199   0.000002   0.000184
    16  H   -0.000000   0.000000   0.000199  -0.003399  -0.000002   0.000003
    17  H    0.000000   0.000012   0.000002  -0.000002  -0.008868   0.000162
    18  H    0.000000   0.000000   0.000184   0.000003   0.000162  -0.005754
    19  H   -0.000048  -0.000025  -0.000000   0.000000   0.000000   0.000000
    20  H    0.001737  -0.000228   0.000000  -0.000000   0.000000  -0.000000
    21  H   -0.000291   0.002335   0.000000   0.000000   0.000007   0.000000
    22  S    0.000256  -0.000442  -0.000000  -0.000456  -0.000005   0.000001
    23  O    0.000003   0.004436  -0.000000  -0.000000  -0.001061  -0.000000
              19         20         21         22         23
     1  C   -0.000000   0.000000   0.000000   0.000600  -0.000008
     2  C    0.000000   0.000000  -0.000000  -0.010812   0.000005
     3  C   -0.000000   0.000000  -0.000006  -0.071777   0.000238
     4  C   -0.000000   0.000000  -0.000110  -0.001374  -0.008307
     5  C    0.000000   0.000000   0.000012  -0.000442   0.004439
     6  C    0.000000   0.000000   0.000000   0.000256   0.000003
     7  C   -0.000000   0.000004   0.000041   0.004932  -0.092956
     8  C   -0.000057  -0.000001   0.002375  -0.001370  -0.008309
     9  C   -0.000063  -0.000037  -0.000143  -0.071789   0.000238
    10  C   -0.000241  -0.000021   0.000024  -0.010817   0.000005
    11  H    0.000199   0.000003  -0.000002  -0.000456  -0.000000
    12  C    0.002535  -0.000048  -0.000108   0.000600  -0.000008
    13  C   -0.000048   0.001737  -0.000291   0.000256   0.000003
    14  C   -0.000025  -0.000228   0.002335  -0.000442   0.004436
    15  H   -0.000000   0.000000   0.000000  -0.000000  -0.000000
    16  H    0.000000  -0.000000   0.000000  -0.000456  -0.000000
    17  H    0.000000   0.000000   0.000007  -0.000005  -0.001061
    18  H    0.000000  -0.000000   0.000000   0.000001  -0.000000
    19  H   -0.008814   0.000184   0.000002  -0.000000  -0.000000
    20  H    0.000184  -0.005755   0.000162   0.000001  -0.000000
    21  H    0.000002   0.000162  -0.008867  -0.000005  -0.001059
    22  S   -0.000000   0.000001  -0.000005   0.608312   0.000005
    23  O   -0.000000  -0.000000  -0.001059   0.000005   0.454886
 Mulliken charges and spin densities:
               1          2
     1  C    0.017775   0.119324
     2  C    0.089511   0.029116
     3  C   -0.237242   0.106286
     4  C    0.067677   0.090453
     5  C    0.035651   0.093268
     6  C    0.074944   0.087308
     7  C    0.007560   0.187076
     8  C    0.067696   0.090465
     9  C   -0.237267   0.106352
    10  C    0.089493   0.029110
    11  H   -0.002445  -0.002337
    12  C    0.017731   0.119428
    13  C    0.074927   0.087318
    14  C    0.035650   0.093322
    15  H   -0.011254  -0.006323
    16  H   -0.002449  -0.002336
    17  H   -0.042438  -0.005632
    18  H   -0.001322  -0.003999
    19  H   -0.011255  -0.006328
    20  H   -0.001321  -0.003999
    21  H   -0.042320  -0.005633
    22  S    0.305564   0.445214
    23  O   -0.294867   0.352548
 Sum of Mulliken charges =  -0.00000   2.00000
 Mulliken charges and spin densities with hydrogens summed into heavy atoms:
               1          2
     1  C    0.006521   0.113001
     2  C    0.087063   0.026780
     3  C   -0.237242   0.106286
     4  C    0.067677   0.090453
     5  C   -0.006787   0.087636
     6  C    0.073622   0.083310
     7  C    0.007560   0.187076
     8  C    0.067696   0.090465
     9  C   -0.237267   0.106352
    10  C    0.087048   0.026773
    12  C    0.006476   0.113100
    13  C    0.073606   0.083318
    14  C   -0.006670   0.087689
    22  S    0.305564   0.445214
    23  O   -0.294867   0.352548
 Electronic spatial extent (au):  <R**2>=          20079.2932
 Charge=             -0.0000 electrons
 Dipole moment (field-independent basis, Debye):
    X=              3.2290    Y=             -5.4943    Z=              0.0799  Tot=              6.3734
 Quadrupole moment (field-independent basis, Debye-Ang):
   XX=           -115.7231   YY=           -110.5552   ZZ=            -96.5511
   XY=             51.3847   XZ=             -0.4069   YZ=              0.1278
 Traceless Quadrupole moment (field-independent basis, Debye-Ang):
   XX=             -8.1133   YY=             -2.9454   ZZ=             11.0587
   XY=             51.3847   XZ=             -0.4069   YZ=              0.1278
 Octapole moment (field-independent basis, Debye-Ang**2):
  XXX=           1778.7045  YYY=           -646.7587  ZZZ=             -2.4222  XYY=            761.5724
  XXY=           -592.8705  XXZ=              1.4923  XZZ=            596.2249  YZZ=           -199.7226
  YYZ=             -0.0708  XYZ=             -0.8011
 Hexadecapole moment (field-independent basis, Debye-Ang**3):
 XXXX=         -22881.2392 YYYY=          -4290.7321 ZZZZ=           -105.5693 XXXY=           6038.5168
 XXXZ=             -2.8960 YYYX=           3939.7520 YYYZ=              1.5220 ZZZX=              8.4015
 ZZZY=             -1.2329 XXYY=          -6228.8707 XXZZ=          -4206.1628 YYZZ=           -734.2273
 XXYZ=              5.2873 YYXZ=             -2.7787 ZZXY=           1050.7570
 N-N= 9.913494557716D+02 E-N=-4.266371079685D+03  KE= 9.690616308688D+02

 Atomic contributions to Alpha molecular orbitals:
 Alpha occ 37 OE=-0.474 is C7-p=0.1011
 Alpha occ 38 OE=-0.445 is H16-s=0.0979
 Alpha occ 39 OE=-0.441 is S22-p=0.1551 C7-p=0.1381 C9-p=0.1195 C3-p=0.1195 C4-p=0.1008 C8-p=0.1008
 Alpha occ 40 OE=-0.440 is C10-p=0.0999
 Alpha occ 41 OE=-0.427 is C7-p=0.0828
 Alpha occ 42 OE=-0.417 is O23-p=0.4287 C7-p=0.1408
 Alpha occ 43 OE=-0.407 is S22-p=0.1654
 Alpha occ 44 OE=-0.394 is C9-p=0.1161 C3-p=0.1160
 Alpha occ 45 OE=-0.388 is O23-p=0.3509 S22-p=0.2209 C7-p=0.2206
 Alpha occ 46 OE=-0.381 is S22-p=0.1615
 Alpha occ 47 OE=-0.365 is H21-s=0.0775
 Alpha occ 48 OE=-0.355 is S22-p=0.0717
 Alpha occ 49 OE=-0.348 is S22-p=0.1668
 Alpha occ 50 OE=-0.346 is S22-p=0.2546 C13-p=0.1316 C6-p=0.1316 C12-p=0.1041 C1-p=0.1041
 Alpha occ 51 OE=-0.289 is C13-p=0.1668 C6-p=0.1668 C3-p=0.1570 C9-p=0.1570
 Alpha occ 52 OE=-0.276 is O23-p=0.2277 C8-p=0.1264 C4-p=0.1262
 Alpha occ 53 OE=-0.273 is C1-p=0.1434 C12-p=0.1432 C4-p=0.1425 C8-p=0.1424
 Alpha occ 54 OE=-0.250 is S22-p=0.2716 C6-p=0.1071 C13-p=0.1071
 Alpha occ 55 OE=-0.248 is O23-p=0.7095
 Alpha occ 56 OE=-0.121 is C7-p=0.2180 O23-p=0.1490
 Alpha vir 57 OE=-0.046 is C6-p=0.1300 C13-p=0.1300 C4-p=0.1260 C8-p=0.1260 C3-p=0.1172 C9-p=0.1171
 Alpha vir 58 OE=-0.028 is C2-p=0.1210 C10-p=0.1204 C3-p=0.1157 C9-p=0.1155 C5-p=0.1106 C14-p=0.1100
 Alpha vir 59 OE=-0.026 is C10-p=0.1628 C2-p=0.1622 C14-p=0.1497 C5-p=0.1492
 Alpha vir 60 OE=0.003 is S22-p=0.4998 S22-d=0.1018
 Alpha vir 61 OE=0.045 is C7-p=0.2112 C1-p=0.1355 C12-p=0.1355
 Alpha vir 62 OE=0.050 is S22-p=0.2017
 Alpha vir 63 OE=0.079 is H20-s=0.2263 H18-s=0.2258 H19-s=0.2228 H15-s=0.2222
 Alpha vir 64 OE=0.081 is H18-s=0.1594 H20-s=0.1587 S22-p=0.1461 H16-s=0.1273 H11-s=0.1273
 Alpha vir 65 OE=0.103 is H16-s=0.2293 H11-s=0.2284 H17-s=0.1719 H21-s=0.1710 H18-s=0.1311 H20-s=0.1309
 Alpha vir 66 OE=0.107 is H11-s=0.2101 H16-s=0.2092 H21-s=0.1601 H17-s=0.1597 H20-s=0.1262 H18-s=0.1253
 Alpha vir 67 OE=0.124 is C5-p=0.0953
 Alpha vir 68 OE=0.128 is H17-s=0.2097 H21-s=0.2093 H16-s=0.1309 H11-s=0.1306 H19-s=0.1028 H15-s=0.1026
 Alpha vir 69 OE=0.146 is H19-s=0.2692 H15-s=0.2651 H18-s=0.1542 H20-s=0.1532
 Alpha vir 70 OE=0.148 is H16-s=0.2386 H11-s=0.2358 H15-s=0.1741 H19-s=0.1696 H21-s=0.1306 H17-s=0.1279
 Alpha vir 71 OE=0.152 is H21-s=0.2622 H17-s=0.2611 H20-s=0.2329 H18-s=0.2323 H19-s=0.1066 H15-s=0.1063
 Alpha vir 72 OE=0.166 is C7-p=0.1725 C8-p=0.1395 C4-p=0.1394
 Alpha vir 73 OE=0.196 is C3-p=0.2538 C9-p=0.2538 S22-d=0.1153
 Alpha vir 74 OE=0.237 is C6-p=0.1308 C13-p=0.1306
 Alpha vir 75 OE=0.244 is C7-p=0.2632
 Alpha vir 76 OE=0.254 is C10-p=0.2266 C2-p=0.2265

 Atomic contributions to Beta  molecular orbitals:
 Beta  occ 35 OE=-0.476 is C3-p=0.0801
 Beta  occ 36 OE=-0.475 is C6-p=0.1074 C13-p=0.1073 C12-p=0.1047 C1-p=0.1046
 Beta  occ 37 OE=-0.471 is C7-p=0.0980
 Beta  occ 38 OE=-0.443 is H16-s=0.0997
 Beta  occ 39 OE=-0.439 is C10-p=0.1016 C2-p=0.1013
 Beta  occ 40 OE=-0.425 is C7-p=0.0843
 Beta  occ 41 OE=-0.419 is S22-p=0.1346 C9-p=0.1341 C3-p=0.1341 C4-p=0.1031 C8-p=0.1030 C7-p=0.1026
 Beta  occ 42 OE=-0.408 is O23-p=0.4184 C7-p=0.1268
 Beta  occ 43 OE=-0.403 is S22-p=0.1435
 Beta  occ 44 OE=-0.380 is C9-p=0.1081 C3-p=0.1080
 Beta  occ 45 OE=-0.377 is S22-p=0.1908
 Beta  occ 46 OE=-0.363 is H21-s=0.0780
 Beta  occ 47 OE=-0.353 is S22-p=0.0700
 Beta  occ 48 OE=-0.349 is O23-p=0.2844 C7-p=0.2781 S22-p=0.1541
 Beta  occ 49 OE=-0.344 is S22-p=0.1853
 Beta  occ 50 OE=-0.322 is S22-p=0.2251 C13-p=0.1442 C6-p=0.1442 C12-p=0.1093 C1-p=0.1093
 Beta  occ 51 OE=-0.269 is C5-p=0.1359 C14-p=0.1359 C6-p=0.1243 C13-p=0.1243 C3-p=0.1165 C9-p=0.1164 C2-p=0.1031 C10-p=0.1030
 Beta  occ 52 OE=-0.261 is C1-p=0.1617 C12-p=0.1616 C4-p=0.1495 C8-p=0.1494
 Beta  occ 53 OE=-0.250 is O23-p=0.1923 C10-p=0.1171 C2-p=0.1170 C14-p=0.1084 C5-p=0.1083
 Beta  occ 54 OE=-0.239 is O23-p=0.7132
 Beta  vir 55 OE=-0.184 is S22-p=0.3553
 Beta  vir 56 OE=-0.051 is O23-p=0.1578 C7-p=0.1217 C12-p=0.1066 C1-p=0.1065 C5-p=0.1011 C14-p=0.1011
 Beta  vir 57 OE=-0.032 is C6-p=0.1494 C13-p=0.1493 C3-p=0.1369 C9-p=0.1368
 Beta  vir 58 OE=-0.012 is C3-p=0.1454 C9-p=0.1454 C6-p=0.1010 C13-p=0.1010
 Beta  vir 59 OE=-0.010 is C14-p=0.1375 C5-p=0.1369 C10-p=0.1334 C2-p=0.1328 C1-p=0.1095 C12-p=0.1095
 Beta  vir 60 OE=0.007 is S22-p=0.5001 S22-d=0.1002
 Beta  vir 61 OE=0.056 is S22-p=0.1455 H19-s=0.1250 H15-s=0.1249
 Beta  vir 62 OE=0.071 is C7-p=0.2235 C12-p=0.1261 C1-p=0.1261
 Beta  vir 63 OE=0.080 is H20-s=0.2280 H18-s=0.2280 H19-s=0.2202 H15-s=0.2199
 Beta  vir 64 OE=0.086 is S22-p=0.1903 H18-s=0.1363 H20-s=0.1361 H11-s=0.1151 H16-s=0.1150
 Beta  vir 65 OE=0.103 is H16-s=0.2309 H11-s=0.2301 H17-s=0.1703 H21-s=0.1694 H18-s=0.1328 H20-s=0.1326
 Beta  vir 66 OE=0.108 is H11-s=0.2091 H16-s=0.2083 H21-s=0.1605 H17-s=0.1602 H20-s=0.1237 H18-s=0.1228
 Beta  vir 67 OE=0.130 is H17-s=0.2116 H21-s=0.2112 H16-s=0.1333 H11-s=0.1330 H19-s=0.1089 H15-s=0.1087
 Beta  vir 68 OE=0.137 is C5-p=0.0965
 Beta  vir 69 OE=0.148 is H19-s=0.2673 H15-s=0.2623 H18-s=0.1568 H20-s=0.1556
 Beta  vir 70 OE=0.149 is H16-s=0.2359 H11-s=0.2326 H15-s=0.1682 H19-s=0.1627 H21-s=0.1374 H17-s=0.1340
 Beta  vir 71 OE=0.154 is H21-s=0.2546 H17-s=0.2534 H20-s=0.2328 H18-s=0.2321 H19-s=0.1136 H15-s=0.1133
 Beta  vir 72 OE=0.186 is C7-p=0.2107 C8-p=0.1350 C4-p=0.1349
 Beta  vir 73 OE=0.198 is C3-p=0.2574 C9-p=0.2573 S22-d=0.1156
 Beta  vir 74 OE=0.241 is C6-p=0.1357 C13-p=0.1355
 
                          Isotropic Fermi Contact Couplings
        Atom                 a.u.       MegaHertz       Gauss      10(-4) cm-1
     1  C(13)              0.01200       6.74542       2.40693       2.25003
     2  C(13)             -0.00124      -0.69779      -0.24899      -0.23276
     3  C(13)              0.00880       4.94664       1.76509       1.65002
     4  C(13)             -0.00202      -1.13305      -0.40430      -0.37794
     5  C(13)              0.00684       3.84342       1.37143       1.28203
     6  C(13)              0.00576       3.23879       1.15568       1.08034
     7  C(13)              0.01344       7.55663       2.69639       2.52062
     8  C(13)             -0.00202      -1.13323      -0.40436      -0.37800
     9  C(13)              0.00881       4.95183       1.76694       1.65175
    10  C(13)             -0.00125      -0.69990      -0.24974      -0.23346
    11  H(1)              -0.00075      -1.66829      -0.59529      -0.55648
    12  C(13)              0.01201       6.75241       2.40943       2.25236
    13  C(13)              0.00576       3.23777       1.15532       1.08001
    14  C(13)              0.00684       3.84727       1.37280       1.28331
    15  H(1)              -0.00206      -4.60963      -1.64483      -1.53761
    16  H(1)              -0.00075      -1.66805      -0.59520      -0.55640
    17  H(1)              -0.00159      -3.54559      -1.26515      -1.18268
    18  H(1)              -0.00137      -3.06964      -1.09533      -1.02392
    19  H(1)              -0.00206      -4.61322      -1.64611      -1.53880
    20  H(1)              -0.00137      -3.07008      -1.09548      -1.02407
    21  H(1)              -0.00159      -3.54749      -1.26583      -1.18332
    22  S(33)              0.08417      14.45591       5.15823       4.82197
    23  O(17)              0.07618     -23.08988      -8.23904      -7.70196
 --------------------------------------------------------
       Center         ----  Spin Dipole Couplings  ----
                      3XX-RR        3YY-RR        3ZZ-RR
 --------------------------------------------------------
     1   Atom       -0.069919     -0.068290      0.138209
     2   Atom       -0.024426     -0.025691      0.050117
     3   Atom       -0.086755     -0.081769      0.168524
     4   Atom       -0.054900     -0.046899      0.101799
     5   Atom       -0.046477     -0.048777      0.095255
     6   Atom       -0.052504     -0.050974      0.103478
     7   Atom       -0.140688     -0.120568      0.261256
     8   Atom       -0.045255     -0.056568      0.101823
     9   Atom       -0.082602     -0.086014      0.168615
    10   Atom       -0.021197     -0.028927      0.050124
    11   Atom        0.006506     -0.000133     -0.006372
    12   Atom       -0.066610     -0.071715      0.138325
    13   Atom       -0.049850     -0.053642      0.103492
    14   Atom       -0.043818     -0.051496      0.095314
    15   Atom       -0.004682      0.007348     -0.002666
    16   Atom       -0.002254      0.008624     -0.006370
    17   Atom        0.001704      0.005293     -0.006998
    18   Atom        0.011878     -0.007675     -0.004203
    19   Atom        0.013658     -0.010992     -0.002666
    20   Atom       -0.002978      0.007184     -0.004205
    21   Atom        0.003473      0.003522     -0.006996
    22   Atom       -1.027543     -1.048367      2.075910
    23   Atom       -0.703636     -0.712361      1.415998
 --------------------------------------------------------
                        XY            XZ            YZ
 --------------------------------------------------------
     1   Atom        0.002486     -0.001656      0.001995
     2   Atom        0.004934     -0.000624      0.000768
     3   Atom        0.000448     -0.002026      0.002378
     4   Atom        0.004164     -0.001289      0.001422
     5   Atom        0.005223     -0.001141      0.001412
     6   Atom        0.001748     -0.001230      0.001504
     7   Atom       -0.018107     -0.003177      0.003590
     8   Atom       -0.001208     -0.001147      0.001464
     9   Atom       -0.001890     -0.001972      0.002379
    10   Atom        0.003138     -0.000606      0.000766
    11   Atom       -0.004341      0.000143     -0.000093
    12   Atom        0.000612     -0.001639      0.001971
    13   Atom        0.000265     -0.001237      0.001468
    14   Atom        0.003725     -0.001154      0.001384
    15   Atom        0.010763     -0.000118     -0.000011
    16   Atom        0.000536      0.000028     -0.000137
    17   Atom       -0.001134      0.000079     -0.000125
    18   Atom        0.000083      0.000125      0.000034
    19   Atom        0.000555      0.000125      0.000082
    20   Atom        0.008355     -0.000068     -0.000039
    21   Atom       -0.002131      0.000105     -0.000113
    22   Atom        0.018537     -0.025106      0.029831
    23   Atom        0.007712     -0.017808      0.021229
 --------------------------------------------------------


 ---------------------------------------------------------------------------------
              Anisotropic Spin Dipole Couplings in Principal Axis System
 ---------------------------------------------------------------------------------

       Atom             a.u.   MegaHertz   Gauss  10(-4) cm-1        Axes

              Baa    -0.0718    -9.628    -3.436    -3.212  0.8088 -0.5879  0.0120
     1 C(13)  Bbb    -0.0665    -8.922    -3.184    -2.976  0.5880  0.8089 -0.0031
              Bcc     0.1382    18.551     6.619     6.188 -0.0078  0.0096  0.9999
 
              Baa    -0.0300    -4.032    -1.439    -1.345 -0.6605  0.7507 -0.0123
     2 C(13)  Bbb    -0.0201    -2.695    -0.962    -0.899  0.7508  0.6606 -0.0006
              Bcc     0.0501     6.727     2.400     2.244 -0.0077  0.0096  0.9999
 
              Baa    -0.0868   -11.650    -4.157    -3.886  0.9957 -0.0925  0.0088
     3 C(13)  Bbb    -0.0817   -10.970    -3.914    -3.659  0.0926  0.9957 -0.0087
              Bcc     0.1686    22.619     8.071     7.545 -0.0079  0.0095  0.9999
 
              Baa    -0.0567    -7.608    -2.715    -2.538  0.9196 -0.3926  0.0110
     4 C(13)  Bbb    -0.0451    -6.056    -2.161    -2.020  0.3927  0.9197 -0.0055
              Bcc     0.1018    13.664     4.876     4.558 -0.0080  0.0093  0.9999
 
              Baa    -0.0530    -7.112    -2.538    -2.372 -0.6265  0.7794 -0.0122
     5 C(13)  Bbb    -0.0423    -5.673    -2.024    -1.892  0.7794  0.6265  0.0000
              Bcc     0.0953    12.785     4.562     4.265 -0.0077  0.0095  0.9999
 
              Baa    -0.0537    -7.202    -2.570    -2.402  0.8359 -0.5488  0.0118
     6 C(13)  Bbb    -0.0498    -6.687    -2.386    -2.231  0.5488  0.8359 -0.0038
              Bcc     0.1035    13.889     4.956     4.633 -0.0078  0.0097  0.9999
 
              Baa    -0.1513   -20.309    -7.247    -6.774  0.8620  0.5069  0.0022
     7 C(13)  Bbb    -0.1100   -14.757    -5.266    -4.923 -0.5068  0.8619 -0.0127
              Bcc     0.2613    35.066    12.513    11.697 -0.0083  0.0098  0.9999
 
              Baa    -0.0567    -7.610    -2.715    -2.538  0.1041  0.9945 -0.0084
     8 C(13)  Bbb    -0.0451    -6.057    -2.161    -2.020  0.9945 -0.1040  0.0088
              Bcc     0.1018    13.667     4.877     4.559 -0.0079  0.0093  0.9999
 
              Baa    -0.0869   -11.656    -4.159    -3.888  0.4036  0.9149 -0.0054
     9 C(13)  Bbb    -0.0818   -10.976    -3.916    -3.661  0.9149 -0.4035  0.0110
              Bcc     0.1687    22.632     8.076     7.549 -0.0079  0.0094  0.9999
 
              Baa    -0.0301    -4.033    -1.439    -1.345 -0.3348  0.9422 -0.0115
    10 C(13)  Bbb    -0.0201    -2.695    -0.962    -0.899  0.9423  0.3348  0.0045
              Bcc     0.0501     6.728     2.401     2.244 -0.0081  0.0094  0.9999
 
              Baa    -0.0064    -3.401    -1.214    -1.134 -0.0079  0.0094  0.9999
    11 H(1)   Bbb    -0.0023    -1.216    -0.434    -0.406  0.4431  0.8965 -0.0049
              Bcc     0.0087     4.617     1.647     1.540  0.8964 -0.4430  0.0113
 
              Baa    -0.0718    -9.636    -3.438    -3.214 -0.1201  0.9927 -0.0102
    12 C(13)  Bbb    -0.0665    -8.930    -3.186    -2.979  0.9927  0.1202  0.0068
              Bcc     0.1384    18.566     6.625     6.193 -0.0080  0.0094  0.9999
 
              Baa    -0.0537    -7.203    -2.570    -2.403 -0.0723  0.9973 -0.0099
    13 C(13)  Bbb    -0.0498    -6.688    -2.386    -2.231  0.9974  0.0724  0.0074
              Bcc     0.1035    13.891     4.957     4.633 -0.0081  0.0093  0.9999
 
              Baa    -0.0530    -7.116    -2.539    -2.374 -0.3762  0.9265 -0.0116
    14 C(13)  Bbb    -0.0423    -5.678    -2.026    -1.894  0.9265  0.3763  0.0040
              Bcc     0.0953    12.793     4.565     4.267 -0.0080  0.0092  0.9999
 
              Baa    -0.0110    -5.868    -2.094    -1.957  0.8625 -0.5060  0.0116
    15 H(1)   Bbb    -0.0027    -1.422    -0.507    -0.474 -0.0078  0.0095  0.9999
              Bcc     0.0137     7.290     2.601     2.432  0.5060  0.8625 -0.0043
 
              Baa    -0.0064    -3.400    -1.213    -1.134 -0.0079  0.0094  0.9999
    16 H(1)   Bbb    -0.0023    -1.216    -0.434    -0.406  0.9988 -0.0490  0.0084
              Bcc     0.0087     4.616     1.647     1.540  0.0491  0.9988 -0.0090
 
              Baa    -0.0070    -3.735    -1.333    -1.246 -0.0079  0.0094  0.9999
    17 H(1)   Bbb     0.0014     0.734     0.262     0.245  0.9605  0.2781  0.0050
              Bcc     0.0056     3.000     1.071     1.001 -0.2781  0.9605 -0.0113
 
              Baa    -0.0077    -4.095    -1.461    -1.366 -0.0042  0.9999 -0.0097
    18 H(1)   Bbb    -0.0042    -2.243    -0.800    -0.748 -0.0078  0.0097  0.9999
              Bcc     0.0119     6.338     2.262     2.114  1.0000  0.0043  0.0078
 
              Baa    -0.0110    -5.872    -2.095    -1.959 -0.0224  0.9997 -0.0095
    19 H(1)   Bbb    -0.0027    -1.422    -0.508    -0.474 -0.0080  0.0093  0.9999
              Bcc     0.0137     7.294     2.603     2.433  0.9997  0.0225  0.0078
 
              Baa    -0.0077    -4.096    -1.461    -1.366  0.8716 -0.4900  0.0115
    20 H(1)   Bbb    -0.0042    -2.244    -0.801    -0.748 -0.0080  0.0093  0.9999
              Bcc     0.0119     6.340     2.262     2.115  0.4901  0.8717 -0.0042
 
              Baa    -0.0070    -3.734    -1.332    -1.245 -0.0082  0.0091  0.9999
    21 H(1)   Bbb     0.0014     0.729     0.260     0.243  0.7112  0.7030 -0.0006
              Bcc     0.0056     3.004     1.072     1.002 -0.7029  0.7111 -0.0122
 
              Baa    -1.0597   -43.446   -15.503   -14.492 -0.5067  0.8620 -0.0123
    22 S(33)  Bbb    -1.0167   -41.684   -14.874   -13.904  0.8621  0.5068  0.0021
              Bcc     2.0764    85.130    30.377    28.396 -0.0080  0.0095  0.9999
 
              Baa    -0.7172    51.897    18.518    17.311 -0.5066  0.8621 -0.0128
    23 O(17)  Bbb    -0.6991    50.590    18.052    16.875  0.8621  0.5067  0.0022
              Bcc     1.4164  -102.487   -36.570   -34.186 -0.0084  0.0099  0.9999
 

 ---------------------------------------------------------------------------------

 No NMR shielding tensors so no spin-rotation constants.
 Leave Link  601 at Tue Aug 18 12:32:29 2026, MaxMem=  2684354560 cpu:               0.5 elap:               0.5
 (Enter /mnt/data/applications/G16/g16/l701.exe)
 ... and contract with generalized density number  0.
 Compute integral first derivatives.
 R6Disp: Adding Grimme-D3(BJ) dispersion energy 1st derivatives to the gradient.
   1 Symmetry operations used in ECPInt.
 ECPInt:  NShTT=    6786 NPrTT=   65756 LenC2=    6458 LenP2D=   34293.
 LDataN:  DoStor=T MaxTD1= 5 Len=  102
 D1PCM: PCM CHGder 1st derivatives, ID1Alg=3 FixD1E=F DoIter=F DoCFld=F I1PDM=0.
 GePol: Maximum number of non-zero 1st derivatives   =     247
 Leave Link  701 at Tue Aug 18 12:32:43 2026, MaxMem=  2684354560 cpu:              13.4 elap:              13.4
 (Enter /mnt/data/applications/G16/g16/l702.exe)
 L702 exits ... SP integral derivatives will be done elsewhere.
 Leave Link  702 at Tue Aug 18 12:32:43 2026, MaxMem=  2684354560 cpu:               0.0 elap:               0.0
 (Enter /mnt/data/applications/G16/g16/l703.exe)
 Integral derivatives from FoFJK, PRISM(SPDF).
 Compute integral first derivatives, UseDBF=F ICtDFT=           0.
 Calling FoFJK, ICntrl=      2127 FMM=F ISym2X=0 I1Cent= 0 IOpClX= 1 NMat=1 NMatS=1 NMatT=0.
 FoFJK:  IHMeth= 1 ICntrl=    2127 DoSepK=F KAlg= 0 I1Cent=           0 FoldK=F
 IRaf=         0 NMat=       1 IRICut=       1 DoRegI=T DoRafI=F ISym2E= 0 IDoP0=0 IntGTp=1.
 FoFCou: FMM=F IPFlag=           0 FMFlag=      100000 FMFlg1=         800
         NFxFlg=           0 DoJE=F BraDBF=F KetDBF=F FulRan=T
         wScrn=  0.000000 ICntrl=      2127 IOpCl=  1 I1Cent=           0 NGrid=           0
         NMat0=    1 NMatS0=      1 NMatT0=    0 NMatD0=    1 NMtDS0=    0 NMtDT0=    0
 Symmetry not used in FoFCou.
 Leave Link  703 at Tue Aug 18 12:35:06 2026, MaxMem=  2684354560 cpu:             142.6 elap:             142.8
 (Enter /mnt/data/applications/G16/g16/l716.exe)
 Dipole        = 1.27037512D+00-2.16161038D+00 3.14446656D-02
 -------------------------------------------------------------------
 Center     Atomic                   Forces (Hartrees/Bohr)
 Number     Number              X              Y              Z
 -------------------------------------------------------------------
      1        6          -0.007228433   -0.009539156    0.000035727
      2        6           0.005403560   -0.000806946    0.000050389
      3        6           0.000796191   -0.020396311    0.000206241
      4        6           0.009108986    0.033247823   -0.000239602
      5        6          -0.001443406    0.003015808   -0.000040535
      6        6           0.003340589   -0.002076696    0.000043872
      7        6           0.032774387   -0.055738686    0.000790178
      8        6          -0.033492980    0.008213084   -0.000349612
      9        6           0.017443650   -0.010629520    0.000247767
     10        6          -0.001952342   -0.005129461    0.000032173
     11        1           0.000179397    0.000009552    0.000003922
     12        6           0.011862868    0.001667761    0.000080508
     13        6           0.000180076   -0.003923081    0.000037454
     14        6          -0.001926766    0.002736236   -0.000039475
     15        1           0.000460302    0.000546911   -0.000002129
     16        1          -0.000113296   -0.000136028    0.000001217
     17        1           0.001164312   -0.000190252    0.000009851
     18        1          -0.000297474   -0.000132564   -0.000002080
     19        1          -0.000701945   -0.000136237   -0.000003322
     20        1           0.000262575    0.000191572   -0.000000844
     21        1          -0.000382437   -0.001115643    0.000009800
     22       16          -0.007876453    0.013461402   -0.000191618
     23        8          -0.027561363    0.046860434   -0.000679882
 -------------------------------------------------------------------
 Cartesian Forces:  Max     0.055738686 RMS     0.012624327
 Leave Link  716 at Tue Aug 18 12:35:07 2026, MaxMem=  2684354560 cpu:               0.0 elap:               0.0
 (Enter /mnt/data/applications/G16/g16/l103.exe)

 GradGradGradGradGradGradGradGradGradGradGradGradGradGradGradGradGradGrad
 Berny optimization.
 FormGI is forming the generalized inverse of G from B-inverse, IUseBI=4.
 Internal  Forces:  Max     0.054369026 RMS     0.006130420
 Search for a local minimum.
 Step number   1 out of a maximum of  135
 All quantities printed in internal units (Hartrees-Bohrs-Radians)
 RMS Force = .61304D-02 SwitMx=.10000D-02 MixMth= 1
 Mixed Optimization -- RFO/linear search
 Second derivative matrix not updated -- first step.
 ITU=  0
     Eigenvalues ---    0.00934   0.00985   0.01458   0.01558   0.01679
     Eigenvalues ---    0.01720   0.01810   0.01828   0.02052   0.02054
     Eigenvalues ---    0.02063   0.02063   0.02108   0.02108   0.02127
     Eigenvalues ---    0.02127   0.02143   0.02144   0.02185   0.02185
     Eigenvalues ---    0.16000   0.16000   0.16000   0.16000   0.16000
     Eigenvalues ---    0.16000   0.16000   0.16000   0.22000   0.22000
     Eigenvalues ---    0.22555   0.22597   0.24479   0.24503   0.25000
     Eigenvalues ---    0.25000   0.25000   0.25000   0.29023   0.29025
     Eigenvalues ---    0.33608   0.33782   0.34601   0.34605   0.34606
     Eigenvalues ---    0.34607   0.34669   0.34670   0.34811   0.34813
     Eigenvalues ---    0.38675   0.40614   0.41106   0.41108   0.43509
     Eigenvalues ---    0.44014   0.44338   0.44439   0.46423   0.46427
     Eigenvalues ---    0.47390   0.47396   0.89143
 RFO step:  Lambda=-8.79637509D-03 EMin= 9.33938011D-03
 Linear search not attempted -- first point.
 Iteration  1 RMS(Cart)=  0.02262623 RMS(Int)=  0.00016313
 Iteration  2 RMS(Cart)=  0.00039069 RMS(Int)=  0.00004602
 Iteration  3 RMS(Cart)=  0.00000003 RMS(Int)=  0.00004602
 ITry= 1 IFail=0 DXMaxC= 9.54D-02 DCOld= 1.00D+10 DXMaxT= 3.00D-01 DXLimC= 3.00D+00 Rises=F
 Variable       Old X    -DE/DX   Delta X   Delta X   Delta X     New X
                                 (Linear)    (Quad)   (Total)
    R1        2.62484   0.00247   0.00000   0.00493   0.00487   2.62971
    R2        2.65623   0.00412   0.00000   0.00860   0.00857   2.66480
    R3        2.06318  -0.00071   0.00000  -0.00200  -0.00200   2.06119
    R4        2.66151   0.00118   0.00000   0.00288   0.00285   2.66437
    R5        2.06321   0.00007   0.00000   0.00020   0.00020   2.06341
    R6        2.66466   0.01514   0.00000   0.03418   0.03420   2.69886
    R7        3.33110  -0.00723   0.00000  -0.02378  -0.02371   3.30739
    R8        2.66719   0.00118   0.00000   0.00282   0.00287   2.67006
    R9        2.80337  -0.00983   0.00000  -0.02822  -0.02829   2.77508
   R10        2.62011   0.00809   0.00000   0.01633   0.01635   2.63646
   R11        2.05983  -0.00067   0.00000  -0.00187  -0.00187   2.05796
   R12        2.06215   0.00029   0.00000   0.00081   0.00081   2.06296
   R13        2.80329  -0.00982   0.00000  -0.02819  -0.02826   2.77503
   R14        2.33331   0.05437   0.00000   0.06040   0.06040   2.39370
   R15        2.66470   0.01515   0.00000   0.03421   0.03423   2.69893
   R16        2.66721   0.00119   0.00000   0.00284   0.00290   2.67011
   R17        2.66143   0.00116   0.00000   0.00283   0.00280   2.66424
   R18        3.33111  -0.00727   0.00000  -0.02389  -0.02382   3.30729
   R19        2.06327   0.00009   0.00000   0.00026   0.00026   2.06353
   R20        2.62486   0.00248   0.00000   0.00495   0.00489   2.62976
   R21        2.65625   0.00413   0.00000   0.00862   0.00859   2.66484
   R22        2.06319  -0.00071   0.00000  -0.00200  -0.00200   2.06119
   R23        2.62012   0.00808   0.00000   0.01632   0.01634   2.63647
   R24        2.06216   0.00029   0.00000   0.00081   0.00081   2.06297
   R25        2.05980  -0.00068   0.00000  -0.00191  -0.00191   2.05789
    A1        2.09957  -0.00504   0.00000  -0.02330  -0.02339   2.07617
    A2        2.08480   0.00242   0.00000   0.01108   0.01112   2.09593
    A3        2.09881   0.00262   0.00000   0.01223   0.01227   2.11108
    A4        2.09722  -0.00089   0.00000  -0.00376  -0.00384   2.09338
    A5        2.09843   0.00028   0.00000   0.00090   0.00094   2.09937
    A6        2.08753   0.00061   0.00000   0.00286   0.00290   2.09044
    A7        2.09787   0.00830   0.00000   0.03306   0.03303   2.13090
    A8        2.01884  -0.00086   0.00000  -0.00424  -0.00427   2.01456
    A9        2.16648  -0.00744   0.00000  -0.02882  -0.02876   2.13772
   A10        2.06593  -0.00948   0.00000  -0.03551  -0.03538   2.03055
   A11        2.16812   0.00397   0.00000   0.01482   0.01470   2.18283
   A12        2.04913   0.00551   0.00000   0.02068   0.02068   2.06981
   A13        2.11998   0.00033   0.00000   0.00130   0.00138   2.12136
   A14        2.04546  -0.00117   0.00000  -0.00658  -0.00662   2.03884
   A15        2.11775   0.00083   0.00000   0.00528   0.00524   2.12299
   A16        2.08581   0.00678   0.00000   0.02821   0.02820   2.11400
   A17        2.09815  -0.00355   0.00000  -0.01503  -0.01502   2.08313
   A18        2.09923  -0.00323   0.00000  -0.01318  -0.01317   2.08605
   A19        2.09058  -0.00055   0.00000  -0.00237  -0.00252   2.08806
   A20        2.09624   0.00026   0.00000   0.00114   0.00121   2.09745
   A21        2.09637   0.00029   0.00000   0.00123   0.00131   2.09767
   A22        2.16802   0.00397   0.00000   0.01480   0.01468   2.18270
   A23        2.04933   0.00552   0.00000   0.02076   0.02075   2.07008
   A24        2.06584  -0.00949   0.00000  -0.03556  -0.03543   2.03041
   A25        2.09793   0.00832   0.00000   0.03313   0.03310   2.13103
   A26        2.16657  -0.00743   0.00000  -0.02879  -0.02873   2.13785
   A27        2.01868  -0.00089   0.00000  -0.00434  -0.00438   2.01430
   A28        2.08743   0.00061   0.00000   0.00285   0.00289   2.09032
   A29        2.09726  -0.00090   0.00000  -0.00379  -0.00387   2.09339
   A30        2.09849   0.00029   0.00000   0.00095   0.00099   2.09948
   A31        2.09950  -0.00505   0.00000  -0.02331  -0.02340   2.07610
   A32        2.08476   0.00243   0.00000   0.01111   0.01116   2.09591
   A33        2.09893   0.00261   0.00000   0.01220   0.01224   2.11118
   A34        2.08583   0.00678   0.00000   0.02823   0.02822   2.11405
   A35        2.09825  -0.00355   0.00000  -0.01503  -0.01503   2.08322
   A36        2.09911  -0.00324   0.00000  -0.01320  -0.01319   2.08591
   A37        2.12001   0.00033   0.00000   0.00131   0.00138   2.12140
   A38        2.04562  -0.00116   0.00000  -0.00653  -0.00657   2.03905
   A39        2.11755   0.00082   0.00000   0.00522   0.00518   2.12274
   A40        1.80659   0.00748   0.00000   0.03037   0.03062   1.83721
    D1        0.00002  -0.00000   0.00000   0.00000  -0.00000   0.00002
    D2       -3.14155  -0.00000   0.00000   0.00000  -0.00000  -3.14155
    D3       -3.14156  -0.00000   0.00000  -0.00001  -0.00001  -3.14157
    D4        0.00005  -0.00000   0.00000  -0.00001  -0.00001   0.00005
    D5        0.00005  -0.00000   0.00000  -0.00000  -0.00000   0.00005
    D6       -3.14155  -0.00000   0.00000   0.00000   0.00000  -3.14154
    D7       -3.14156   0.00000   0.00000   0.00001   0.00001  -3.14155
    D8        0.00003   0.00000   0.00000   0.00001   0.00001   0.00004
    D9       -0.00005  -0.00000   0.00000  -0.00002  -0.00002  -0.00007
   D10        3.14144  -0.00000   0.00000  -0.00000  -0.00000   3.14144
   D11        3.14152  -0.00000   0.00000  -0.00002  -0.00002   3.14150
   D12       -0.00017  -0.00000   0.00000  -0.00000  -0.00000  -0.00018
   D13        0.00001   0.00000   0.00000   0.00003   0.00003   0.00004
   D14        3.14156   0.00000   0.00000   0.00004   0.00004  -3.14158
   D15       -3.14147   0.00000   0.00000   0.00002   0.00002  -3.14145
   D16        0.00008   0.00000   0.00000   0.00003   0.00003   0.00011
   D17       -3.14145   0.00000   0.00000   0.00010   0.00010  -3.14134
   D18        0.00004   0.00000   0.00000   0.00012   0.00012   0.00016
   D19        0.00006  -0.00000   0.00000  -0.00003  -0.00003   0.00003
   D20       -3.14158  -0.00000   0.00000  -0.00001  -0.00001  -3.14159
   D21       -3.14149  -0.00000   0.00000  -0.00004  -0.00004  -3.14154
   D22        0.00005  -0.00000   0.00000  -0.00002  -0.00002   0.00003
   D23       -0.00030  -0.00000   0.00000  -0.00019  -0.00019  -0.00049
   D24        3.14106   0.00001   0.00000   0.00035   0.00035   3.14141
   D25        3.14125  -0.00000   0.00000  -0.00018  -0.00018   3.14107
   D26       -0.00057   0.00001   0.00000   0.00036   0.00036  -0.00022
   D27       -0.00010   0.00000   0.00000   0.00002   0.00002  -0.00008
   D28        3.14150   0.00000   0.00000   0.00001   0.00001   3.14152
   D29        3.14155  -0.00000   0.00000  -0.00001  -0.00001   3.14154
   D30       -0.00004  -0.00000   0.00000  -0.00001  -0.00001  -0.00004
   D31        0.00040   0.00000   0.00000   0.00018   0.00018   0.00058
   D32       -3.14133   0.00000   0.00000   0.00024   0.00024  -3.14109
   D33       -3.14096  -0.00001   0.00000  -0.00036  -0.00036  -3.14131
   D34        0.00050  -0.00001   0.00000  -0.00030  -0.00030   0.00020
   D35        3.14135  -0.00000   0.00000  -0.00002  -0.00002   3.14133
   D36       -0.00027  -0.00000   0.00000  -0.00001  -0.00001  -0.00028
   D37       -0.00011  -0.00000   0.00000  -0.00007  -0.00007  -0.00019
   D38        3.14146  -0.00000   0.00000  -0.00007  -0.00007   3.14139
   D39       -3.14141   0.00000   0.00000   0.00003   0.00003  -3.14138
   D40        0.00016   0.00000   0.00000   0.00003   0.00003   0.00019
   D41        0.00006   0.00000   0.00000   0.00009   0.00008   0.00014
   D42       -3.14156   0.00000   0.00000   0.00009   0.00009  -3.14148
   D43       -3.14148   0.00000   0.00000   0.00000   0.00000  -3.14147
   D44        0.00008   0.00000   0.00000   0.00002   0.00002   0.00011
   D45        0.00014  -0.00000   0.00000  -0.00000  -0.00000   0.00014
   D46       -3.14149   0.00000   0.00000   0.00002   0.00002  -3.14147
   D47        0.00005  -0.00000   0.00000  -0.00013  -0.00013  -0.00008
   D48       -3.14157  -0.00000   0.00000  -0.00012  -0.00012   3.14150
   D49        0.00000   0.00000   0.00000   0.00002   0.00002   0.00002
   D50       -3.14157   0.00000   0.00000  -0.00000  -0.00000  -3.14157
   D51        3.14156   0.00000   0.00000   0.00004   0.00004  -3.14158
   D52       -0.00001   0.00000   0.00000   0.00002   0.00002   0.00001
   D53       -0.00006  -0.00000   0.00000  -0.00001  -0.00001  -0.00007
   D54        3.14154  -0.00000   0.00000  -0.00002  -0.00002   3.14152
   D55        3.14152   0.00000   0.00000   0.00001   0.00001   3.14153
   D56       -0.00007   0.00000   0.00000   0.00000   0.00000  -0.00007
   D57        0.00003  -0.00000   0.00000  -0.00004  -0.00005  -0.00002
   D58       -3.14154  -0.00000   0.00000  -0.00005  -0.00005  -3.14158
   D59       -3.14157  -0.00000   0.00000  -0.00004  -0.00004   3.14158
   D60        0.00005  -0.00000   0.00000  -0.00004  -0.00004   0.00002
         Item               Value     Threshold  Converged?
 Maximum Force            0.054369     0.000450     NO 
 RMS     Force            0.006130     0.000300     NO 
 Maximum Displacement     0.095362     0.001800     NO 
 RMS     Displacement     0.022707     0.001200     NO 
 Predicted change in Energy=-4.496106D-03
 Lowest energy point so far.  Saving SCF results.
 GradGradGradGradGradGradGradGradGradGradGradGradGradGradGradGradGradGrad

 Leave Link  103 at Tue Aug 18 12:35:07 2026, MaxMem=  2684354560 cpu:               0.0 elap:               0.0
 (Enter /mnt/data/applications/G16/g16/l202.exe)
                          Input orientation:                          
 ---------------------------------------------------------------------
 Center     Atomic      Atomic             Coordinates (Angstroms)
 Number     Number       Type             X           Y           Z
 ---------------------------------------------------------------------
      1          6           0       -9.140639   -0.412872    0.008523
      2          6           0       -7.750322   -0.471099    0.019938
      3          6           0       -6.996024    0.720071    0.014418
      4          6           0       -7.612291    2.008327   -0.002819
      5          6           0       -9.025053    2.027400   -0.014060
      6          6           0       -9.771006    0.848426   -0.008504
      7          6           0       -6.892101    3.288097   -0.009478
      8          6           0       -5.423687    3.295073    0.002611
      9          6           0       -4.597855    2.129965    0.020260
     10          6           0       -3.190284    2.209461    0.030855
     11          1           0       -2.595656    1.293685    0.044175
     12          6           0       -2.564725    3.452524    0.024299
     13          6           0       -3.360070    4.616875    0.007061
     14          6           0       -4.752995    4.538695   -0.003482
     15          1           0       -9.726516   -1.332888    0.012787
     16          1           0       -7.239696   -1.436165    0.033152
     17          1           0       -9.503099    3.005803   -0.027230
     18          1           0      -10.861341    0.901687   -0.017483
     19          1           0       -1.475913    3.516777    0.032450
     20          1           0       -2.876296    5.595493    0.001900
     21          1           0       -5.374976    5.432485   -0.016815
     22         16           0       -5.258627    0.509387    0.030251
     23          8           0       -7.534128    4.379913   -0.025230
 ---------------------------------------------------------------------
                    Distance matrix (angstroms):
                    1          2          3          4          5
     1  C    0.000000
     2  C    1.391584   0.000000
     3  C    2.425483   1.409922   0.000000
     4  C    2.863247   2.483369   1.428176   0.000000
     5  C    2.443113   2.805101   2.413893   1.412936   0.000000
     6  C    1.410151   2.413529   2.778044   2.450603   1.395154
     7  C    4.330521   3.856029   2.570239   1.468512   2.477672
     8  C    5.250203   4.426915   3.017121   2.538845   3.817999
     9  C    5.206059   4.087001   2.781915   3.016977   4.428519
    10  C    6.502604   5.289562   4.086834   4.426707   5.837782
    11  H    6.763906   5.448452   4.437698   5.067499   6.471389
    12  C    7.627856   6.502710   5.206036   5.250177   6.615761
    13  C    7.662463   6.720265   5.329662   4.988587   6.228793
    14  C    6.615859   5.838026   4.428701   3.818158   4.955522
    15  H    1.090733   2.155939   3.416171   3.953974   3.432828
    16  H    2.159009   1.091909   2.170042   3.464772   3.896924
    17  H    3.438021   3.894008   3.392894   2.137922   1.089024
    18  H    2.165538   3.400644   3.869713   3.432375   2.153879
    19  H    8.613405   7.434481   6.188176   6.319161   7.694799
    20  H    8.680005   7.782030   6.382950   5.941164   7.109062
    21  H    6.953349   6.363640   4.983535   4.090309   4.991760
    22  S    3.990119   2.677685   1.750196   2.790635   4.061070
    23  O    5.054979   4.856037   3.699402   2.372980   2.785193
                    6          7          8          9         10
     6  C    0.000000
     7  C    3.773604   0.000000
     8  C    4.988526   1.468481   0.000000
     9  C    5.329602   2.570159   1.428211   0.000000
    10  C    6.720110   3.855974   2.483433   1.409854   0.000000
    11  H    7.189345   4.737088   3.464829   2.169963   1.091973
    12  C    7.662434   4.330631   2.863376   2.425448   1.391608
    13  C    7.436502   3.773748   2.450652   2.777951   2.413512
    14  C    6.228848   2.477863   1.412962   2.413838   2.805099
    15  H    2.181872   5.421060   6.319214   6.188260   7.434439
    16  H    3.410077   4.737224   5.067883   4.438105   5.448701
    17  H    2.174028   2.626274   4.089765   4.983048   6.363111
    18  H    1.091672   4.631401   5.941110   6.382895   7.781885
    19  H    8.713802   5.421176   3.954107   3.416127   2.155956
    20  H    8.370889   4.631512   3.432365   3.869624   3.400682
    21  H    6.351279   2.626809   2.138055   3.392923   3.893974
    22  S    4.525264   3.223514   2.790709   1.750141   2.677368
    23  O    4.180347   1.266693   2.373103   3.699464   4.856232
                   11         12         13         14         15
    11  H    0.000000
    12  C    2.159152   0.000000
    13  C    3.410176   1.410172   0.000000
    14  C    3.896983   2.443168   1.395158   0.000000
    15  H    7.599278   8.613451   8.713859   7.694911   0.000000
    16  H    5.386958   6.764223   7.189679   6.471784   2.489046
    17  H    7.116827   6.952932   6.350870   4.991374   4.344623
    18  H    8.275205   8.679997   8.370920   7.109143   2.506405
    19  H    2.489197   1.090737   2.181950   3.432911   9.570375
    20  H    4.311159   2.165617   1.091676   2.153799   9.743104
    21  H    4.985780   3.437942   2.173853   1.088989   8.044068
    22  S    2.776101   3.989887   4.525099   4.061050   4.832836
    23  O    5.823927   5.055440   4.180904   2.785746   6.119159
                   16         17         18         19         20
    16  H    0.000000
    17  H    4.985751   0.000000
    18  H    4.310965   2.504440   0.000000
    19  H    7.599529   8.043655   9.743072   0.000000
    20  H    8.275534   7.114905   9.262459   2.506604   0.000000
    21  H    7.117446   4.788559   7.115359   4.344543   2.504062
    22  S    2.776656   4.924524   5.616634   4.832528   5.616474
    23  O    5.823819   2.401048   4.813363   6.119665   4.813914
                   21         22         23
    21  H    0.000000
    22  S    4.924697   0.000000
    23  O    2.402065   4.490207   0.000000
 Symmetry turned off by external request.
 Stoichiometry    C13H8OS(3)
 Framework group  C1[X(C13H8OS)]
 Deg. of freedom    63
 Full point group                 C1      NOp   1
 Rotational constants (GHZ):           1.2111445           0.4222725           0.3131062
 Leave Link  202 at Tue Aug 18 12:35:07 2026, MaxMem=  2684354560 cpu:               0.0 elap:               0.0
 (Enter /mnt/data/applications/G16/g16/l301.exe)
 Basis read from rwf:  (5D, 7F)
 Pseudo-potential data read from rwf file.
   254 basis functions,   589 primitive gaussians,   269 cartesian basis functions
    56 alpha electrons       54 beta electrons
       nuclear repulsion energy       990.0113511598 Hartrees.
 IExCor=  402 DFT=T Ex+Corr=B3LYP ExCW=0 ScaHFX=  0.200000
 ScaDFX=  0.800000  0.720000  1.000000  0.810000 ScalE2=  1.000000  1.000000
 IRadAn=      5 IRanWt=     -1 IRanGd=            0 ICorTp=0 IEmpDi=141
 NAtoms=   23 NActive=   23 NUniq=   23 SFac= 1.00D+00 NAtFMM=   60 NAOKFM=F Big=F
 Integral buffers will be    131072 words long.
 Raffenetti 2 integral format.
 Two-electron integral symmetry is turned off.
 R6Disp:  Grimme-D3(BJ) Dispersion energy=       -0.0580603600 Hartrees.
 Nuclear repulsion after empirical dispersion term =      989.9532907998 Hartrees.
 No density basis found on file   724.
 ------------------------------------------------------------------------------
 Polarizable Continuum Model (PCM)
 =================================
 Model                : PCM.
 Atomic radii         : UFF (Universal Force Field).
 Polarization charges : Total charges.
 Charge compensation  : None.
 Solution method      : On-the-fly selection.
 Cavity type          : Scaled VdW (van der Waals Surface) (Alpha=1.100).
 Cavity algorithm     : GePol (No added spheres)
                        Default sphere list used, NSphG=   23.
                        Lebedev-Laikov grids with approx.  5.0 points / Ang**2.
                        Smoothing algorithm: York/Karplus (Gamma=1.0000).
                        Polarization charges: spherical gaussians, with
                                              point-specific exponents (IZeta= 3).
                        Self-potential: point-specific (ISelfS= 7).
                        Self-field    : sphere-specific E.n sum rule (ISelfD= 2).
 1st derivatives      : Analytical E(r).r(x)/FMM algorithm (CHGder, D1EAlg=3).
                        Cavity 1st derivative terms included.
 Solvent              : Acetonitrile, Eps=  35.688000 Eps(inf)=   1.806874
 ------------------------------------------------------------------------------
 GePol: Number of generator spheres                  =      23
 GePol: Total number of spheres                      =      23
 GePol: Number of exposed spheres                    =      23 (100.00%)
 GePol: Number of points                             =    1987
 GePol: Average weight of points                     =       0.13
 GePol: Minimum weight of points                     =   0.81D-11
 GePol: Maximum weight of points                     =    0.20577
 GePol: Number of points with low weight             =      95
 GePol: Fraction of low-weight points (<1% of avg)   =       4.78%
 GePol: Cavity surface area                          =    256.616 Ang**2
 GePol: Cavity volume                                =    277.550 Ang**3
 Leave Link  301 at Tue Aug 18 12:35:07 2026, MaxMem=  2684354560 cpu:               0.1 elap:               0.1
 (Enter /mnt/data/applications/G16/g16/l302.exe)
 NPDir=0 NMtPBC=     1 NCelOv=     1 NCel=       1 NClECP=     1 NCelD=      1
         NCelK=      1 NCelE2=     1 NClLst=     1 CellRange=     0.0.
 One-electron integrals computed using PRISM.
   1 Symmetry operations used in ECPInt.
 ECPInt:  NShTT=    6786 NPrTT=   65756 LenC2=    6456 LenP2D=   34288.
 LDataN:  DoStor=T MaxTD1= 4 Len=   56
 NBasis=   254 RedAO= T EigKep=  2.48D-04  NBF=   254
 NBsUse=   254 1.00D-06 EigRej= -1.00D+00 NBFU=   254
 Precomputing XC quadrature grid using
 IXCGrd= 4 IRadAn=           5 IRanWt=          -1 IRanGd=           0 AccXCQ= 0.00D+00.
 Generated NRdTot=       0 NPtTot=           0 NUsed=           0 NTot=          32
 NSgBfM=   268   268   268   268   268 MxSgAt=    23 MxSgA2=    23.
 Leave Link  302 at Tue Aug 18 12:35:08 2026, MaxMem=  2684354560 cpu:               1.2 elap:               1.2
 (Enter /mnt/data/applications/G16/g16/l303.exe)
 DipDrv:  MaxL=1.
 Leave Link  303 at Tue Aug 18 12:35:08 2026, MaxMem=  2684354560 cpu:               0.1 elap:               0.1
 (Enter /mnt/data/applications/G16/g16/l401.exe)
 Initial guess from the checkpoint file:  "TX_triplet.chk"
 B after Tr=    -0.010343    0.017704   -0.000507
         Rot=    1.000000   -0.000007   -0.000005   -0.000003 Ang=  -0.00 deg.
 Guess basis will be translated and rotated to current coordinates.
 JPrj=2 DoOrth=T DoCkMO=T.
 Initial guess <Sx>= 0.0000 <Sy>= 0.0000 <Sz>= 1.0000 <S**2>= 2.0067 S= 1.0022
 Generating alternative initial guess.
 ExpMin= 1.22D-01 ExpMax= 1.11D+05 ExpMxC= 1.07D+03 IAcc=2 IRadAn=         4 AccDes= 0.00D+00
 Harris functional with IExCor=  402 and IRadAn=       4 diagonalized for initial guess.
 HarFok:  IExCor=  402 AccDes= 0.00D+00 IRadAn=         4 IDoV= 1 UseB2=F ITyADJ=14
 ICtDFT=  3500011 ScaDFX=  1.000000  1.000000  1.000000  1.000000
 FoFCou: FMM=F IPFlag=           0 FMFlag=      100000 FMFlg1=           0
         NFxFlg=           0 DoJE=T BraDBF=F KetDBF=T FulRan=T
         wScrn=  0.000000 ICntrl=       500 IOpCl=  0 I1Cent=   200000004 NGrid=           0
         NMat0=    1 NMatS0=      1 NMatT0=    0 NMatD0=    1 NMtDS0=    0 NMtDT0=    0
 Symmetry not used in FoFCou.
 Harris En= -973.613364348449    
 Leave Link  401 at Tue Aug 18 12:35:15 2026, MaxMem=  2684354560 cpu:               6.6 elap:               6.6
 (Enter /mnt/data/applications/G16/g16/l502.exe)
 Keep R1 and R2 ints in memory in canonical form, NReq=1058662964.
 FoFCou: FMM=F IPFlag=           0 FMFlag=           0 FMFlg1=           0
         NFxFlg=           0 DoJE=F BraDBF=F KetDBF=F FulRan=T
         wScrn=  0.000000 ICntrl=       600 IOpCl=  0 I1Cent=           0 NGrid=           0
         NMat0=    1 NMatS0=  32385 NMatT0=    0 NMatD0=    1 NMtDS0=    0 NMtDT0=    0
 Symmetry not used in FoFCou.
 Two-electron integral symmetry not used.
 UHF open shell SCF:
 Using DIIS extrapolation, IDIIS=  1040.
 NGot=  2684354560 LenX=  1635385430 LenY=  1635312628
 Requested convergence on RMS density matrix=1.00D-08 within 128 cycles.
 Requested convergence on MAX density matrix=1.00D-06.
 Requested convergence on             energy=1.00D-06.
 No special actions if energy rises.

 Cycle   1  Pass 1  IDiag  1:
 Inv3:  Mode=1 IEnd=    11844507.
 Iteration    1 A*A^-1 deviation from unit magnitude is 2.00D-15 for    123.
 Iteration    1 A*A^-1 deviation from orthogonality  is 1.46D-15 for   1477    384.
 Iteration    1 A^-1*A deviation from unit magnitude is 1.55D-15 for    123.
 Iteration    1 A^-1*A deviation from orthogonality  is 8.31D-16 for    927    152.
 E= -973.649497671722    
 DIIS: error= 1.94D-03 at cycle   1 NSaved=   1.
 NSaved= 1 IEnMin= 1 EnMin= -973.649497671722     IErMin= 1 ErrMin= 1.94D-03
 ErrMax= 1.94D-03  0.00D+00 EMaxC= 1.00D-01 BMatC= 5.93D-03 BMatP= 5.93D-03
 IDIUse=3 WtCom= 9.81D-01 WtEn= 1.94D-02
 Coeff-Com:  0.100D+01
 Coeff-En:   0.100D+01
 Coeff:      0.100D+01
 Gap=     0.654 Goal=   None    Shift=    0.000
 Gap=     0.765 Goal=   None    Shift=    0.000
 GapD=    0.654 DampG=2.000 DampE=1.000 DampFc=2.0000 IDamp=-1.
 RMSDP=5.11D-04 MaxDP=2.53D-02              OVMax= 2.40D-02

 Cycle   2  Pass 1  IDiag  1:
 E= -973.651495204347     Delta-E=       -0.001997532625 Rises=F Damp=F
 DIIS: error= 2.30D-03 at cycle   2 NSaved=   2.
 NSaved= 2 IEnMin= 2 EnMin= -973.651495204347     IErMin= 1 ErrMin= 1.94D-03
 ErrMax= 2.30D-03  0.00D+00 EMaxC= 1.00D-01 BMatC= 2.20D-03 BMatP= 5.93D-03
 IDIUse=3 WtCom= 9.77D-01 WtEn= 2.30D-02
 Coeff-Com:  0.314D+00 0.686D+00
 Coeff-En:   0.000D+00 0.100D+01
 Coeff:      0.306D+00 0.694D+00
 Gap=     0.079 Goal=   None    Shift=    0.000
 Gap=     0.064 Goal=   None    Shift=    0.000
 RMSDP=2.51D-04 MaxDP=1.16D-02 DE=-2.00D-03 OVMax= 1.76D-02

 Cycle   3  Pass 1  IDiag  1:
 E= -973.651421368012     Delta-E=        0.000073836335 Rises=F Damp=F
 DIIS: error= 2.59D-03 at cycle   3 NSaved=   3.
 NSaved= 3 IEnMin= 2 EnMin= -973.651495204347     IErMin= 1 ErrMin= 1.94D-03
 ErrMax= 2.59D-03  0.00D+00 EMaxC= 1.00D-01 BMatC= 2.49D-03 BMatP= 2.20D-03
 IDIUse=3 WtCom= 1.64D-01 WtEn= 8.36D-01
 Coeff-Com: -0.122D-01 0.519D+00 0.493D+00
 Coeff-En:   0.000D+00 0.531D+00 0.469D+00
 Coeff:     -0.201D-02 0.529D+00 0.473D+00
 Gap=     0.078 Goal=   None    Shift=    0.000
 Gap=     0.059 Goal=   None    Shift=    0.000
 RMSDP=1.55D-04 MaxDP=8.66D-03 DE= 7.38D-05 OVMax= 1.60D-02

 Cycle   4  Pass 1  IDiag  1:
 E= -973.651917570425     Delta-E=       -0.000496202413 Rises=F Damp=F
 DIIS: error= 3.08D-04 at cycle   4 NSaved=   4.
 NSaved= 4 IEnMin= 4 EnMin= -973.651917570425     IErMin= 4 ErrMin= 3.08D-04
 ErrMax= 3.08D-04  0.00D+00 EMaxC= 1.00D-01 BMatC= 4.33D-05 BMatP= 2.20D-03
 IDIUse=3 WtCom= 9.97D-01 WtEn= 3.08D-03
 Coeff-Com: -0.145D-01 0.216D+00 0.236D+00 0.562D+00
 Coeff-En:   0.000D+00 0.000D+00 0.000D+00 0.100D+01
 Coeff:     -0.145D-01 0.216D+00 0.235D+00 0.564D+00
 Gap=     0.079 Goal=   None    Shift=    0.000
 Gap=     0.060 Goal=   None    Shift=    0.000
 RMSDP=2.18D-05 MaxDP=9.55D-04 DE=-4.96D-04 OVMax= 2.26D-03

 Cycle   5  Pass 1  IDiag  1:
 E= -973.651928331643     Delta-E=       -0.000010761218 Rises=F Damp=F
 DIIS: error= 1.22D-04 at cycle   5 NSaved=   5.
 NSaved= 5 IEnMin= 5 EnMin= -973.651928331643     IErMin= 5 ErrMin= 1.22D-04
 ErrMax= 1.22D-04  0.00D+00 EMaxC= 1.00D-01 BMatC= 9.92D-06 BMatP= 4.33D-05
 IDIUse=3 WtCom= 9.99D-01 WtEn= 1.22D-03
 Coeff-Com: -0.683D-02 0.317D-01 0.670D-01 0.295D+00 0.613D+00
 Coeff-En:   0.000D+00 0.000D+00 0.000D+00 0.000D+00 0.100D+01
 Coeff:     -0.682D-02 0.317D-01 0.670D-01 0.295D+00 0.613D+00
 Gap=     0.079 Goal=   None    Shift=    0.000
 Gap=     0.060 Goal=   None    Shift=    0.000
 RMSDP=9.99D-06 MaxDP=6.11D-04 DE=-1.08D-05 OVMax= 2.37D-03

 Cycle   6  Pass 1  IDiag  1:
 E= -973.651931711220     Delta-E=       -0.000003379577 Rises=F Damp=F
 DIIS: error= 9.06D-05 at cycle   6 NSaved=   6.
 NSaved= 6 IEnMin= 6 EnMin= -973.651931711220     IErMin= 6 ErrMin= 9.06D-05
 ErrMax= 9.06D-05  0.00D+00 EMaxC= 1.00D-01 BMatC= 1.98D-06 BMatP= 9.92D-06
 IDIUse=1 WtCom= 1.00D+00 WtEn= 0.00D+00
 Coeff-Com:  0.204D-02-0.409D-01-0.170D-01-0.610D-01 0.153D+00 0.964D+00
 Coeff:      0.204D-02-0.409D-01-0.170D-01-0.610D-01 0.153D+00 0.964D+00
 Gap=     0.079 Goal=   None    Shift=    0.000
 Gap=     0.060 Goal=   None    Shift=    0.000
 RMSDP=1.03D-05 MaxDP=5.43D-04 DE=-3.38D-06 OVMax= 1.66D-03

 Cycle   7  Pass 1  IDiag  1:
 E= -973.651932860006     Delta-E=       -0.000001148787 Rises=F Damp=F
 DIIS: error= 3.54D-05 at cycle   7 NSaved=   7.
 NSaved= 7 IEnMin= 7 EnMin= -973.651932860006     IErMin= 7 ErrMin= 3.54D-05
 ErrMax= 3.54D-05  0.00D+00 EMaxC= 1.00D-01 BMatC= 6.05D-07 BMatP= 1.98D-06
 IDIUse=1 WtCom= 1.00D+00 WtEn= 0.00D+00
 Coeff-Com:  0.244D-02-0.310D-01-0.202D-01-0.117D+00-0.652D-01 0.538D+00
 Coeff-Com:  0.693D+00
 Coeff:      0.244D-02-0.310D-01-0.202D-01-0.117D+00-0.652D-01 0.538D+00
 Coeff:      0.693D+00
 Gap=     0.079 Goal=   None    Shift=    0.000
 Gap=     0.060 Goal=   None    Shift=    0.000
 RMSDP=5.15D-06 MaxDP=3.41D-04 DE=-1.15D-06 OVMax= 1.52D-03

 Cycle   8  Pass 1  IDiag  1:
 E= -973.651933231382     Delta-E=       -0.000000371376 Rises=F Damp=F
 DIIS: error= 1.70D-05 at cycle   8 NSaved=   8.
 NSaved= 8 IEnMin= 8 EnMin= -973.651933231382     IErMin= 8 ErrMin= 1.70D-05
 ErrMax= 1.70D-05  0.00D+00 EMaxC= 1.00D-01 BMatC= 2.61D-07 BMatP= 6.05D-07
 IDIUse=1 WtCom= 1.00D+00 WtEn= 0.00D+00
 Coeff-Com:  0.131D-02-0.116D-01-0.881D-02-0.729D-01-0.898D-01 0.795D-01
 Coeff-Com:  0.520D+00 0.583D+00
 Coeff:      0.131D-02-0.116D-01-0.881D-02-0.729D-01-0.898D-01 0.795D-01
 Coeff:      0.520D+00 0.583D+00
 Gap=     0.079 Goal=   None    Shift=    0.000
 Gap=     0.060 Goal=   None    Shift=    0.000
 RMSDP=3.11D-06 MaxDP=1.44D-04 DE=-3.71D-07 OVMax= 6.14D-04

 Cycle   9  Pass 1  IDiag  1:
 E= -973.651933365757     Delta-E=       -0.000000134374 Rises=F Damp=F
 DIIS: error= 6.16D-06 at cycle   9 NSaved=   9.
 NSaved= 9 IEnMin= 9 EnMin= -973.651933365757     IErMin= 9 ErrMin= 6.16D-06
 ErrMax= 6.16D-06  0.00D+00 EMaxC= 1.00D-01 BMatC= 2.72D-08 BMatP= 2.61D-07
 IDIUse=1 WtCom= 1.00D+00 WtEn= 0.00D+00
 Coeff-Com: -0.233D-03 0.415D-02 0.395D-02 0.191D-02-0.400D-02-0.128D+00
 Coeff-Com:  0.753D-01 0.117D+00 0.930D+00
 Coeff:     -0.233D-03 0.415D-02 0.395D-02 0.191D-02-0.400D-02-0.128D+00
 Coeff:      0.753D-01 0.117D+00 0.930D+00
 Gap=     0.079 Goal=   None    Shift=    0.000
 Gap=     0.060 Goal=   None    Shift=    0.000
 RMSDP=1.55D-06 MaxDP=7.21D-05 DE=-1.34D-07 OVMax= 4.07D-04

 Cycle  10  Pass 1  IDiag  1:
 E= -973.651933393568     Delta-E=       -0.000000027811 Rises=F Damp=F
 DIIS: error= 3.98D-06 at cycle  10 NSaved=  10.
 NSaved=10 IEnMin=10 EnMin= -973.651933393568     IErMin=10 ErrMin= 3.98D-06
 ErrMax= 3.98D-06  0.00D+00 EMaxC= 1.00D-01 BMatC= 1.23D-08 BMatP= 2.72D-08
 IDIUse=1 WtCom= 1.00D+00 WtEn= 0.00D+00
 Coeff-Com: -0.388D-03 0.430D-02 0.418D-02 0.141D-01 0.205D-01-0.872D-01
 Coeff-Com: -0.472D-01-0.107D+00 0.494D+00 0.705D+00
 Coeff:     -0.388D-03 0.430D-02 0.418D-02 0.141D-01 0.205D-01-0.872D-01
 Coeff:     -0.472D-01-0.107D+00 0.494D+00 0.705D+00
 Gap=     0.079 Goal=   None    Shift=    0.000
 Gap=     0.060 Goal=   None    Shift=    0.000
 RMSDP=7.89D-07 MaxDP=2.58D-05 DE=-2.78D-08 OVMax= 1.83D-04

 Cycle  11  Pass 1  IDiag  1:
 E= -973.651933402502     Delta-E=       -0.000000008934 Rises=F Damp=F
 DIIS: error= 2.40D-06 at cycle  11 NSaved=  11.
 NSaved=11 IEnMin=11 EnMin= -973.651933402502     IErMin=11 ErrMin= 2.40D-06
 ErrMax= 2.40D-06  0.00D+00 EMaxC= 1.00D-01 BMatC= 3.41D-09 BMatP= 1.23D-08
 IDIUse=1 WtCom= 1.00D+00 WtEn= 0.00D+00
 Coeff-Com: -0.604D-04-0.208D-03 0.234D-03 0.404D-02 0.136D-01 0.136D-01
 Coeff-Com: -0.416D-01-0.124D+00-0.230D+00 0.346D+00 0.102D+01
 Coeff:     -0.604D-04-0.208D-03 0.234D-03 0.404D-02 0.136D-01 0.136D-01
 Coeff:     -0.416D-01-0.124D+00-0.230D+00 0.346D+00 0.102D+01
 Gap=     0.079 Goal=   None    Shift=    0.000
 Gap=     0.060 Goal=   None    Shift=    0.000
 RMSDP=6.73D-07 MaxDP=2.48D-05 DE=-8.93D-09 OVMax= 1.61D-04

 Cycle  12  Pass 1  IDiag  1:
 E= -973.651933405860     Delta-E=       -0.000000003358 Rises=F Damp=F
 DIIS: error= 1.32D-06 at cycle  12 NSaved=  12.
 NSaved=12 IEnMin=12 EnMin= -973.651933405860     IErMin=12 ErrMin= 1.32D-06
 ErrMax= 1.32D-06  0.00D+00 EMaxC= 1.00D-01 BMatC= 5.03D-10 BMatP= 3.41D-09
 IDIUse=1 WtCom= 1.00D+00 WtEn= 0.00D+00
 Coeff-Com:  0.193D-04-0.712D-03-0.447D-03 0.121D-03 0.453D-02 0.195D-01
 Coeff-Com: -0.162D-01-0.534D-01-0.193D+00 0.103D+00 0.569D+00 0.568D+00
 Coeff:      0.193D-04-0.712D-03-0.447D-03 0.121D-03 0.453D-02 0.195D-01
 Coeff:     -0.162D-01-0.534D-01-0.193D+00 0.103D+00 0.569D+00 0.568D+00
 Gap=     0.079 Goal=   None    Shift=    0.000
 Gap=     0.060 Goal=   None    Shift=    0.000
 RMSDP=1.20D-07 MaxDP=6.92D-06 DE=-3.36D-09 OVMax= 3.07D-05

 Cycle  13  Pass 1  IDiag  1:
 E= -973.651933406069     Delta-E=       -0.000000000210 Rises=F Damp=F
 DIIS: error= 4.45D-07 at cycle  13 NSaved=  13.
 NSaved=13 IEnMin=13 EnMin= -973.651933406069     IErMin=13 ErrMin= 4.45D-07
 ErrMax= 4.45D-07  0.00D+00 EMaxC= 1.00D-01 BMatC= 6.18D-11 BMatP= 5.03D-10
 IDIUse=1 WtCom= 1.00D+00 WtEn= 0.00D+00
 Coeff-Com:  0.209D-04-0.248D-03-0.261D-03-0.746D-03-0.108D-02 0.534D-02
 Coeff-Com:  0.557D-03 0.627D-02-0.277D-01-0.315D-01 0.117D-01 0.227D+00
 Coeff-Com:  0.811D+00
 Coeff:      0.209D-04-0.248D-03-0.261D-03-0.746D-03-0.108D-02 0.534D-02
 Coeff:      0.557D-03 0.627D-02-0.277D-01-0.315D-01 0.117D-01 0.227D+00
 Coeff:      0.811D+00
 Gap=     0.079 Goal=   None    Shift=    0.000
 Gap=     0.060 Goal=   None    Shift=    0.000
 RMSDP=3.54D-08 MaxDP=1.97D-06 DE=-2.10D-10 OVMax= 7.06D-06

 Cycle  14  Pass 1  IDiag  1:
 E= -973.651933406150     Delta-E=       -0.000000000081 Rises=F Damp=F
 DIIS: error= 1.34D-07 at cycle  14 NSaved=  14.
 NSaved=14 IEnMin=14 EnMin= -973.651933406150     IErMin=14 ErrMin= 1.34D-07
 ErrMax= 1.34D-07  0.00D+00 EMaxC= 1.00D-01 BMatC= 7.87D-12 BMatP= 6.18D-11
 IDIUse=1 WtCom= 1.00D+00 WtEn= 0.00D+00
 Coeff-Com:  0.205D-05 0.645D-04 0.112D-04-0.161D-03-0.960D-03-0.191D-02
 Coeff-Com:  0.223D-02 0.111D-01 0.266D-01-0.240D-01-0.914D-01-0.408D-01
 Coeff-Com:  0.180D+00 0.939D+00
 Coeff:      0.205D-05 0.645D-04 0.112D-04-0.161D-03-0.960D-03-0.191D-02
 Coeff:      0.223D-02 0.111D-01 0.266D-01-0.240D-01-0.914D-01-0.408D-01
 Coeff:      0.180D+00 0.939D+00
 Gap=     0.079 Goal=   None    Shift=    0.000
 Gap=     0.060 Goal=   None    Shift=    0.000
 RMSDP=1.60D-08 MaxDP=7.50D-07 DE=-8.07D-11 OVMax= 2.19D-06

 Cycle  15  Pass 1  IDiag  1:
 E= -973.651933406122     Delta-E=        0.000000000028 Rises=F Damp=F
 DIIS: error= 5.94D-08 at cycle  15 NSaved=  15.
 NSaved=15 IEnMin=14 EnMin= -973.651933406150     IErMin=15 ErrMin= 5.94D-08
 ErrMax= 5.94D-08  0.00D+00 EMaxC= 1.00D-01 BMatC= 2.25D-12 BMatP= 7.87D-12
 IDIUse=1 WtCom= 1.00D+00 WtEn= 0.00D+00
 Coeff-Com: -0.338D-05 0.688D-04 0.484D-04 0.591D-04-0.224D-03-0.168D-02
 Coeff-Com:  0.828D-03 0.325D-02 0.151D-01-0.294D-02-0.360D-01-0.540D-01
 Coeff-Com: -0.833D-01 0.336D+00 0.823D+00
 Coeff:     -0.338D-05 0.688D-04 0.484D-04 0.591D-04-0.224D-03-0.168D-02
 Coeff:      0.828D-03 0.325D-02 0.151D-01-0.294D-02-0.360D-01-0.540D-01
 Coeff:     -0.833D-01 0.336D+00 0.823D+00
 Gap=     0.079 Goal=   None    Shift=    0.000
 Gap=     0.060 Goal=   None    Shift=    0.000
 RMSDP=9.21D-09 MaxDP=4.06D-07 DE= 2.77D-11 OVMax= 1.03D-06

 Error on total polarization charges =  0.01277
 SCF Done:  E(UB3LYP) =  -973.651933406     A.U. after   15 cycles
            NFock= 15  Conv=0.92D-08     -V/T= 2.0049
 <Sx>= 0.0000 <Sy>= 0.0000 <Sz>= 1.0000 <S**2>= 2.0070 S= 1.0023
 <L.S>= 0.000000000000E+00
 KE= 9.688755276974D+02 PE=-4.263406722044D+03 EE= 1.330925970140D+03
 Annihilation of the first spin contaminant:
 S**2 before annihilation     2.0070,   after     2.0000
 Leave Link  502 at Tue Aug 18 12:47:32 2026, MaxMem=  2684354560 cpu:             736.5 elap:             737.5
 (Enter /mnt/data/applications/G16/g16/l701.exe)
 ... and contract with generalized density number  0.
 Compute integral first derivatives.
 R6Disp: Adding Grimme-D3(BJ) dispersion energy 1st derivatives to the gradient.
   1 Symmetry operations used in ECPInt.
 ECPInt:  NShTT=    6786 NPrTT=   65756 LenC2=    6456 LenP2D=   34288.
 LDataN:  DoStor=T MaxTD1= 5 Len=  102
 D1PCM: PCM CHGder 1st derivatives, ID1Alg=3 FixD1E=F DoIter=F DoCFld=F I1PDM=0.
 GePol: Maximum number of non-zero 1st derivatives   =     242
 Leave Link  701 at Tue Aug 18 12:47:46 2026, MaxMem=  2684354560 cpu:              13.4 elap:              13.4
 (Enter /mnt/data/applications/G16/g16/l702.exe)
 L702 exits ... SP integral derivatives will be done elsewhere.
 Leave Link  702 at Tue Aug 18 12:47:46 2026, MaxMem=  2684354560 cpu:               0.0 elap:               0.0
 (Enter /mnt/data/applications/G16/g16/l703.exe)
 Integral derivatives from FoFJK, PRISM(SPDF).
 Compute integral first derivatives, UseDBF=F ICtDFT=           0.
 Calling FoFJK, ICntrl=      2127 FMM=F ISym2X=0 I1Cent= 0 IOpClX= 1 NMat=1 NMatS=1 NMatT=0.
 FoFJK:  IHMeth= 1 ICntrl=    2127 DoSepK=F KAlg= 0 I1Cent=           0 FoldK=F
 IRaf=         0 NMat=       1 IRICut=       1 DoRegI=T DoRafI=F ISym2E= 0 IDoP0=0 IntGTp=1.
 FoFCou: FMM=F IPFlag=           0 FMFlag=      100000 FMFlg1=         800
         NFxFlg=           0 DoJE=F BraDBF=F KetDBF=F FulRan=T
         wScrn=  0.000000 ICntrl=      2127 IOpCl=  1 I1Cent=           0 NGrid=           0
         NMat0=    1 NMatS0=      1 NMatT0=    0 NMatD0=    1 NMtDS0=    0 NMtDT0=    0
 Symmetry not used in FoFCou.
 Leave Link  703 at Tue Aug 18 12:50:08 2026, MaxMem=  2684354560 cpu:             142.1 elap:             142.3
 (Enter /mnt/data/applications/G16/g16/l716.exe)
 Dipole        = 1.29679807D+00-2.20584204D+00 3.20582453D-02
 -------------------------------------------------------------------
 Center     Atomic                   Forces (Hartrees/Bohr)
 Number     Number              X              Y              Z
 -------------------------------------------------------------------
      1        6          -0.002353713    0.000469666   -0.000023685
      2        6           0.002056848    0.002339409   -0.000005985
      3        6          -0.000534735   -0.006021766    0.000054787
      4        6           0.000773484    0.011405617   -0.000111333
      5        6          -0.000783218   -0.002759109    0.000019596
      6        6           0.002174123   -0.000315525    0.000018875
      7        6           0.014763792   -0.025092611    0.000379784
      8        6          -0.010354399    0.004883497   -0.000138882
      9        6           0.005520345   -0.002468739    0.000068534
     10        6          -0.003034755   -0.000685533   -0.000018148
     11        1          -0.000640903   -0.000285613    0.000000038
     12        6           0.000740328    0.002281257   -0.000014684
     13        6          -0.000781785   -0.002054748    0.000013360
     14        6           0.002785564   -0.000673330    0.000027410
     15        1          -0.000064191    0.000697113   -0.000007462
     16        1           0.000566253    0.000435873    0.000002978
     17        1          -0.000643883   -0.000230739   -0.000002770
     18        1          -0.000387805    0.000366556   -0.000007590
     19        1          -0.000577908    0.000393096   -0.000007744
     20        1          -0.000126457    0.000512603   -0.000006462
     21        1           0.000536166    0.000434022    0.000003954
     22       16          -0.001254182    0.002120107   -0.000028495
     23        8          -0.008378968    0.014248899   -0.000216077
 -------------------------------------------------------------------
 Cartesian Forces:  Max     0.025092611 RMS     0.004697358
 Leave Link  716 at Tue Aug 18 12:50:08 2026, MaxMem=  2684354560 cpu:               0.0 elap:               0.0
 (Enter /mnt/data/applications/G16/g16/l103.exe)

 GradGradGradGradGradGradGradGradGradGradGradGradGradGradGradGradGradGrad
 Berny optimization.
 Using GEDIIS/GDIIS optimizer.
 FormGI is forming the generalized inverse of G from B-inverse, IUseBI=4.
 Internal  Forces:  Max     0.016531328 RMS     0.001921771
 Search for a local minimum.
 Step number   2 out of a maximum of  135
 All quantities printed in internal units (Hartrees-Bohrs-Radians)
 RMS Force = .19218D-02 SwitMx=.10000D-02 MixMth= 1
 Mixed Optimization -- RFO/linear search
 Update second derivatives using D2CorX and points    1    2
 DE= -5.29D-03 DEPred=-4.50D-03 R= 1.18D+00
 TightC=F SS=  1.41D+00  RLast= 1.49D-01 DXNew= 5.0454D-01 4.4846D-01
 Trust test= 1.18D+00 RLast= 1.49D-01 DXMaxT set to 4.48D-01
 ITU=  1  0
 Use linear search instead of GDIIS.
     Eigenvalues ---    0.00933   0.00985   0.01454   0.01551   0.01680
     Eigenvalues ---    0.01714   0.01812   0.01832   0.02052   0.02054
     Eigenvalues ---    0.02063   0.02063   0.02108   0.02108   0.02127
     Eigenvalues ---    0.02127   0.02143   0.02144   0.02185   0.02186
     Eigenvalues ---    0.15943   0.16000   0.16000   0.16000   0.16000
     Eigenvalues ---    0.16000   0.16000   0.16040   0.20844   0.22000
     Eigenvalues ---    0.22546   0.22598   0.22685   0.24474   0.24942
     Eigenvalues ---    0.25000   0.25000   0.26407   0.29031   0.29129
     Eigenvalues ---    0.31789   0.33776   0.34602   0.34602   0.34606
     Eigenvalues ---    0.34606   0.34669   0.34670   0.34812   0.34820
     Eigenvalues ---    0.38673   0.40297   0.41053   0.41146   0.43509
     Eigenvalues ---    0.43530   0.44342   0.45154   0.46433   0.46679
     Eigenvalues ---    0.47396   0.49862   0.77781
 RFO step:  Lambda=-8.18661311D-04 EMin= 9.32597306D-03
 Quartic linear search produced a step of  0.28463.
 Iteration  1 RMS(Cart)=  0.00529638 RMS(Int)=  0.00003882
 Iteration  2 RMS(Cart)=  0.00009236 RMS(Int)=  0.00001290
 Iteration  3 RMS(Cart)=  0.00000000 RMS(Int)=  0.00001290
 ITry= 1 IFail=0 DXMaxC= 2.35D-02 DCOld= 1.00D+10 DXMaxT= 4.48D-01 DXLimC= 3.00D+00 Rises=F
 Variable       Old X    -DE/DX   Delta X   Delta X   Delta X     New X
                                 (Linear)    (Quad)   (Total)
    R1        2.62971   0.00138   0.00139   0.00277   0.00413   2.63384
    R2        2.66480  -0.00163   0.00244  -0.00649  -0.00407   2.66073
    R3        2.06119  -0.00055  -0.00057  -0.00168  -0.00224   2.05894
    R4        2.66437  -0.00288   0.00081  -0.00871  -0.00791   2.65646
    R5        2.06341  -0.00012   0.00006  -0.00047  -0.00042   2.06299
    R6        2.69886   0.00216   0.00974   0.00010   0.00985   2.70871
    R7        3.30739  -0.00082  -0.00675   0.00119  -0.00555   3.30184
    R8        2.67006   0.00064   0.00082   0.00139   0.00223   2.67229
    R9        2.77508  -0.00648  -0.00805  -0.01945  -0.02751   2.74757
   R10        2.63646  -0.00155   0.00465  -0.00736  -0.00270   2.63376
   R11        2.05796   0.00007  -0.00053   0.00062   0.00008   2.05804
   R12        2.06296   0.00040   0.00023   0.00134   0.00157   2.06453
   R13        2.77503  -0.00648  -0.00804  -0.01945  -0.02750   2.74753
   R14        2.39370   0.01653   0.01719   0.01239   0.02959   2.42329
   R15        2.69893   0.00217   0.00974   0.00015   0.00990   2.70883
   R16        2.67011   0.00062   0.00082   0.00132   0.00216   2.67227
   R17        2.66424  -0.00285   0.00080  -0.00860  -0.00781   2.65642
   R18        3.30729  -0.00082  -0.00678   0.00120  -0.00557   3.30172
   R19        2.06353  -0.00011   0.00007  -0.00046  -0.00039   2.06314
   R20        2.62976   0.00139   0.00139   0.00280   0.00417   2.63393
   R21        2.66484  -0.00163   0.00245  -0.00651  -0.00407   2.66077
   R22        2.06119  -0.00055  -0.00057  -0.00168  -0.00225   2.05894
   R23        2.63647  -0.00156   0.00465  -0.00739  -0.00273   2.63373
   R24        2.06297   0.00040   0.00023   0.00135   0.00158   2.06455
   R25        2.05789   0.00005  -0.00054   0.00055   0.00000   2.05789
    A1        2.07617  -0.00044  -0.00666   0.00106  -0.00563   2.07054
    A2        2.09593   0.00066   0.00317   0.00306   0.00625   2.10217
    A3        2.11108  -0.00021   0.00349  -0.00412  -0.00061   2.11047
    A4        2.09338   0.00011  -0.00109   0.00154   0.00042   2.09380
    A5        2.09937   0.00067   0.00027   0.00523   0.00551   2.10488
    A6        2.09044  -0.00078   0.00083  -0.00677  -0.00593   2.08451
    A7        2.13090   0.00070   0.00940  -0.00209   0.00731   2.13821
    A8        2.01456   0.00075  -0.00122   0.00402   0.00279   2.01736
    A9        2.13772  -0.00145  -0.00819  -0.00193  -0.01010   2.12762
   A10        2.03055  -0.00162  -0.01007  -0.00116  -0.01119   2.01936
   A11        2.18283  -0.00101   0.00419  -0.00857  -0.00440   2.17842
   A12        2.06981   0.00263   0.00589   0.00973   0.01560   2.08541
   A13        2.12136   0.00058   0.00039   0.00275   0.00318   2.12454
   A14        2.03884   0.00041  -0.00188   0.00529   0.00339   2.04222
   A15        2.12299  -0.00099   0.00149  -0.00804  -0.00656   2.11642
   A16        2.11400   0.00067   0.00803  -0.00210   0.00593   2.11993
   A17        2.08313   0.00002  -0.00428   0.00404  -0.00024   2.08289
   A18        2.08605  -0.00069  -0.00375  -0.00194  -0.00569   2.08036
   A19        2.08806   0.00407  -0.00072   0.02027   0.01955   2.10760
   A20        2.09745  -0.00204   0.00035  -0.01014  -0.00979   2.08766
   A21        2.09767  -0.00203   0.00037  -0.01013  -0.00975   2.08792
   A22        2.18270  -0.00100   0.00418  -0.00848  -0.00432   2.17838
   A23        2.07008   0.00262   0.00591   0.00966   0.01555   2.08563
   A24        2.03041  -0.00162  -0.01008  -0.00119  -0.01123   2.01917
   A25        2.13103   0.00070   0.00942  -0.00208   0.00734   2.13837
   A26        2.13785  -0.00147  -0.00818  -0.00203  -0.01020   2.12765
   A27        2.01430   0.00077  -0.00125   0.00411   0.00286   2.01717
   A28        2.09032  -0.00076   0.00082  -0.00660  -0.00576   2.08456
   A29        2.09339   0.00010  -0.00110   0.00149   0.00035   2.09374
   A30        2.09948   0.00066   0.00028   0.00511   0.00541   2.10489
   A31        2.07610  -0.00044  -0.00666   0.00108  -0.00561   2.07048
   A32        2.09591   0.00067   0.00318   0.00310   0.00630   2.10221
   A33        2.11118  -0.00022   0.00348  -0.00419  -0.00068   2.11049
   A34        2.11405   0.00068   0.00803  -0.00210   0.00593   2.11998
   A35        2.08322   0.00002  -0.00428   0.00406  -0.00022   2.08300
   A36        2.08591  -0.00069  -0.00376  -0.00195  -0.00571   2.08021
   A37        2.12140   0.00059   0.00039   0.00280   0.00323   2.12463
   A38        2.03905   0.00041  -0.00187   0.00528   0.00340   2.04245
   A39        2.12274  -0.00100   0.00148  -0.00809  -0.00663   2.11611
   A40        1.83721   0.00085   0.00872   0.00073   0.00948   1.84669
    D1        0.00002  -0.00000  -0.00000  -0.00004  -0.00004  -0.00002
    D2       -3.14155  -0.00000  -0.00000  -0.00004  -0.00004   3.14159
    D3       -3.14157  -0.00000  -0.00000  -0.00002  -0.00002  -3.14159
    D4        0.00005  -0.00000  -0.00000  -0.00002  -0.00002   0.00003
    D5        0.00005   0.00000  -0.00000   0.00001   0.00001   0.00007
    D6       -3.14154   0.00000   0.00000   0.00004   0.00004  -3.14151
    D7       -3.14155  -0.00000   0.00000  -0.00001  -0.00001  -3.14155
    D8        0.00004   0.00000   0.00000   0.00001   0.00002   0.00006
    D9       -0.00007   0.00000  -0.00000   0.00003   0.00003  -0.00004
   D10        3.14144   0.00000  -0.00000   0.00009   0.00008   3.14152
   D11        3.14150   0.00000  -0.00000   0.00003   0.00002   3.14153
   D12       -0.00018   0.00000  -0.00000   0.00008   0.00008  -0.00009
   D13        0.00004   0.00000   0.00001   0.00001   0.00002   0.00006
   D14       -3.14158  -0.00000   0.00001  -0.00005  -0.00004   3.14157
   D15       -3.14145  -0.00000   0.00000  -0.00005  -0.00004  -3.14150
   D16        0.00011  -0.00000   0.00001  -0.00011  -0.00010   0.00001
   D17       -3.14134  -0.00000   0.00003  -0.00014  -0.00011  -3.14146
   D18        0.00016  -0.00000   0.00003  -0.00009  -0.00006   0.00011
   D19        0.00003  -0.00000  -0.00001  -0.00004  -0.00005  -0.00002
   D20       -3.14159  -0.00000  -0.00000  -0.00007  -0.00007   3.14153
   D21       -3.14154   0.00000  -0.00001   0.00002   0.00001  -3.14153
   D22        0.00003  -0.00000  -0.00001  -0.00001  -0.00002   0.00001
   D23       -0.00049   0.00000  -0.00005   0.00026   0.00021  -0.00028
   D24        3.14141  -0.00000   0.00010  -0.00052  -0.00042   3.14099
   D25        3.14107   0.00000  -0.00005   0.00020   0.00015   3.14122
   D26       -0.00022  -0.00000   0.00010  -0.00058  -0.00048  -0.00069
   D27       -0.00008   0.00000   0.00000   0.00003   0.00003  -0.00005
   D28        3.14152   0.00000   0.00000   0.00000   0.00001   3.14153
   D29        3.14154   0.00000  -0.00000   0.00006   0.00005  -3.14159
   D30       -0.00004   0.00000  -0.00000   0.00003   0.00003  -0.00001
   D31        0.00058  -0.00000   0.00005  -0.00019  -0.00014   0.00044
   D32       -3.14109  -0.00000   0.00007  -0.00013  -0.00006  -3.14115
   D33       -3.14131   0.00000  -0.00010   0.00059   0.00048  -3.14083
   D34        0.00020   0.00001  -0.00009   0.00065   0.00056   0.00076
   D35        3.14133  -0.00000  -0.00001  -0.00003  -0.00004   3.14129
   D36       -0.00028   0.00000  -0.00000  -0.00002  -0.00002  -0.00031
   D37       -0.00019  -0.00000  -0.00002  -0.00010  -0.00012  -0.00030
   D38        3.14139  -0.00000  -0.00002  -0.00008  -0.00010   3.14129
   D39       -3.14138   0.00000   0.00001   0.00004   0.00005  -3.14133
   D40        0.00019   0.00000   0.00001   0.00011   0.00012   0.00031
   D41        0.00014   0.00000   0.00002   0.00010   0.00012   0.00026
   D42       -3.14148   0.00000   0.00002   0.00017   0.00019  -3.14128
   D43       -3.14147   0.00000   0.00000   0.00001   0.00001  -3.14146
   D44        0.00011   0.00000   0.00001   0.00002   0.00003   0.00014
   D45        0.00014  -0.00000  -0.00000   0.00000  -0.00000   0.00014
   D46       -3.14147  -0.00000   0.00000   0.00001   0.00002  -3.14145
   D47       -0.00008   0.00000  -0.00004   0.00015   0.00011   0.00003
   D48        3.14150   0.00000  -0.00003   0.00016   0.00013  -3.14156
   D49        0.00002   0.00000   0.00001   0.00005   0.00006   0.00008
   D50       -3.14157   0.00000  -0.00000   0.00001   0.00001  -3.14156
   D51       -3.14158   0.00000   0.00001   0.00006   0.00008  -3.14151
   D52        0.00001   0.00000   0.00001   0.00002   0.00003   0.00004
   D53       -0.00007  -0.00000  -0.00000  -0.00005  -0.00006  -0.00012
   D54        3.14152  -0.00000  -0.00001  -0.00006  -0.00007   3.14145
   D55        3.14153  -0.00000   0.00000  -0.00001  -0.00001   3.14152
   D56       -0.00007  -0.00000   0.00000  -0.00002  -0.00002  -0.00009
   D57       -0.00002  -0.00000  -0.00001  -0.00002  -0.00004  -0.00006
   D58       -3.14158  -0.00000  -0.00001  -0.00010  -0.00012   3.14148
   D59        3.14158  -0.00000  -0.00001  -0.00002  -0.00003   3.14155
   D60        0.00002  -0.00000  -0.00001  -0.00010  -0.00011  -0.00009
         Item               Value     Threshold  Converged?
 Maximum Force            0.016531     0.000450     NO 
 RMS     Force            0.001922     0.000300     NO 
 Maximum Displacement     0.023492     0.001800     NO 
 RMS     Displacement     0.005289     0.001200     NO 
 Predicted change in Energy=-6.581873D-04
 Lowest energy point so far.  Saving SCF results.
 GradGradGradGradGradGradGradGradGradGradGradGradGradGradGradGradGradGrad

 Leave Link  103 at Tue Aug 18 12:50:08 2026, MaxMem=  2684354560 cpu:               0.0 elap:               0.0
 (Enter /mnt/data/applications/G16/g16/l202.exe)
                          Input orientation:                          
 ---------------------------------------------------------------------
 Center     Atomic      Atomic             Coordinates (Angstroms)
 Number     Number       Type             X           Y           Z
 ---------------------------------------------------------------------
      1          6           0       -9.141120   -0.414644    0.008469
      2          6           0       -7.748487   -0.469719    0.020020
      3          6           0       -6.998701    0.719352    0.014545
      4          6           0       -7.610231    2.015629   -0.002786
      5          6           0       -9.024260    2.026520   -0.014056
      6          6           0       -9.766359    0.846803   -0.008557
      7          6           0       -6.884801    3.275665   -0.009111
      8          6           0       -5.431074    3.296741    0.002631
      9          6           0       -4.595878    2.131872    0.020331
     10          6           0       -3.192286    2.208453    0.030783
     11          1           0       -2.604815    1.288314    0.044063
     12          6           0       -2.562920    3.452065    0.024166
     13          6           0       -3.360943    4.611969    0.007075
     14          6           0       -4.752622    4.537453   -0.003349
     15          1           0       -9.729953   -1.331359    0.012610
     16          1           0       -7.230414   -1.430556    0.033322
     17          1           0       -9.511291    3.000529   -0.027230
     18          1           0      -10.857356    0.903450   -0.017653
     19          1           0       -1.475565    3.520636    0.032147
     20          1           0       -2.879870    5.592846    0.001869
     21          1           0       -5.366352    5.436933   -0.016462
     22         16           0       -5.263250    0.517190    0.030337
     23          8           0       -7.534753    4.380975   -0.025586
 ---------------------------------------------------------------------
                    Distance matrix (angstroms):
                    1          2          3          4          5
     1  C    0.000000
     2  C    1.393770   0.000000
     3  C    2.424034   1.405738   0.000000
     4  C    2.872276   2.489294   1.433388   0.000000
     5  C    2.444063   2.803563   2.410890   1.414115   0.000000
     6  C    1.408000   2.409535   2.770687   2.452565   1.393727
     7  C    4.325467   3.843787   2.558958   1.453953   2.477432
     8  C    5.247748   4.422321   3.016709   2.527846   3.811132
     9  C    5.210001   4.087446   2.787258   3.016682   4.429768
    10  C    6.501520   5.285044   4.087357   4.422279   5.834984
    11  H    6.754600   5.435864   4.430669   5.058199   6.462012
    12  C    7.630492   6.501577   5.209987   5.247803   6.616839
    13  C    7.660110   6.713736   5.327833   4.979712   6.225604
    14  C    6.616821   5.835025   4.429795   3.811237   4.954976
    15  H    1.089545   2.160714   3.415429   3.961791   3.431336
    16  H    2.164137   1.091689   2.162441   3.467240   3.895061
    17  H    3.435362   3.892600   3.393909   2.141181   1.089067
    18  H    2.164145   3.398835   3.863178   3.432343   2.149777
    19  H    8.616712   7.434557   6.192943   6.316677   7.695279
    20  H    8.677167   7.775503   6.380899   5.930668   7.104397
    21  H    6.963508   6.369021   4.992103   4.091516   5.001121
    22  S    3.988316   2.674041   1.747258   2.784733   4.052807
    23  O    5.057621   4.855614   3.700870   2.366660   2.786076
                    6          7          8          9         10
     6  C    0.000000
     7  C    3.768653   0.000000
     8  C    4.979661   1.453928   0.000000
     9  C    5.327862   2.558964   1.433452   0.000000
    10  C    6.713724   3.843853   2.489445   1.405719   0.000000
    11  H    7.175334   4.719182   3.467454   2.162519   1.091767
    12  C    7.660157   4.325608   2.872437   2.424014   1.393813
    13  C    7.430079   3.768760   2.452608   2.770581   2.409542
    14  C    6.225631   2.477566   1.414107   2.410798   2.803579
    15  H    2.178569   5.414797   6.316627   6.192960   7.434493
    16  H    3.408685   4.719085   5.058252   4.430784   5.435888
    17  H    2.168858   2.640923   4.091065   4.991804   6.368719
    18  H    1.092504   4.626950   5.930666   6.380953   7.775518
    19  H    8.711390   5.414938   3.961950   3.415430   2.160777
    20  H    8.363538   4.626978   3.432308   3.863077   3.398905
    21  H    6.358413   2.641367   2.141255   3.393878   3.892542
    22  S    4.515324   3.200026   2.784750   1.747193   2.673811
    23  O    4.179800   1.282348   2.366817   3.701020   4.855929
                   11         12         13         14         15
    11  H    0.000000
    12  C    2.164248   0.000000
    13  C    3.408780   1.408017   0.000000
    14  C    3.895155   2.444100   1.393712   0.000000
    15  H    7.591526   8.616707   8.711341   7.695260   0.000000
    16  H    5.365496   6.754671   7.175347   6.462038   2.501592
    17  H    7.115911   6.963217   6.358042   5.000764   4.337587
    18  H    8.261741   8.677261   8.363608   7.104503   2.503263
    19  H    2.501722   1.089544   2.178597   3.431367   9.574819
    20  H    4.313518   2.164232   1.092510   2.149670   9.740039
    21  H    4.984054   3.435198   2.168591   1.088991   8.053051
    22  S    2.768050   3.988146   4.515144   4.052701   4.834137
    23  O    5.820111   5.058110   4.180325   2.786616   6.119732
                   16         17         18         19         20
    16  H    0.000000
    17  H    4.984033   0.000000
    18  H    4.313339   2.491932   0.000000
    19  H    7.591614   8.052760   9.740131   0.000000
    20  H    8.261744   7.120161   9.253707   2.503407   0.000000
    21  H    7.116152   4.807983   7.120645   4.337371   2.491433
    22  S    2.768296   4.920990   5.607631   4.833968   5.607459
    23  O    5.819792   2.410879   4.809671   6.120235   4.810127
                   21         22         23
    21  H    0.000000
    22  S    4.921045   0.000000
    23  O    2.411865   4.482375   0.000000
 Symmetry turned off by external request.
 Stoichiometry    C13H8OS(3)
 Framework group  C1[X(C13H8OS)]
 Deg. of freedom    63
 Full point group                 C1      NOp   1
 Rotational constants (GHZ):           1.2155283           0.4225788           0.3135671
 Leave Link  202 at Tue Aug 18 12:50:08 2026, MaxMem=  2684354560 cpu:               0.0 elap:               0.0
 (Enter /mnt/data/applications/G16/g16/l301.exe)
 Basis read from rwf:  (5D, 7F)
 Pseudo-potential data read from rwf file.
   254 basis functions,   589 primitive gaussians,   269 cartesian basis functions
    56 alpha electrons       54 beta electrons
       nuclear repulsion energy       990.7693648420 Hartrees.
 IExCor=  402 DFT=T Ex+Corr=B3LYP ExCW=0 ScaHFX=  0.200000
 ScaDFX=  0.800000  0.720000  1.000000  0.810000 ScalE2=  1.000000  1.000000
 IRadAn=      5 IRanWt=     -1 IRanGd=            0 ICorTp=0 IEmpDi=141
 NAtoms=   23 NActive=   23 NUniq=   23 SFac= 1.00D+00 NAtFMM=   60 NAOKFM=F Big=F
 Integral buffers will be    131072 words long.
 Raffenetti 2 integral format.
 Two-electron integral symmetry is turned off.
 R6Disp:  Grimme-D3(BJ) Dispersion energy=       -0.0581082052 Hartrees.
 Nuclear repulsion after empirical dispersion term =      990.7112566368 Hartrees.
 No density basis found on file   724.
 ------------------------------------------------------------------------------
 Polarizable Continuum Model (PCM)
 =================================
 Model                : PCM.
 Atomic radii         : UFF (Universal Force Field).
 Polarization charges : Total charges.
 Charge compensation  : None.
 Solution method      : On-the-fly selection.
 Cavity type          : Scaled VdW (van der Waals Surface) (Alpha=1.100).
 Cavity algorithm     : GePol (No added spheres)
                        Default sphere list used, NSphG=   23.
                        Lebedev-Laikov grids with approx.  5.0 points / Ang**2.
                        Smoothing algorithm: York/Karplus (Gamma=1.0000).
                        Polarization charges: spherical gaussians, with
                                              point-specific exponents (IZeta= 3).
                        Self-potential: point-specific (ISelfS= 7).
                        Self-field    : sphere-specific E.n sum rule (ISelfD= 2).
 1st derivatives      : Analytical E(r).r(x)/FMM algorithm (CHGder, D1EAlg=3).
                        Cavity 1st derivative terms included.
 Solvent              : Acetonitrile, Eps=  35.688000 Eps(inf)=   1.806874
 ------------------------------------------------------------------------------
 GePol: Number of generator spheres                  =      23
 GePol: Total number of spheres                      =      23
 GePol: Number of exposed spheres                    =      23 (100.00%)
 GePol: Number of points                             =    1984
 GePol: Average weight of points                     =       0.13
 GePol: Minimum weight of points                     =   0.44D-09
 GePol: Maximum weight of points                     =    0.20577
 GePol: Number of points with low weight             =      94
 GePol: Fraction of low-weight points (<1% of avg)   =       4.74%
 GePol: Cavity surface area                          =    256.531 Ang**2
 GePol: Cavity volume                                =    277.371 Ang**3
 Leave Link  301 at Tue Aug 18 12:50:08 2026, MaxMem=  2684354560 cpu:               0.1 elap:               0.1
 (Enter /mnt/data/applications/G16/g16/l302.exe)
 NPDir=0 NMtPBC=     1 NCelOv=     1 NCel=       1 NClECP=     1 NCelD=      1
         NCelK=      1 NCelE2=     1 NClLst=     1 CellRange=     0.0.
 One-electron integrals computed using PRISM.
   1 Symmetry operations used in ECPInt.
 ECPInt:  NShTT=    6786 NPrTT=   65756 LenC2=    6456 LenP2D=   34292.
 LDataN:  DoStor=T MaxTD1= 4 Len=   56
 NBasis=   254 RedAO= T EigKep=  2.45D-04  NBF=   254
 NBsUse=   254 1.00D-06 EigRej= -1.00D+00 NBFU=   254
 Precomputing XC quadrature grid using
 IXCGrd= 4 IRadAn=           5 IRanWt=          -1 IRanGd=           0 AccXCQ= 0.00D+00.
 Generated NRdTot=       0 NPtTot=           0 NUsed=           0 NTot=          32
 NSgBfM=   268   268   268   268   268 MxSgAt=    23 MxSgA2=    23.
 Leave Link  302 at Tue Aug 18 12:50:10 2026, MaxMem=  2684354560 cpu:               1.2 elap:               1.2
 (Enter /mnt/data/applications/G16/g16/l303.exe)
 DipDrv:  MaxL=1.
 Leave Link  303 at Tue Aug 18 12:50:10 2026, MaxMem=  2684354560 cpu:               0.1 elap:               0.1
 (Enter /mnt/data/applications/G16/g16/l401.exe)
 Initial guess from the checkpoint file:  "TX_triplet.chk"
 B after Tr=    -0.000653    0.000979    0.000422
         Rot=    1.000000    0.000019    0.000010    0.000003 Ang=   0.00 deg.
 Guess basis will be translated and rotated to current coordinates.
 JPrj=2 DoOrth=T DoCkMO=T.
 Initial guess <Sx>= 0.0000 <Sy>= 0.0000 <Sz>= 1.0000 <S**2>= 2.0070 S= 1.0023
 Generating alternative initial guess.
 ExpMin= 1.22D-01 ExpMax= 1.11D+05 ExpMxC= 1.07D+03 IAcc=2 IRadAn=         4 AccDes= 0.00D+00
 Harris functional with IExCor=  402 and IRadAn=       4 diagonalized for initial guess.
 HarFok:  IExCor=  402 AccDes= 0.00D+00 IRadAn=         4 IDoV= 1 UseB2=F ITyADJ=14
 ICtDFT=  3500011 ScaDFX=  1.000000  1.000000  1.000000  1.000000
 FoFCou: FMM=F IPFlag=           0 FMFlag=      100000 FMFlg1=           0
         NFxFlg=           0 DoJE=T BraDBF=F KetDBF=T FulRan=T
         wScrn=  0.000000 ICntrl=       500 IOpCl=  0 I1Cent=   200000004 NGrid=           0
         NMat0=    1 NMatS0=      1 NMatT0=    0 NMatD0=    1 NMtDS0=    0 NMtDT0=    0
 Symmetry not used in FoFCou.
 Harris En= -973.613265987660    
 Leave Link  401 at Tue Aug 18 12:50:16 2026, MaxMem=  2684354560 cpu:               6.6 elap:               6.6
 (Enter /mnt/data/applications/G16/g16/l502.exe)
 Keep R1 and R2 ints in memory in canonical form, NReq=1058662964.
 FoFCou: FMM=F IPFlag=           0 FMFlag=           0 FMFlg1=           0
         NFxFlg=           0 DoJE=F BraDBF=F KetDBF=F FulRan=T
         wScrn=  0.000000 ICntrl=       600 IOpCl=  0 I1Cent=           0 NGrid=           0
         NMat0=    1 NMatS0=  32385 NMatT0=    0 NMatD0=    1 NMtDS0=    0 NMtDT0=    0
 Symmetry not used in FoFCou.
 Two-electron integral symmetry not used.
 UHF open shell SCF:
 Using DIIS extrapolation, IDIIS=  1040.
 NGot=  2684354560 LenX=  1635385430 LenY=  1635312628
 Requested convergence on RMS density matrix=1.00D-08 within 128 cycles.
 Requested convergence on MAX density matrix=1.00D-06.
 Requested convergence on             energy=1.00D-06.
 No special actions if energy rises.

 Cycle   1  Pass 1  IDiag  1:
 Inv3:  Mode=1 IEnd=    11808768.
 Iteration    1 A*A^-1 deviation from unit magnitude is 1.89D-15 for   1047.
 Iteration    1 A*A^-1 deviation from orthogonality  is 1.38D-15 for   1121    248.
 Iteration    1 A^-1*A deviation from unit magnitude is 1.89D-15 for   1493.
 Iteration    1 A^-1*A deviation from orthogonality  is 8.38D-16 for    914     84.
 E= -973.652079424031    
 DIIS: error= 1.07D-03 at cycle   1 NSaved=   1.
 NSaved= 1 IEnMin= 1 EnMin= -973.652079424031     IErMin= 1 ErrMin= 1.07D-03
 ErrMax= 1.07D-03  0.00D+00 EMaxC= 1.00D-01 BMatC= 1.43D-03 BMatP= 1.43D-03
 IDIUse=3 WtCom= 9.89D-01 WtEn= 1.07D-02
 Coeff-Com:  0.100D+01
 Coeff-En:   0.100D+01
 Coeff:      0.100D+01
 Gap=     0.656 Goal=   None    Shift=    0.000
 Gap=     0.763 Goal=   None    Shift=    0.000
 GapD=    0.656 DampG=2.000 DampE=1.000 DampFc=2.0000 IDamp=-1.
 RMSDP=3.29D-04 MaxDP=1.74D-02              OVMax= 2.44D-02

 Cycle   2  Pass 1  IDiag  1:
 E= -973.652403176382     Delta-E=       -0.000323752351 Rises=F Damp=F
 DIIS: error= 1.92D-03 at cycle   2 NSaved=   2.
 NSaved= 2 IEnMin= 2 EnMin= -973.652403176382     IErMin= 1 ErrMin= 1.07D-03
 ErrMax= 1.92D-03  0.00D+00 EMaxC= 1.00D-01 BMatC= 1.53D-03 BMatP= 1.43D-03
 IDIUse=3 WtCom= 9.81D-01 WtEn= 1.92D-02
 Coeff-Com:  0.511D+00 0.489D+00
 Coeff-En:   0.496D-01 0.950D+00
 Coeff:      0.502D+00 0.498D+00
 Gap=     0.082 Goal=   None    Shift=    0.000
 Gap=     0.064 Goal=   None    Shift=    0.000
 RMSDP=1.73D-04 MaxDP=7.97D-03 DE=-3.24D-04 OVMax= 1.39D-02

 Cycle   3  Pass 1  IDiag  1:
 E= -973.652587500509     Delta-E=       -0.000184324127 Rises=F Damp=F
 DIIS: error= 1.13D-03 at cycle   3 NSaved=   3.
 NSaved= 3 IEnMin= 3 EnMin= -973.652587500509     IErMin= 1 ErrMin= 1.07D-03
 ErrMax= 1.13D-03  0.00D+00 EMaxC= 1.00D-01 BMatC= 4.76D-04 BMatP= 1.43D-03
 IDIUse=3 WtCom= 9.89D-01 WtEn= 1.13D-02
 Coeff-Com: -0.160D-01 0.357D+00 0.659D+00
 Coeff-En:   0.000D+00 0.310D+00 0.690D+00
 Coeff:     -0.158D-01 0.357D+00 0.659D+00
 Gap=     0.082 Goal=   None    Shift=    0.000
 Gap=     0.061 Goal=   None    Shift=    0.000
 RMSDP=8.36D-05 MaxDP=5.40D-03 DE=-1.84D-04 OVMax= 1.37D-02

 Cycle   4  Pass 1  IDiag  1:
 E= -973.652693216107     Delta-E=       -0.000105715598 Rises=F Damp=F
 DIIS: error= 2.98D-04 at cycle   4 NSaved=   4.
 NSaved= 4 IEnMin= 4 EnMin= -973.652693216107     IErMin= 4 ErrMin= 2.98D-04
 ErrMax= 2.98D-04  0.00D+00 EMaxC= 1.00D-01 BMatC= 2.60D-05 BMatP= 4.76D-04
 IDIUse=3 WtCom= 9.97D-01 WtEn= 2.98D-03
 Coeff-Com: -0.153D-01 0.134D+00 0.345D+00 0.536D+00
 Coeff-En:   0.000D+00 0.000D+00 0.000D+00 0.100D+01
 Coeff:     -0.153D-01 0.133D+00 0.344D+00 0.538D+00
 Gap=     0.082 Goal=   None    Shift=    0.000
 Gap=     0.062 Goal=   None    Shift=    0.000
 RMSDP=1.80D-05 MaxDP=8.46D-04 DE=-1.06D-04 OVMax= 1.79D-03

 Cycle   5  Pass 1  IDiag  1:
 E= -973.652699678752     Delta-E=       -0.000006462645 Rises=F Damp=F
 DIIS: error= 1.26D-04 at cycle   5 NSaved=   5.
 NSaved= 5 IEnMin= 5 EnMin= -973.652699678752     IErMin= 5 ErrMin= 1.26D-04
 ErrMax= 1.26D-04  0.00D+00 EMaxC= 1.00D-01 BMatC= 6.16D-06 BMatP= 2.60D-05
 IDIUse=3 WtCom= 9.99D-01 WtEn= 1.26D-03
 Coeff-Com: -0.540D-02-0.320D-01 0.561D-01 0.258D+00 0.723D+00
 Coeff-En:   0.000D+00 0.000D+00 0.000D+00 0.000D+00 0.100D+01
 Coeff:     -0.539D-02-0.320D-01 0.560D-01 0.258D+00 0.724D+00
 Gap=     0.082 Goal=   None    Shift=    0.000
 Gap=     0.062 Goal=   None    Shift=    0.000
 RMSDP=1.21D-05 MaxDP=6.40D-04 DE=-6.46D-06 OVMax= 3.20D-03

 Cycle   6  Pass 1  IDiag  1:
 E= -973.652702349409     Delta-E=       -0.000002670658 Rises=F Damp=F
 DIIS: error= 8.27D-05 at cycle   6 NSaved=   6.
 NSaved= 6 IEnMin= 6 EnMin= -973.652702349409     IErMin= 6 ErrMin= 8.27D-05
 ErrMax= 8.27D-05  0.00D+00 EMaxC= 1.00D-01 BMatC= 2.07D-06 BMatP= 6.16D-06
 IDIUse=1 WtCom= 1.00D+00 WtEn= 0.00D+00
 Coeff-Com:  0.372D-02-0.610D-01-0.624D-01-0.137D+00 0.209D+00 0.105D+01
 Coeff:      0.372D-02-0.610D-01-0.624D-01-0.137D+00 0.209D+00 0.105D+01
 Gap=     0.082 Goal=   None    Shift=    0.000
 Gap=     0.062 Goal=   None    Shift=    0.000
 RMSDP=1.23D-05 MaxDP=5.69D-04 DE=-2.67D-06 OVMax= 2.53D-03

 Cycle   7  Pass 1  IDiag  1:
 E= -973.652703698472     Delta-E=       -0.000001349063 Rises=F Damp=F
 DIIS: error= 3.50D-05 at cycle   7 NSaved=   7.
 NSaved= 7 IEnMin= 7 EnMin= -973.652703698472     IErMin= 7 ErrMin= 3.50D-05
 ErrMax= 3.50D-05  0.00D+00 EMaxC= 1.00D-01 BMatC= 5.51D-07 BMatP= 2.07D-06
 IDIUse=1 WtCom= 1.00D+00 WtEn= 0.00D+00
 Coeff-Com:  0.443D-02-0.340D-01-0.565D-01-0.203D+00-0.867D-01 0.741D+00
 Coeff-Com:  0.635D+00
 Coeff:      0.443D-02-0.340D-01-0.565D-01-0.203D+00-0.867D-01 0.741D+00
 Coeff:      0.635D+00
 Gap=     0.082 Goal=   None    Shift=    0.000
 Gap=     0.062 Goal=   None    Shift=    0.000
 RMSDP=6.44D-06 MaxDP=3.50D-04 DE=-1.35D-06 OVMax= 1.77D-03

 Cycle   8  Pass 1  IDiag  1:
 E= -973.652704098386     Delta-E=       -0.000000399914 Rises=F Damp=F
 DIIS: error= 1.18D-05 at cycle   8 NSaved=   8.
 NSaved= 8 IEnMin= 8 EnMin= -973.652704098386     IErMin= 8 ErrMin= 1.18D-05
 ErrMax= 1.18D-05  0.00D+00 EMaxC= 1.00D-01 BMatC= 8.21D-08 BMatP= 5.51D-07
 IDIUse=1 WtCom= 1.00D+00 WtEn= 0.00D+00
 Coeff-Com:  0.112D-02-0.246D-02-0.101D-01-0.651D-01-0.620D-01 0.610D-01
 Coeff-Com:  0.321D+00 0.756D+00
 Coeff:      0.112D-02-0.246D-02-0.101D-01-0.651D-01-0.620D-01 0.610D-01
 Coeff:      0.321D+00 0.756D+00
 Gap=     0.082 Goal=   None    Shift=    0.000
 Gap=     0.062 Goal=   None    Shift=    0.000
 RMSDP=2.46D-06 MaxDP=1.04D-04 DE=-4.00D-07 OVMax= 5.55D-04

 Cycle   9  Pass 1  IDiag  1:
 E= -973.652704162613     Delta-E=       -0.000000064227 Rises=F Damp=F
 DIIS: error= 6.34D-06 at cycle   9 NSaved=   9.
 NSaved= 9 IEnMin= 9 EnMin= -973.652704162613     IErMin= 9 ErrMin= 6.34D-06
 ErrMax= 6.34D-06  0.00D+00 EMaxC= 1.00D-01 BMatC= 2.22D-08 BMatP= 8.21D-08
 IDIUse=1 WtCom= 1.00D+00 WtEn= 0.00D+00
 Coeff-Com: -0.802D-03 0.948D-02 0.130D-01 0.213D-01 0.800D-03-0.205D+00
 Coeff-Com:  0.200D-01 0.433D+00 0.708D+00
 Coeff:     -0.802D-03 0.948D-02 0.130D-01 0.213D-01 0.800D-03-0.205D+00
 Coeff:      0.200D-01 0.433D+00 0.708D+00
 Gap=     0.082 Goal=   None    Shift=    0.000
 Gap=     0.062 Goal=   None    Shift=    0.000
 RMSDP=9.47D-07 MaxDP=3.89D-05 DE=-6.42D-08 OVMax= 2.42D-04

 Cycle  10  Pass 1  IDiag  1:
 E= -973.652704178448     Delta-E=       -0.000000015834 Rises=F Damp=F
 DIIS: error= 2.85D-06 at cycle  10 NSaved=  10.
 NSaved=10 IEnMin=10 EnMin= -973.652704178448     IErMin=10 ErrMin= 2.85D-06
 ErrMax= 2.85D-06  0.00D+00 EMaxC= 1.00D-01 BMatC= 3.92D-09 BMatP= 2.22D-08
 IDIUse=1 WtCom= 1.00D+00 WtEn= 0.00D+00
 Coeff-Com: -0.557D-03 0.397D-02 0.739D-02 0.214D-01 0.222D-01-0.976D-01
 Coeff-Com: -0.664D-01-0.309D-01 0.275D+00 0.865D+00
 Coeff:     -0.557D-03 0.397D-02 0.739D-02 0.214D-01 0.222D-01-0.976D-01
 Coeff:     -0.664D-01-0.309D-01 0.275D+00 0.865D+00
 Gap=     0.082 Goal=   None    Shift=    0.000
 Gap=     0.062 Goal=   None    Shift=    0.000
 RMSDP=5.18D-07 MaxDP=2.64D-05 DE=-1.58D-08 OVMax= 1.02D-04

 Cycle  11  Pass 1  IDiag  1:
 E= -973.652704181996     Delta-E=       -0.000000003548 Rises=F Damp=F
 DIIS: error= 2.04D-06 at cycle  11 NSaved=  11.
 NSaved=11 IEnMin=11 EnMin= -973.652704181996     IErMin=11 ErrMin= 2.04D-06
 ErrMax= 2.04D-06  0.00D+00 EMaxC= 1.00D-01 BMatC= 1.63D-09 BMatP= 3.92D-09
 IDIUse=1 WtCom= 1.00D+00 WtEn= 0.00D+00
 Coeff-Com: -0.998D-04-0.379D-03 0.722D-03 0.626D-02 0.145D-01-0.240D-02
 Coeff-Com: -0.474D-01-0.141D+00-0.462D-01 0.525D+00 0.690D+00
 Coeff:     -0.998D-04-0.379D-03 0.722D-03 0.626D-02 0.145D-01-0.240D-02
 Coeff:     -0.474D-01-0.141D+00-0.462D-01 0.525D+00 0.690D+00
 Gap=     0.082 Goal=   None    Shift=    0.000
 Gap=     0.062 Goal=   None    Shift=    0.000
 RMSDP=2.37D-07 MaxDP=1.27D-05 DE=-3.55D-09 OVMax= 4.29D-05

 Cycle  12  Pass 1  IDiag  1:
 E= -973.652704182905     Delta-E=       -0.000000000909 Rises=F Damp=F
 DIIS: error= 5.58D-07 at cycle  12 NSaved=  12.
 NSaved=12 IEnMin=12 EnMin= -973.652704182905     IErMin=12 ErrMin= 5.58D-07
 ErrMax= 5.58D-07  0.00D+00 EMaxC= 1.00D-01 BMatC= 1.47D-10 BMatP= 1.63D-09
 IDIUse=1 WtCom= 1.00D+00 WtEn= 0.00D+00
 Coeff-Com:  0.295D-04-0.694D-03-0.813D-03-0.455D-03 0.257D-02 0.129D-01
 Coeff-Com: -0.132D-01-0.560D-01-0.570D-01 0.107D+00 0.298D+00 0.708D+00
 Coeff:      0.295D-04-0.694D-03-0.813D-03-0.455D-03 0.257D-02 0.129D-01
 Coeff:     -0.132D-01-0.560D-01-0.570D-01 0.107D+00 0.298D+00 0.708D+00
 Gap=     0.082 Goal=   None    Shift=    0.000
 Gap=     0.062 Goal=   None    Shift=    0.000
 RMSDP=6.97D-08 MaxDP=3.40D-06 DE=-9.09D-10 OVMax= 1.60D-05

 Cycle  13  Pass 1  IDiag  1:
 E= -973.652704183004     Delta-E=       -0.000000000099 Rises=F Damp=F
 DIIS: error= 1.97D-07 at cycle  13 NSaved=  13.
 NSaved=13 IEnMin=13 EnMin= -973.652704183004     IErMin=13 ErrMin= 1.97D-07
 ErrMax= 1.97D-07  0.00D+00 EMaxC= 1.00D-01 BMatC= 2.57D-11 BMatP= 1.47D-10
 IDIUse=1 WtCom= 1.00D+00 WtEn= 0.00D+00
 Coeff-Com:  0.228D-04-0.558D-04-0.298D-03-0.864D-03-0.176D-02 0.341D-02
 Coeff-Com:  0.396D-02 0.132D-01 0.123D-02-0.715D-01-0.630D-01 0.157D+00
 Coeff-Com:  0.959D+00
 Coeff:      0.228D-04-0.558D-04-0.298D-03-0.864D-03-0.176D-02 0.341D-02
 Coeff:      0.396D-02 0.132D-01 0.123D-02-0.715D-01-0.630D-01 0.157D+00
 Coeff:      0.959D+00
 Gap=     0.082 Goal=   None    Shift=    0.000
 Gap=     0.062 Goal=   None    Shift=    0.000
 RMSDP=2.85D-08 MaxDP=1.10D-06 DE=-9.94D-11 OVMax= 4.07D-06

 Cycle  14  Pass 1  IDiag  1:
 E= -973.652704183028     Delta-E=       -0.000000000023 Rises=F Damp=F
 DIIS: error= 9.19D-08 at cycle  14 NSaved=  14.
 NSaved=14 IEnMin=14 EnMin= -973.652704183028     IErMin=14 ErrMin= 9.19D-08
 ErrMax= 9.19D-08  0.00D+00 EMaxC= 1.00D-01 BMatC= 4.04D-12 BMatP= 2.57D-11
 IDIUse=1 WtCom= 1.00D+00 WtEn= 0.00D+00
 Coeff-Com:  0.141D-05 0.110D-03 0.400D-04-0.146D-03-0.103D-02-0.123D-02
 Coeff-Com:  0.274D-02 0.131D-01 0.108D-01-0.354D-01-0.680D-01-0.759D-01
 Coeff-Com:  0.218D+00 0.937D+00
 Coeff:      0.141D-05 0.110D-03 0.400D-04-0.146D-03-0.103D-02-0.123D-02
 Coeff:      0.274D-02 0.131D-01 0.108D-01-0.354D-01-0.680D-01-0.759D-01
 Coeff:      0.218D+00 0.937D+00
 Gap=     0.082 Goal=   None    Shift=    0.000
 Gap=     0.062 Goal=   None    Shift=    0.000
 RMSDP=1.34D-08 MaxDP=6.76D-07 DE=-2.32D-11 OVMax= 1.91D-06

 Cycle  15  Pass 1  IDiag  1:
 E= -973.652704183007     Delta-E=        0.000000000021 Rises=F Damp=F
 DIIS: error= 5.80D-08 at cycle  15 NSaved=  15.
 NSaved=15 IEnMin=14 EnMin= -973.652704183028     IErMin=15 ErrMin= 5.80D-08
 ErrMax= 5.80D-08  0.00D+00 EMaxC= 1.00D-01 BMatC= 2.05D-12 BMatP= 4.04D-12
 IDIUse=1 WtCom= 1.00D+00 WtEn= 0.00D+00
 Coeff-Com: -0.560D-05 0.723D-04 0.103D-03 0.197D-03-0.434D-04-0.134D-02
 Coeff-Com:  0.139D-03 0.291D-02 0.467D-02 0.217D-02-0.165D-01-0.763D-01
 Coeff-Com: -0.155D+00 0.494D+00 0.745D+00
 Coeff:     -0.560D-05 0.723D-04 0.103D-03 0.197D-03-0.434D-04-0.134D-02
 Coeff:      0.139D-03 0.291D-02 0.467D-02 0.217D-02-0.165D-01-0.763D-01
 Coeff:     -0.155D+00 0.494D+00 0.745D+00
 Gap=     0.082 Goal=   None    Shift=    0.000
 Gap=     0.062 Goal=   None    Shift=    0.000
 RMSDP=9.15D-09 MaxDP=3.88D-07 DE= 2.07D-11 OVMax= 1.77D-06

 Error on total polarization charges =  0.01276
 SCF Done:  E(UB3LYP) =  -973.652704183     A.U. after   15 cycles
            NFock= 15  Conv=0.92D-08     -V/T= 2.0049
 <Sx>= 0.0000 <Sy>= 0.0000 <Sz>= 1.0000 <S**2>= 2.0075 S= 1.0025
 <L.S>= 0.000000000000E+00
 KE= 9.689017700483D+02 PE=-4.264932414561D+03 EE= 1.331666683693D+03
 Annihilation of the first spin contaminant:
 S**2 before annihilation     2.0075,   after     2.0000
 Leave Link  502 at Tue Aug 18 13:02:34 2026, MaxMem=  2684354560 cpu:             736.3 elap:             737.4
 (Enter /mnt/data/applications/G16/g16/l701.exe)
 ... and contract with generalized density number  0.
 Compute integral first derivatives.
 R6Disp: Adding Grimme-D3(BJ) dispersion energy 1st derivatives to the gradient.
   1 Symmetry operations used in ECPInt.
 ECPInt:  NShTT=    6786 NPrTT=   65756 LenC2=    6456 LenP2D=   34292.
 LDataN:  DoStor=T MaxTD1= 5 Len=  102
 D1PCM: PCM CHGder 1st derivatives, ID1Alg=3 FixD1E=F DoIter=F DoCFld=F I1PDM=0.
 GePol: Maximum number of non-zero 1st derivatives   =     241
 Leave Link  701 at Tue Aug 18 13:02:47 2026, MaxMem=  2684354560 cpu:              13.3 elap:              13.3
 (Enter /mnt/data/applications/G16/g16/l702.exe)
 L702 exits ... SP integral derivatives will be done elsewhere.
 Leave Link  702 at Tue Aug 18 13:02:47 2026, MaxMem=  2684354560 cpu:               0.0 elap:               0.0
 (Enter /mnt/data/applications/G16/g16/l703.exe)
 Integral derivatives from FoFJK, PRISM(SPDF).
 Compute integral first derivatives, UseDBF=F ICtDFT=           0.
 Calling FoFJK, ICntrl=      2127 FMM=F ISym2X=0 I1Cent= 0 IOpClX= 1 NMat=1 NMatS=1 NMatT=0.
 FoFJK:  IHMeth= 1 ICntrl=    2127 DoSepK=F KAlg= 0 I1Cent=           0 FoldK=F
 IRaf=         0 NMat=       1 IRICut=       1 DoRegI=T DoRafI=F ISym2E= 0 IDoP0=0 IntGTp=1.
 FoFCou: FMM=F IPFlag=           0 FMFlag=      100000 FMFlg1=         800
         NFxFlg=           0 DoJE=F BraDBF=F KetDBF=F FulRan=T
         wScrn=  0.000000 ICntrl=      2127 IOpCl=  1 I1Cent=           0 NGrid=           0
         NMat0=    1 NMatS0=      1 NMatT0=    0 NMatD0=    1 NMtDS0=    0 NMtDT0=    0
 Symmetry not used in FoFCou.
 Leave Link  703 at Tue Aug 18 13:05:10 2026, MaxMem=  2684354560 cpu:             142.1 elap:             142.3
 (Enter /mnt/data/applications/G16/g16/l716.exe)
 Dipole        = 1.28117890D+00-2.17874124D+00 3.19822028D-02
 -------------------------------------------------------------------
 Center     Atomic                   Forces (Hartrees/Bohr)
 Number     Number              X              Y              Z
 -------------------------------------------------------------------
      1        6           0.000776814    0.000784604   -0.000000738
      2        6          -0.000400406    0.000312013   -0.000006185
      3        6          -0.000012397    0.000132111   -0.000000910
      4        6          -0.002343878    0.000412474   -0.000012665
      5        6          -0.000060264   -0.000461561    0.000001766
      6        6          -0.000176980    0.000310340   -0.000004452
      7        6           0.004113643   -0.006995336    0.000065103
      8        6           0.000780236    0.002245481   -0.000002153
      9        6          -0.000096355    0.000066398   -0.000003497
     10        6          -0.000080007    0.000497702   -0.000004728
     11        1           0.000012783   -0.000051203    0.000001876
     12        6          -0.001063803   -0.000307800   -0.000003618
     13        6          -0.000176987    0.000302066   -0.000003995
     14        6           0.000436903   -0.000177759    0.000004427
     15        1          -0.000058613   -0.000160986    0.000001270
     16        1           0.000042799   -0.000041984    0.000001581
     17        1          -0.000252613   -0.000135140   -0.000003366
     18        1           0.000102181    0.000170052   -0.000002197
     19        1           0.000172691   -0.000037978    0.000002264
     20        1          -0.000192193   -0.000013993   -0.000001441
     21        1           0.000246117    0.000166491   -0.000002221
     22       16           0.000832720   -0.001438932    0.000024662
     23        8          -0.002602393    0.004422941   -0.000050785
 -------------------------------------------------------------------
 Cartesian Forces:  Max     0.006995336 RMS     0.001264166
 Leave Link  716 at Tue Aug 18 13:05:10 2026, MaxMem=  2684354560 cpu:               0.0 elap:               0.0
 (Enter /mnt/data/applications/G16/g16/l103.exe)

 GradGradGradGradGradGradGradGradGradGradGradGradGradGradGradGradGradGrad
 Berny optimization.
 Using GEDIIS/GDIIS optimizer.
 FormGI is forming the generalized inverse of G from B-inverse, IUseBI=4.
 Internal  Forces:  Max     0.005131978 RMS     0.000587179
 Search for a local minimum.
 Step number   3 out of a maximum of  135
 All quantities printed in internal units (Hartrees-Bohrs-Radians)
 RMS Force = .58718D-03 SwitMx=.10000D-02 MixMth= 2
 Mixed Optimization -- En-DIIS/RFO-DIIS
 Update second derivatives using D2CorX and points    1    2    3
 DE= -7.71D-04 DEPred=-6.58D-04 R= 1.17D+00
 TightC=F SS=  1.41D+00  RLast= 7.20D-02 DXNew= 7.5422D-01 2.1595D-01
 Trust test= 1.17D+00 RLast= 7.20D-02 DXMaxT set to 4.48D-01
 ITU=  1  1  0
 Use linear search instead of GDIIS.
     Eigenvalues ---    0.00933   0.00985   0.01450   0.01549   0.01680
     Eigenvalues ---    0.01711   0.01812   0.01833   0.02052   0.02053
     Eigenvalues ---    0.02063   0.02064   0.02108   0.02108   0.02127
     Eigenvalues ---    0.02127   0.02143   0.02144   0.02185   0.02185
     Eigenvalues ---    0.15631   0.16000   0.16000   0.16000   0.16000
     Eigenvalues ---    0.16000   0.16005   0.16054   0.19299   0.22000
     Eigenvalues ---    0.22388   0.22598   0.22630   0.24470   0.24949
     Eigenvalues ---    0.25000   0.25000   0.27074   0.29034   0.30167
     Eigenvalues ---    0.31952   0.33788   0.34602   0.34605   0.34606
     Eigenvalues ---    0.34633   0.34669   0.34691   0.34812   0.34819
     Eigenvalues ---    0.38664   0.40133   0.41032   0.41143   0.43317
     Eigenvalues ---    0.43509   0.44343   0.45152   0.46434   0.46835
     Eigenvalues ---    0.47396   0.49980   0.70671
 RFO step:  Lambda=-8.39523320D-05 EMin= 9.33189375D-03
 Quartic linear search produced a step of  0.17455.
 Iteration  1 RMS(Cart)=  0.00191704 RMS(Int)=  0.00000479
 Iteration  2 RMS(Cart)=  0.00001166 RMS(Int)=  0.00000242
 Iteration  3 RMS(Cart)=  0.00000000 RMS(Int)=  0.00000242
 ITry= 1 IFail=0 DXMaxC= 1.12D-02 DCOld= 1.00D+10 DXMaxT= 4.48D-01 DXLimC= 3.00D+00 Rises=F
 Variable       Old X    -DE/DX   Delta X   Delta X   Delta X     New X
                                 (Linear)    (Quad)   (Total)
    R1        2.63384  -0.00030   0.00072  -0.00108  -0.00036   2.63348
    R2        2.66073  -0.00011  -0.00071   0.00042  -0.00029   2.66044
    R3        2.05894   0.00017  -0.00039   0.00075   0.00036   2.05930
    R4        2.65646  -0.00045  -0.00138  -0.00015  -0.00153   2.65493
    R5        2.06299   0.00006  -0.00007   0.00025   0.00018   2.06317
    R6        2.70871   0.00011   0.00172   0.00036   0.00208   2.71079
    R7        3.30184   0.00108  -0.00097   0.00413   0.00315   3.30499
    R8        2.67229  -0.00002   0.00039  -0.00018   0.00021   2.67250
    R9        2.74757  -0.00017  -0.00480   0.00160  -0.00319   2.74438
   R10        2.63376  -0.00086  -0.00047  -0.00121  -0.00168   2.63208
   R11        2.05804  -0.00001   0.00001  -0.00011  -0.00009   2.05795
   R12        2.06453  -0.00009   0.00027  -0.00047  -0.00019   2.06434
   R13        2.74753  -0.00017  -0.00480   0.00162  -0.00317   2.74435
   R14        2.42329   0.00513   0.00516   0.00516   0.01033   2.43362
   R15        2.70883   0.00012   0.00173   0.00038   0.00211   2.71094
   R16        2.67227  -0.00001   0.00038  -0.00014   0.00024   2.67251
   R17        2.65642  -0.00046  -0.00136  -0.00017  -0.00153   2.65489
   R18        3.30172   0.00109  -0.00097   0.00417   0.00319   3.30491
   R19        2.06314   0.00005  -0.00007   0.00021   0.00014   2.06329
   R20        2.63393  -0.00031   0.00073  -0.00111  -0.00038   2.63354
   R21        2.66077  -0.00011  -0.00071   0.00042  -0.00030   2.66047
   R22        2.05894   0.00017  -0.00039   0.00075   0.00036   2.05930
   R23        2.63373  -0.00085  -0.00048  -0.00120  -0.00167   2.63206
   R24        2.06455  -0.00010   0.00028  -0.00047  -0.00020   2.06435
   R25        2.05789   0.00000   0.00000  -0.00006  -0.00006   2.05783
    A1        2.07054   0.00051  -0.00098   0.00229   0.00131   2.07185
    A2        2.10217  -0.00030   0.00109  -0.00187  -0.00078   2.10139
    A3        2.11047  -0.00021  -0.00011  -0.00042  -0.00053   2.10994
    A4        2.09380   0.00002   0.00007  -0.00014  -0.00007   2.09373
    A5        2.10488   0.00001   0.00096  -0.00048   0.00049   2.10537
    A6        2.08451  -0.00003  -0.00103   0.00061  -0.00042   2.08408
    A7        2.13821  -0.00065   0.00128  -0.00260  -0.00133   2.13688
    A8        2.01736   0.00018   0.00049   0.00026   0.00075   2.01811
    A9        2.12762   0.00047  -0.00176   0.00234   0.00058   2.12820
   A10        2.01936   0.00058  -0.00195   0.00294   0.00099   2.02034
   A11        2.17842  -0.00115  -0.00077  -0.00440  -0.00516   2.17326
   A12        2.08541   0.00057   0.00272   0.00146   0.00417   2.08958
   A13        2.12454  -0.00015   0.00055  -0.00103  -0.00047   2.12407
   A14        2.04222   0.00037   0.00059   0.00186   0.00245   2.04467
   A15        2.11642  -0.00022  -0.00115  -0.00083  -0.00198   2.11445
   A16        2.11993  -0.00031   0.00103  -0.00147  -0.00043   2.11950
   A17        2.08289   0.00033  -0.00004   0.00166   0.00161   2.08451
   A18        2.08036  -0.00002  -0.00099  -0.00019  -0.00118   2.07918
   A19        2.10760   0.00182   0.00341   0.00592   0.00934   2.11695
   A20        2.08766  -0.00091  -0.00171  -0.00298  -0.00469   2.08297
   A21        2.08792  -0.00090  -0.00170  -0.00294  -0.00465   2.08327
   A22        2.17838  -0.00116  -0.00075  -0.00443  -0.00518   2.17320
   A23        2.08563   0.00058   0.00271   0.00148   0.00419   2.08982
   A24        2.01917   0.00058  -0.00196   0.00295   0.00099   2.02016
   A25        2.13837  -0.00065   0.00128  -0.00263  -0.00135   2.13702
   A26        2.12765   0.00047  -0.00178   0.00235   0.00057   2.12822
   A27        2.01717   0.00019   0.00050   0.00028   0.00078   2.01794
   A28        2.08456  -0.00003  -0.00101   0.00062  -0.00038   2.08417
   A29        2.09374   0.00003   0.00006  -0.00010  -0.00004   2.09369
   A30        2.10489   0.00000   0.00094  -0.00052   0.00043   2.10532
   A31        2.07048   0.00051  -0.00098   0.00230   0.00131   2.07179
   A32        2.10221  -0.00030   0.00110  -0.00190  -0.00080   2.10141
   A33        2.11049  -0.00021  -0.00012  -0.00040  -0.00052   2.10998
   A34        2.11998  -0.00031   0.00103  -0.00147  -0.00043   2.11955
   A35        2.08300   0.00033  -0.00004   0.00165   0.00161   2.08461
   A36        2.08021  -0.00002  -0.00100  -0.00018  -0.00118   2.07903
   A37        2.12463  -0.00015   0.00056  -0.00105  -0.00048   2.12415
   A38        2.04245   0.00038   0.00059   0.00192   0.00251   2.04496
   A39        2.11611  -0.00023  -0.00116  -0.00087  -0.00203   2.11408
   A40        1.84669  -0.00044   0.00165  -0.00179  -0.00015   1.84654
    D1       -0.00002   0.00000  -0.00001   0.00002   0.00001  -0.00001
    D2        3.14159   0.00000  -0.00001   0.00000  -0.00001   3.14159
    D3       -3.14159   0.00000  -0.00000   0.00001   0.00000  -3.14158
    D4        0.00003  -0.00000  -0.00000  -0.00001  -0.00001   0.00001
    D5        0.00007   0.00000   0.00000  -0.00000   0.00000   0.00007
    D6       -3.14151  -0.00000   0.00001  -0.00003  -0.00002  -3.14153
    D7       -3.14155   0.00000  -0.00000   0.00001   0.00001  -3.14154
    D8        0.00006  -0.00000   0.00000  -0.00001  -0.00001   0.00005
    D9       -0.00004  -0.00000   0.00000  -0.00002  -0.00002  -0.00006
   D10        3.14152  -0.00000   0.00001  -0.00008  -0.00007   3.14145
   D11        3.14153  -0.00000   0.00000  -0.00000   0.00000   3.14153
   D12       -0.00009  -0.00000   0.00001  -0.00006  -0.00005  -0.00014
   D13        0.00006   0.00000   0.00000   0.00000   0.00000   0.00007
   D14        3.14157   0.00000  -0.00001   0.00006   0.00005  -3.14156
   D15       -3.14150   0.00000  -0.00001   0.00007   0.00006  -3.14144
   D16        0.00001   0.00000  -0.00002   0.00013   0.00011   0.00012
   D17       -3.14146   0.00000  -0.00002   0.00020   0.00018  -3.14128
   D18        0.00011   0.00000  -0.00001   0.00014   0.00013   0.00023
   D19       -0.00002   0.00000  -0.00001   0.00002   0.00001  -0.00001
   D20        3.14153   0.00000  -0.00001   0.00005   0.00004   3.14156
   D21       -3.14153  -0.00000   0.00000  -0.00004  -0.00004  -3.14157
   D22        0.00001   0.00000  -0.00000  -0.00001  -0.00001   0.00000
   D23       -0.00028  -0.00000   0.00004  -0.00045  -0.00042  -0.00070
   D24        3.14099   0.00001  -0.00007   0.00107   0.00100  -3.14120
   D25        3.14122  -0.00000   0.00003  -0.00039  -0.00037   3.14085
   D26       -0.00069   0.00001  -0.00008   0.00113   0.00105   0.00036
   D27       -0.00005  -0.00000   0.00001  -0.00002  -0.00001  -0.00006
   D28        3.14153   0.00000   0.00000   0.00001   0.00001   3.14153
   D29       -3.14159  -0.00000   0.00001  -0.00005  -0.00004   3.14156
   D30       -0.00001  -0.00000   0.00001  -0.00003  -0.00002  -0.00003
   D31        0.00044   0.00000  -0.00002   0.00049   0.00047   0.00091
   D32       -3.14115   0.00000  -0.00001   0.00039   0.00038  -3.14077
   D33       -3.14083  -0.00001   0.00008  -0.00104  -0.00095   3.14140
   D34        0.00076  -0.00001   0.00010  -0.00114  -0.00104  -0.00028
   D35        3.14129  -0.00000  -0.00001  -0.00009  -0.00010   3.14119
   D36       -0.00031  -0.00000  -0.00000  -0.00019  -0.00020  -0.00051
   D37       -0.00030  -0.00000  -0.00002   0.00001  -0.00001  -0.00032
   D38        3.14129  -0.00000  -0.00002  -0.00010  -0.00011   3.14117
   D39       -3.14133   0.00000   0.00001   0.00007   0.00008  -3.14125
   D40        0.00031   0.00000   0.00002   0.00002   0.00004   0.00035
   D41        0.00026  -0.00000   0.00002  -0.00002   0.00000   0.00026
   D42       -3.14128  -0.00000   0.00003  -0.00008  -0.00004  -3.14133
   D43       -3.14146   0.00000   0.00000  -0.00001  -0.00000  -3.14146
   D44        0.00014   0.00000   0.00001   0.00001   0.00002   0.00015
   D45        0.00014   0.00000  -0.00000   0.00009   0.00009   0.00023
   D46       -3.14145   0.00000   0.00000   0.00011   0.00011  -3.14134
   D47        0.00003   0.00000   0.00002  -0.00010  -0.00008  -0.00005
   D48       -3.14156  -0.00000   0.00002  -0.00020  -0.00018   3.14145
   D49        0.00008  -0.00000   0.00001  -0.00001  -0.00000   0.00008
   D50       -3.14156   0.00000   0.00000   0.00001   0.00001  -3.14155
   D51       -3.14151   0.00000   0.00001   0.00000   0.00002  -3.14149
   D52        0.00004   0.00000   0.00000   0.00002   0.00003   0.00007
   D53       -0.00012  -0.00000  -0.00001  -0.00000  -0.00001  -0.00013
   D54        3.14145   0.00000  -0.00001   0.00002   0.00001   3.14146
   D55        3.14152  -0.00000  -0.00000  -0.00002  -0.00003   3.14149
   D56       -0.00009  -0.00000  -0.00000   0.00000  -0.00000  -0.00009
   D57       -0.00006   0.00000  -0.00001   0.00002   0.00001  -0.00004
   D58        3.14148   0.00000  -0.00002   0.00008   0.00006   3.14154
   D59        3.14155  -0.00000  -0.00000  -0.00001  -0.00001   3.14154
   D60       -0.00009   0.00000  -0.00002   0.00005   0.00003  -0.00006
         Item               Value     Threshold  Converged?
 Maximum Force            0.005132     0.000450     NO 
 RMS     Force            0.000587     0.000300     NO 
 Maximum Displacement     0.011153     0.001800     NO 
 RMS     Displacement     0.001915     0.001200     NO 
 Predicted change in Energy=-5.910032D-05
 Lowest energy point so far.  Saving SCF results.
 GradGradGradGradGradGradGradGradGradGradGradGradGradGradGradGradGradGrad

 Leave Link  103 at Tue Aug 18 13:05:10 2026, MaxMem=  2684354560 cpu:               0.0 elap:               0.0
 (Enter /mnt/data/applications/G16/g16/l202.exe)
                          Input orientation:                          
 ---------------------------------------------------------------------
 Center     Atomic      Atomic             Coordinates (Angstroms)
 Number     Number       Type             X           Y           Z
 ---------------------------------------------------------------------
      1          6           0       -9.141888   -0.413826    0.008624
      2          6           0       -7.749496   -0.470141    0.020032
      3          6           0       -6.999155    0.717623    0.014372
      4          6           0       -7.611797    2.014587   -0.003050
      5          6           0       -9.025932    2.026174   -0.014180
      6          6           0       -9.767581    0.847224   -0.008468
      7          6           0       -6.881345    3.269763   -0.009560
      8          6           0       -5.429413    3.297608    0.002399
      9          6           0       -4.594155    2.131415    0.020134
     10          6           0       -3.191439    2.209137    0.030744
     11          1           0       -2.603504    1.289203    0.044037
     12          6           0       -2.563271    3.453128    0.024294
     13          6           0       -3.360713    4.613242    0.007203
     14          6           0       -4.751506    4.538762   -0.003405
     15          1           0       -9.730930   -1.330631    0.012925
     16          1           0       -7.231771   -1.431273    0.033384
     17          1           0       -9.514849    2.999182   -0.027450
     18          1           0      -10.858407    0.905177   -0.017475
     19          1           0       -1.475733    3.521811    0.032402
     20          1           0       -2.880850    5.594596    0.002111
     21          1           0       -5.363397    5.439454   -0.016567
     22         16           0       -5.262061    0.515126    0.030107
     23          8           0       -7.534107    4.379776   -0.025032
 ---------------------------------------------------------------------
                    Distance matrix (angstroms):
                    1          2          3          4          5
     1  C    0.000000
     2  C    1.393577   0.000000
     3  C    2.423121   1.404929   0.000000
     4  C    2.870279   2.488648   1.434486   0.000000
     5  C    2.442860   2.803934   2.412664   1.414226   0.000000
     6  C    1.407846   2.410172   2.771552   2.451565   1.392838
     7  C    4.321945   3.839459   2.554971   1.452264   2.479070
     8  C    5.249500   4.424820   3.020026   2.531595   3.814678
     9  C    5.211551   4.089532   2.789779   3.019992   4.433159
    10  C    6.502942   5.287204   4.089447   4.424766   5.837533
    11  H    6.756628   5.438483   4.432756   5.060770   6.464835
    12  C    7.630975   6.502998   5.211540   5.249549   6.618433
    13  C    7.661161   6.715829   5.330493   4.982452   6.228008
    14  C    6.618438   5.837602   4.433209   3.814803   4.958218
    15  H    1.089735   2.160226   3.414373   3.959983   3.430145
    16  H    2.164338   1.091784   2.161532   3.466944   3.895538
    17  H    3.433515   3.892933   3.396466   2.142808   1.089019
    18  H    2.164922   3.399741   3.863939   3.430959   2.148165
    19  H    8.617409   7.436124   6.194513   6.318565   7.697052
    20  H    8.677659   7.777215   6.383217   5.932820   7.106049
    21  H    6.966959   6.373235   4.997235   4.096975   5.006461
    22  S    3.989545   2.675479   1.748927   2.787605   4.056100
    23  O    5.056155   4.854906   3.701229   2.366566   2.786593
                    6          7          8          9         10
     6  C    0.000000
     7  C    3.768163   0.000000
     8  C    4.982389   1.452248   0.000000
     9  C    5.330507   2.554987   1.434566   0.000000
    10  C    6.715801   3.839526   2.488795   1.404907   0.000000
    11  H    7.177890   4.714384   3.467158   2.161615   1.091844
    12  C    7.661193   4.322098   2.870442   2.423103   1.393611
    13  C    7.431762   3.768298   2.451619   2.771464   2.410172
    14  C    6.228040   2.479236   1.414233   2.412599   2.803948
    15  H    2.178269   5.411494   6.318525   6.194536   7.436075
    16  H    3.409345   4.714274   5.060807   4.432825   5.438462
    17  H    2.166831   2.647428   4.096429   4.996850   6.372838
    18  H    1.092402   4.626916   5.932798   6.383254   7.777213
    19  H    8.712625   5.411648   3.960146   3.414368   2.160270
    20  H    8.364491   4.626980   3.430937   3.863853   3.399797
    21  H    6.362820   2.647976   2.142947   3.396499   3.892889
    22  S    4.517907   3.195572   2.787648   1.748882   2.675284
    23  O    4.179426   1.287814   2.366765   3.701417   4.855260
                   11         12         13         14         15
    11  H    0.000000
    12  C    2.164389   0.000000
    13  C    3.409392   1.407860   0.000000
    14  C    3.895612   2.442896   1.392827   0.000000
    15  H    7.593728   8.617413   8.712596   7.697058   0.000000
    16  H    5.368608   6.756651   7.177878   6.464857   2.501269
    17  H    7.120100   6.966575   6.362372   5.006028   4.335390
    18  H    8.264060   8.677735   8.364555   7.106151   2.504190
    19  H    2.501308   1.089735   2.178303   3.430184   9.575744
    20  H    4.314520   2.165002   1.092406   2.148062   9.740764
    21  H    4.984502   3.433346   2.166549   1.088958   8.056691
    22  S    2.768992   3.989405   4.517765   4.056036   4.835070
    23  O    5.819558   5.056710   4.180044   2.787223   6.118515
                   16         17         18         19         20
    16  H    0.000000
    17  H    4.984484   0.000000
    18  H    4.314404   2.487993   0.000000
    19  H    7.593748   8.056309   9.740834   0.000000
    20  H    8.264038   7.123692   9.253781   2.504337   0.000000
    21  H    7.120408   4.815558   7.124241   4.335168   2.487460
    22  S    2.769158   4.925449   5.610124   4.834919   5.609988
    23  O    5.819202   2.414411   4.808728   6.119093   4.809296
                   21         22         23
    21  H    0.000000
    22  S    4.925592   0.000000
    23  O    2.415569   4.483386   0.000000
 Symmetry turned off by external request.
 Stoichiometry    C13H8OS(3)
 Framework group  C1[X(C13H8OS)]
 Deg. of freedom    63
 Full point group                 C1      NOp   1
 Rotational constants (GHZ):           1.2154775           0.4223015           0.3134110
 Leave Link  202 at Tue Aug 18 13:05:10 2026, MaxMem=  2684354560 cpu:               0.0 elap:               0.0
 (Enter /mnt/data/applications/G16/g16/l301.exe)
 Basis read from rwf:  (5D, 7F)
 Pseudo-potential data read from rwf file.
   254 basis functions,   589 primitive gaussians,   269 cartesian basis functions
    56 alpha electrons       54 beta electrons
       nuclear repulsion energy       990.5330208141 Hartrees.
 IExCor=  402 DFT=T Ex+Corr=B3LYP ExCW=0 ScaHFX=  0.200000
 ScaDFX=  0.800000  0.720000  1.000000  0.810000 ScalE2=  1.000000  1.000000
 IRadAn=      5 IRanWt=     -1 IRanGd=            0 ICorTp=0 IEmpDi=141
 NAtoms=   23 NActive=   23 NUniq=   23 SFac= 1.00D+00 NAtFMM=   60 NAOKFM=F Big=F
 Integral buffers will be    131072 words long.
 Raffenetti 2 integral format.
 Two-electron integral symmetry is turned off.
 R6Disp:  Grimme-D3(BJ) Dispersion energy=       -0.0580976940 Hartrees.
 Nuclear repulsion after empirical dispersion term =      990.4749231201 Hartrees.
 No density basis found on file   724.
 ------------------------------------------------------------------------------
 Polarizable Continuum Model (PCM)
 =================================
 Model                : PCM.
 Atomic radii         : UFF (Universal Force Field).
 Polarization charges : Total charges.
 Charge compensation  : None.
 Solution method      : On-the-fly selection.
 Cavity type          : Scaled VdW (van der Waals Surface) (Alpha=1.100).
 Cavity algorithm     : GePol (No added spheres)
                        Default sphere list used, NSphG=   23.
                        Lebedev-Laikov grids with approx.  5.0 points / Ang**2.
                        Smoothing algorithm: York/Karplus (Gamma=1.0000).
                        Polarization charges: spherical gaussians, with
                                              point-specific exponents (IZeta= 3).
                        Self-potential: point-specific (ISelfS= 7).
                        Self-field    : sphere-specific E.n sum rule (ISelfD= 2).
 1st derivatives      : Analytical E(r).r(x)/FMM algorithm (CHGder, D1EAlg=3).
                        Cavity 1st derivative terms included.
 Solvent              : Acetonitrile, Eps=  35.688000 Eps(inf)=   1.806874
 ------------------------------------------------------------------------------
 GePol: Number of generator spheres                  =      23
 GePol: Total number of spheres                      =      23
 GePol: Number of exposed spheres                    =      23 (100.00%)
 GePol: Number of points                             =    1985
 GePol: Average weight of points                     =       0.13
 GePol: Minimum weight of points                     =   0.23D-09
 GePol: Maximum weight of points                     =    0.20577
 GePol: Number of points with low weight             =      94
 GePol: Fraction of low-weight points (<1% of avg)   =       4.74%
 GePol: Cavity surface area                          =    256.588 Ang**2
 GePol: Cavity volume                                =    277.422 Ang**3
 Leave Link  301 at Tue Aug 18 13:05:10 2026, MaxMem=  2684354560 cpu:               0.1 elap:               0.1
 (Enter /mnt/data/applications/G16/g16/l302.exe)
 NPDir=0 NMtPBC=     1 NCelOv=     1 NCel=       1 NClECP=     1 NCelD=      1
         NCelK=      1 NCelE2=     1 NClLst=     1 CellRange=     0.0.
 One-electron integrals computed using PRISM.
   1 Symmetry operations used in ECPInt.
 ECPInt:  NShTT=    6786 NPrTT=   65756 LenC2=    6456 LenP2D=   34284.
 LDataN:  DoStor=T MaxTD1= 4 Len=   56
 NBasis=   254 RedAO= T EigKep=  2.46D-04  NBF=   254
 NBsUse=   254 1.00D-06 EigRej= -1.00D+00 NBFU=   254
 Precomputing XC quadrature grid using
 IXCGrd= 4 IRadAn=           5 IRanWt=          -1 IRanGd=           0 AccXCQ= 0.00D+00.
 Generated NRdTot=       0 NPtTot=           0 NUsed=           0 NTot=          32
 NSgBfM=   268   268   268   268   268 MxSgAt=    23 MxSgA2=    23.
 Leave Link  302 at Tue Aug 18 13:05:11 2026, MaxMem=  2684354560 cpu:               1.2 elap:               1.2
 (Enter /mnt/data/applications/G16/g16/l303.exe)
 DipDrv:  MaxL=1.
 Leave Link  303 at Tue Aug 18 13:05:11 2026, MaxMem=  2684354560 cpu:               0.1 elap:               0.1
 (Enter /mnt/data/applications/G16/g16/l401.exe)
 Initial guess from the checkpoint file:  "TX_triplet.chk"
 B after Tr=     0.000557   -0.000964   -0.000588
         Rot=    1.000000   -0.000024   -0.000014   -0.000000 Ang=  -0.00 deg.
 Guess basis will be translated and rotated to current coordinates.
 JPrj=2 DoOrth=T DoCkMO=T.
 Initial guess <Sx>= 0.0000 <Sy>= 0.0000 <Sz>= 1.0000 <S**2>= 2.0075 S= 1.0025
 Leave Link  401 at Tue Aug 18 13:05:11 2026, MaxMem=  2684354560 cpu:               0.3 elap:               0.3
 (Enter /mnt/data/applications/G16/g16/l502.exe)
 Keep R1 and R2 ints in memory in canonical form, NReq=1058662964.
 FoFCou: FMM=F IPFlag=           0 FMFlag=           0 FMFlg1=           0
         NFxFlg=           0 DoJE=F BraDBF=F KetDBF=F FulRan=T
         wScrn=  0.000000 ICntrl=       600 IOpCl=  0 I1Cent=           0 NGrid=           0
         NMat0=    1 NMatS0=  32385 NMatT0=    0 NMatD0=    1 NMtDS0=    0 NMtDT0=    0
 Symmetry not used in FoFCou.
 Two-electron integral symmetry not used.
 UHF open shell SCF:
 Using DIIS extrapolation, IDIIS=  1040.
 NGot=  2684354560 LenX=  1635385430 LenY=  1635312628
 Requested convergence on RMS density matrix=1.00D-08 within 128 cycles.
 Requested convergence on MAX density matrix=1.00D-06.
 Requested convergence on             energy=1.00D-06.
 No special actions if energy rises.

 Cycle   1  Pass 1  IDiag  1:
 Inv3:  Mode=1 IEnd=    11820675.
 Iteration    1 A*A^-1 deviation from unit magnitude is 1.78D-15 for    560.
 Iteration    1 A*A^-1 deviation from orthogonality  is 1.39D-15 for   1120    246.
 Iteration    1 A^-1*A deviation from unit magnitude is 2.00D-15 for    246.
 Iteration    1 A^-1*A deviation from orthogonality  is 1.25D-15 for   1443    430.
 E= -973.652720003364    
 DIIS: error= 3.09D-04 at cycle   1 NSaved=   1.
 NSaved= 1 IEnMin= 1 EnMin= -973.652720003364     IErMin= 1 ErrMin= 3.09D-04
 ErrMax= 3.09D-04  0.00D+00 EMaxC= 1.00D-01 BMatC= 1.33D-04 BMatP= 1.33D-04
 IDIUse=3 WtCom= 9.97D-01 WtEn= 3.09D-03
 Coeff-Com:  0.100D+01
 Coeff-En:   0.100D+01
 Coeff:      0.100D+01
 Gap=     0.658 Goal=   None    Shift=    0.000
 Gap=     0.766 Goal=   None    Shift=    0.000
 RMSDP=1.02D-04 MaxDP=3.79D-03              OVMax= 1.07D-02

 Cycle   2  Pass 1  IDiag  1:
 E= -973.652746586621     Delta-E=       -0.000026583257 Rises=F Damp=F
 DIIS: error= 5.68D-04 at cycle   2 NSaved=   2.
 NSaved= 2 IEnMin= 2 EnMin= -973.652746586621     IErMin= 1 ErrMin= 3.09D-04
 ErrMax= 5.68D-04  0.00D+00 EMaxC= 1.00D-01 BMatC= 1.50D-04 BMatP= 1.33D-04
 IDIUse=3 WtCom= 2.96D-01 WtEn= 7.04D-01
 Coeff-Com:  0.521D+00 0.479D+00
 Coeff-En:   0.124D+00 0.876D+00
 Coeff:      0.241D+00 0.759D+00
 Gap=     0.083 Goal=   None    Shift=    0.000
 Gap=     0.064 Goal=   None    Shift=    0.000
 RMSDP=8.91D-05 MaxDP=3.96D-03 DE=-2.66D-05 OVMax= 8.17D-03

 Cycle   3  Pass 1  IDiag  1:
 E= -973.652716094365     Delta-E=        0.000030492256 Rises=F Damp=F
 DIIS: error= 7.92D-04 at cycle   3 NSaved=   3.
 NSaved= 3 IEnMin= 2 EnMin= -973.652746586621     IErMin= 1 ErrMin= 3.09D-04
 ErrMax= 7.92D-04  0.00D+00 EMaxC= 1.00D-01 BMatC= 2.83D-04 BMatP= 1.33D-04
 IDIUse=3 WtCom= 2.62D-01 WtEn= 7.38D-01
 Coeff-Com: -0.171D-01 0.586D+00 0.431D+00
 Coeff-En:   0.000D+00 0.630D+00 0.370D+00
 Coeff:     -0.448D-02 0.619D+00 0.386D+00
 Gap=     0.083 Goal=   None    Shift=    0.000
 Gap=     0.062 Goal=   None    Shift=    0.000
 RMSDP=4.91D-05 MaxDP=2.85D-03 DE= 3.05D-05 OVMax= 7.31D-03

 Cycle   4  Pass 1  IDiag  1:
 E= -973.652776878150     Delta-E=       -0.000060783785 Rises=F Damp=F
 DIIS: error= 7.61D-05 at cycle   4 NSaved=   4.
 NSaved= 4 IEnMin= 4 EnMin= -973.652776878150     IErMin= 4 ErrMin= 7.61D-05
 ErrMax= 7.61D-05  0.00D+00 EMaxC= 1.00D-01 BMatC= 1.69D-06 BMatP= 1.33D-04
 IDIUse=1 WtCom= 1.00D+00 WtEn= 0.00D+00
 Coeff-Com: -0.153D-01 0.199D+00 0.105D+00 0.711D+00
 Coeff:     -0.153D-01 0.199D+00 0.105D+00 0.711D+00
 Gap=     0.083 Goal=   None    Shift=    0.000
 Gap=     0.062 Goal=   None    Shift=    0.000
 RMSDP=6.47D-06 MaxDP=5.88D-04 DE=-6.08D-05 OVMax= 1.93D-03

 Cycle   5  Pass 1  IDiag  1:
 E= -973.652777708603     Delta-E=       -0.000000830453 Rises=F Damp=F
 DIIS: error= 4.66D-05 at cycle   5 NSaved=   5.
 NSaved= 5 IEnMin= 5 EnMin= -973.652777708603     IErMin= 5 ErrMin= 4.66D-05
 ErrMax= 4.66D-05  0.00D+00 EMaxC= 1.00D-01 BMatC= 9.98D-07 BMatP= 1.69D-06
 IDIUse=1 WtCom= 1.00D+00 WtEn= 0.00D+00
 Coeff-Com: -0.438D-02-0.629D-01-0.310D-01 0.368D+00 0.730D+00
 Coeff:     -0.438D-02-0.629D-01-0.310D-01 0.368D+00 0.730D+00
 Gap=     0.083 Goal=   None    Shift=    0.000
 Gap=     0.062 Goal=   None    Shift=    0.000
 RMSDP=5.61D-06 MaxDP=2.48D-04 DE=-8.30D-07 OVMax= 1.29D-03

 Cycle   6  Pass 1  IDiag  1:
 E= -973.652778196071     Delta-E=       -0.000000487468 Rises=F Damp=F
 DIIS: error= 3.39D-05 at cycle   6 NSaved=   6.
 NSaved= 6 IEnMin= 6 EnMin= -973.652778196071     IErMin= 6 ErrMin= 3.39D-05
 ErrMax= 3.39D-05  0.00D+00 EMaxC= 1.00D-01 BMatC= 3.00D-07 BMatP= 9.98D-07
 IDIUse=1 WtCom= 1.00D+00 WtEn= 0.00D+00
 Coeff-Com:  0.649D-02-0.124D+00-0.307D-01-0.279D+00 0.242D+00 0.118D+01
 Coeff:      0.649D-02-0.124D+00-0.307D-01-0.279D+00 0.242D+00 0.118D+01
 Gap=     0.083 Goal=   None    Shift=    0.000
 Gap=     0.063 Goal=   None    Shift=    0.000
 RMSDP=6.53D-06 MaxDP=3.11D-04 DE=-4.87D-07 OVMax= 1.54D-03

 Cycle   7  Pass 1  IDiag  1:
 E= -973.652778463901     Delta-E=       -0.000000267830 Rises=F Damp=F
 DIIS: error= 7.40D-06 at cycle   7 NSaved=   7.
 NSaved= 7 IEnMin= 7 EnMin= -973.652778463901     IErMin= 7 ErrMin= 7.40D-06
 ErrMax= 7.40D-06  0.00D+00 EMaxC= 1.00D-01 BMatC= 3.83D-08 BMatP= 3.00D-07
 IDIUse=1 WtCom= 1.00D+00 WtEn= 0.00D+00
 Coeff-Com:  0.440D-02-0.550D-01-0.532D-02-0.250D+00-0.811D-02 0.661D+00
 Coeff-Com:  0.653D+00
 Coeff:      0.440D-02-0.550D-01-0.532D-02-0.250D+00-0.811D-02 0.661D+00
 Coeff:      0.653D+00
 Gap=     0.083 Goal=   None    Shift=    0.000
 Gap=     0.063 Goal=   None    Shift=    0.000
 RMSDP=1.96D-06 MaxDP=9.75D-05 DE=-2.68D-07 OVMax= 5.00D-04

 Cycle   8  Pass 1  IDiag  1:
 E= -973.652778493816     Delta-E=       -0.000000029915 Rises=F Damp=F
 DIIS: error= 3.90D-06 at cycle   8 NSaved=   8.
 NSaved= 8 IEnMin= 8 EnMin= -973.652778493816     IErMin= 8 ErrMin= 3.90D-06
 ErrMax= 3.90D-06  0.00D+00 EMaxC= 1.00D-01 BMatC= 6.98D-09 BMatP= 3.83D-08
 IDIUse=1 WtCom= 1.00D+00 WtEn= 0.00D+00
 Coeff-Com:  0.153D-03 0.664D-02 0.746D-02-0.513D-01-0.482D-01 0.348D-02
 Coeff-Com:  0.330D+00 0.752D+00
 Coeff:      0.153D-03 0.664D-02 0.746D-02-0.513D-01-0.482D-01 0.348D-02
 Coeff:      0.330D+00 0.752D+00
 Gap=     0.083 Goal=   None    Shift=    0.000
 Gap=     0.063 Goal=   None    Shift=    0.000
 RMSDP=5.77D-07 MaxDP=2.56D-05 DE=-2.99D-08 OVMax= 1.53D-04

 Cycle   9  Pass 1  IDiag  1:
 E= -973.652778498382     Delta-E=       -0.000000004565 Rises=F Damp=F
 DIIS: error= 1.85D-06 at cycle   9 NSaved=   9.
 NSaved= 9 IEnMin= 9 EnMin= -973.652778498382     IErMin= 9 ErrMin= 1.85D-06
 ErrMax= 1.85D-06  0.00D+00 EMaxC= 1.00D-01 BMatC= 2.06D-09 BMatP= 6.98D-09
 IDIUse=1 WtCom= 1.00D+00 WtEn= 0.00D+00
 Coeff-Com: -0.766D-03 0.161D-01 0.522D-02 0.316D-01-0.143D-01-0.163D+00
 Coeff-Com:  0.275D-01 0.423D+00 0.674D+00
 Coeff:     -0.766D-03 0.161D-01 0.522D-02 0.316D-01-0.143D-01-0.163D+00
 Coeff:      0.275D-01 0.423D+00 0.674D+00
 Gap=     0.083 Goal=   None    Shift=    0.000
 Gap=     0.063 Goal=   None    Shift=    0.000
 RMSDP=2.06D-07 MaxDP=1.02D-05 DE=-4.57D-09 OVMax= 1.87D-05

 Cycle  10  Pass 1  IDiag  1:
 E= -973.652778499498     Delta-E=       -0.000000001116 Rises=F Damp=F
 DIIS: error= 1.09D-06 at cycle  10 NSaved=  10.
 NSaved=10 IEnMin=10 EnMin= -973.652778499498     IErMin=10 ErrMin= 1.09D-06
 ErrMax= 1.09D-06  0.00D+00 EMaxC= 1.00D-01 BMatC= 5.25D-10 BMatP= 2.06D-09
 IDIUse=1 WtCom= 1.00D+00 WtEn= 0.00D+00
 Coeff-Com: -0.611D-03 0.847D-02 0.168D-02 0.336D-01 0.790D-02-0.100D+00
 Coeff-Com: -0.735D-01 0.361D-01 0.371D+00 0.716D+00
 Coeff:     -0.611D-03 0.847D-02 0.168D-02 0.336D-01 0.790D-02-0.100D+00
 Coeff:     -0.735D-01 0.361D-01 0.371D+00 0.716D+00
 Gap=     0.083 Goal=   None    Shift=    0.000
 Gap=     0.063 Goal=   None    Shift=    0.000
 RMSDP=1.11D-07 MaxDP=6.68D-06 DE=-1.12D-09 OVMax= 1.49D-05

 Cycle  11  Pass 1  IDiag  1:
 E= -973.652778499812     Delta-E=       -0.000000000314 Rises=F Damp=F
 DIIS: error= 6.30D-07 at cycle  11 NSaved=  11.
 NSaved=11 IEnMin=11 EnMin= -973.652778499812     IErMin=11 ErrMin= 6.30D-07
 ErrMax= 6.30D-07  0.00D+00 EMaxC= 1.00D-01 BMatC= 1.70D-10 BMatP= 5.25D-10
 IDIUse=1 WtCom= 1.00D+00 WtEn= 0.00D+00
 Coeff-Com: -0.534D-04-0.911D-03-0.924D-03 0.628D-02 0.750D-02-0.691D-02
 Coeff-Com: -0.460D-01-0.115D+00-0.185D-01 0.400D+00 0.774D+00
 Coeff:     -0.534D-04-0.911D-03-0.924D-03 0.628D-02 0.750D-02-0.691D-02
 Coeff:     -0.460D-01-0.115D+00-0.185D-01 0.400D+00 0.774D+00
 Gap=     0.083 Goal=   None    Shift=    0.000
 Gap=     0.063 Goal=   None    Shift=    0.000
 RMSDP=9.59D-08 MaxDP=5.07D-06 DE=-3.14D-10 OVMax= 1.71D-05

 Cycle  12  Pass 1  IDiag  1:
 E= -973.652778499930     Delta-E=       -0.000000000118 Rises=F Damp=F
 DIIS: error= 2.23D-07 at cycle  12 NSaved=  12.
 NSaved=12 IEnMin=12 EnMin= -973.652778499930     IErMin=12 ErrMin= 2.23D-07
 ErrMax= 2.23D-07  0.00D+00 EMaxC= 1.00D-01 BMatC= 2.35D-11 BMatP= 1.70D-10
 IDIUse=1 WtCom= 1.00D+00 WtEn= 0.00D+00
 Coeff-Com:  0.446D-04-0.140D-02-0.684D-03-0.439D-03 0.311D-02 0.821D-02
 Coeff-Com: -0.124D-01-0.592D-01-0.482D-01 0.107D+00 0.378D+00 0.626D+00
 Coeff:      0.446D-04-0.140D-02-0.684D-03-0.439D-03 0.311D-02 0.821D-02
 Coeff:     -0.124D-01-0.592D-01-0.482D-01 0.107D+00 0.378D+00 0.626D+00
 Gap=     0.083 Goal=   None    Shift=    0.000
 Gap=     0.063 Goal=   None    Shift=    0.000
 RMSDP=1.69D-08 MaxDP=7.43D-07 DE=-1.18D-10 OVMax= 1.99D-06

 Cycle  13  Pass 1  IDiag  1:
 E= -973.652778499936     Delta-E=       -0.000000000006 Rises=F Damp=F
 DIIS: error= 9.02D-08 at cycle  13 NSaved=  13.
 NSaved=13 IEnMin=13 EnMin= -973.652778499936     IErMin=13 ErrMin= 9.02D-08
 ErrMax= 9.02D-08  0.00D+00 EMaxC= 1.00D-01 BMatC= 4.34D-12 BMatP= 2.35D-11
 IDIUse=1 WtCom= 1.00D+00 WtEn= 0.00D+00
 Coeff-Com:  0.293D-04 0.124D-04 0.640D-04-0.201D-02-0.219D-02 0.395D-02
 Coeff-Com:  0.133D-01 0.252D-01-0.417D-02-0.119D+00-0.167D+00 0.123D+00
 Coeff-Com:  0.113D+01
 Coeff:      0.293D-04 0.124D-04 0.640D-04-0.201D-02-0.219D-02 0.395D-02
 Coeff:      0.133D-01 0.252D-01-0.417D-02-0.119D+00-0.167D+00 0.123D+00
 Coeff:      0.113D+01
 Gap=     0.083 Goal=   None    Shift=    0.000
 Gap=     0.063 Goal=   None    Shift=    0.000
 RMSDP=1.52D-08 MaxDP=6.95D-07 DE=-6.14D-12 OVMax= 1.80D-06

 Cycle  14  Pass 1  IDiag  1:
 E= -973.652778499951     Delta-E=       -0.000000000015 Rises=F Damp=F
 DIIS: error= 2.77D-08 at cycle  14 NSaved=  14.
 NSaved=14 IEnMin=14 EnMin= -973.652778499951     IErMin=14 ErrMin= 2.77D-08
 ErrMax= 2.77D-08  0.00D+00 EMaxC= 1.00D-01 BMatC= 4.26D-13 BMatP= 4.34D-12
 IDIUse=1 WtCom= 1.00D+00 WtEn= 0.00D+00
 Coeff-Com: -0.283D-05 0.213D-03 0.103D-03-0.118D-03-0.786D-03-0.915D-03
 Coeff-Com:  0.309D-02 0.113D-01 0.816D-02-0.275D-01-0.731D-01-0.941D-01
 Coeff-Com:  0.752D-01 0.110D+01
 Coeff:     -0.283D-05 0.213D-03 0.103D-03-0.118D-03-0.786D-03-0.915D-03
 Coeff:      0.309D-02 0.113D-01 0.816D-02-0.275D-01-0.731D-01-0.941D-01
 Coeff:      0.752D-01 0.110D+01
 Gap=     0.083 Goal=   None    Shift=    0.000
 Gap=     0.063 Goal=   None    Shift=    0.000
 RMSDP=6.01D-09 MaxDP=3.07D-07 DE=-1.50D-11 OVMax= 7.80D-07

 Error on total polarization charges =  0.01276
 SCF Done:  E(UB3LYP) =  -973.652778500     A.U. after   14 cycles
            NFock= 14  Conv=0.60D-08     -V/T= 2.0049
 <Sx>= 0.0000 <Sy>= 0.0000 <Sz>= 1.0000 <S**2>= 2.0076 S= 1.0025
 <L.S>= 0.000000000000E+00
 KE= 9.688934653991D+02 PE=-4.264456641102D+03 EE= 1.331435474083D+03
 Annihilation of the first spin contaminant:
 S**2 before annihilation     2.0076,   after     2.0000
 Leave Link  502 at Tue Aug 18 13:16:44 2026, MaxMem=  2684354560 cpu:             691.7 elap:             692.8
 (Enter /mnt/data/applications/G16/g16/l701.exe)
 ... and contract with generalized density number  0.
 Compute integral first derivatives.
 R6Disp: Adding Grimme-D3(BJ) dispersion energy 1st derivatives to the gradient.
   1 Symmetry operations used in ECPInt.
 ECPInt:  NShTT=    6786 NPrTT=   65756 LenC2=    6456 LenP2D=   34284.
 LDataN:  DoStor=T MaxTD1= 5 Len=  102
 D1PCM: PCM CHGder 1st derivatives, ID1Alg=3 FixD1E=F DoIter=F DoCFld=F I1PDM=0.
 GePol: Maximum number of non-zero 1st derivatives   =     242
 Leave Link  701 at Tue Aug 18 13:16:58 2026, MaxMem=  2684354560 cpu:              13.3 elap:              13.3
 (Enter /mnt/data/applications/G16/g16/l702.exe)
 L702 exits ... SP integral derivatives will be done elsewhere.
 Leave Link  702 at Tue Aug 18 13:16:58 2026, MaxMem=  2684354560 cpu:               0.0 elap:               0.0
 (Enter /mnt/data/applications/G16/g16/l703.exe)
 Integral derivatives from FoFJK, PRISM(SPDF).
 Compute integral first derivatives, UseDBF=F ICtDFT=           0.
 Calling FoFJK, ICntrl=      2127 FMM=F ISym2X=0 I1Cent= 0 IOpClX= 1 NMat=1 NMatS=1 NMatT=0.
 FoFJK:  IHMeth= 1 ICntrl=    2127 DoSepK=F KAlg= 0 I1Cent=           0 FoldK=F
 IRaf=         0 NMat=       1 IRICut=       1 DoRegI=T DoRafI=F ISym2E= 0 IDoP0=0 IntGTp=1.
 FoFCou: FMM=F IPFlag=           0 FMFlag=      100000 FMFlg1=         800
         NFxFlg=           0 DoJE=F BraDBF=F KetDBF=F FulRan=T
         wScrn=  0.000000 ICntrl=      2127 IOpCl=  1 I1Cent=           0 NGrid=           0
         NMat0=    1 NMatS0=      1 NMatT0=    0 NMatD0=    1 NMtDS0=    0 NMtDT0=    0
 Symmetry not used in FoFCou.
 Leave Link  703 at Tue Aug 18 13:19:20 2026, MaxMem=  2684354560 cpu:             142.1 elap:             142.3
 (Enter /mnt/data/applications/G16/g16/l716.exe)
 Dipole        = 1.27240446D+00-2.16383429D+00 3.13901477D-02
 -------------------------------------------------------------------
 Center     Atomic                   Forces (Hartrees/Bohr)
 Number     Number              X              Y              Z
 -------------------------------------------------------------------
      1        6           0.000590696    0.000226106    0.000001865
      2        6          -0.000386736   -0.000100249   -0.000001205
      3        6           0.000145348    0.000776166   -0.000008191
      4        6          -0.000823442   -0.000584756   -0.000025540
      5        6           0.000086606    0.000030710    0.000000212
      6        6          -0.000228242    0.000230326   -0.000005160
      7        6           0.001104422   -0.001867936    0.000112697
      8        6           0.000910592    0.000435620   -0.000020978
      9        6          -0.000745422    0.000248475   -0.000009808
     10        6           0.000269267    0.000285568    0.000000637
     11        1           0.000079460    0.000047688    0.000003155
     12        6          -0.000482137   -0.000410373    0.000000188
     13        6          -0.000084724    0.000306988   -0.000004193
     14        6          -0.000069213   -0.000065511    0.000001101
     15        1          -0.000009899   -0.000081341    0.000000877
     16        1          -0.000089592   -0.000043208    0.000002322
     17        1           0.000006469   -0.000019308    0.000000660
     18        1           0.000049951   -0.000001918   -0.000000708
     19        1           0.000078358   -0.000040365    0.000001958
     20        1          -0.000016981   -0.000050063    0.000000449
     21        1           0.000021069   -0.000013167    0.000000061
     22       16           0.000332910   -0.000568264    0.000006210
     23        8          -0.000738760    0.001258813   -0.000056608
 -------------------------------------------------------------------
 Cartesian Forces:  Max     0.001867936 RMS     0.000416127
 Leave Link  716 at Tue Aug 18 13:19:20 2026, MaxMem=  2684354560 cpu:               0.0 elap:               0.0
 (Enter /mnt/data/applications/G16/g16/l103.exe)

 GradGradGradGradGradGradGradGradGradGradGradGradGradGradGradGradGradGrad
 Berny optimization.
 Using GEDIIS/GDIIS optimizer.
 FormGI is forming the generalized inverse of G from B-inverse, IUseBI=4.
 Internal  Forces:  Max     0.001460156 RMS     0.000200603
 Search for a local minimum.
 Step number   4 out of a maximum of  135
 All quantities printed in internal units (Hartrees-Bohrs-Radians)
 RMS Force = .20060D-03 SwitMx=.10000D-02 MixMth= 2
 Mixed Optimization -- En-DIIS/RFO-DIIS
 Swapping is turned off.
 Update second derivatives using D2CorX and points    1    2    3    4
 DE= -7.43D-05 DEPred=-5.91D-05 R= 1.26D+00
 TightC=F SS=  1.41D+00  RLast= 2.08D-02 DXNew= 7.5422D-01 6.2491D-02
 Trust test= 1.26D+00 RLast= 2.08D-02 DXMaxT set to 4.48D-01
 ITU=  1  1  1  0
     Eigenvalues ---    0.00934   0.00986   0.01449   0.01549   0.01681
     Eigenvalues ---    0.01712   0.01812   0.01833   0.02052   0.02053
     Eigenvalues ---    0.02063   0.02063   0.02108   0.02108   0.02127
     Eigenvalues ---    0.02127   0.02143   0.02144   0.02185   0.02185
     Eigenvalues ---    0.15672   0.16000   0.16000   0.16000   0.16000
     Eigenvalues ---    0.16000   0.16010   0.16334   0.18076   0.22000
     Eigenvalues ---    0.22075   0.22597   0.22781   0.24463   0.24470
     Eigenvalues ---    0.24982   0.25000   0.25000   0.28777   0.29035
     Eigenvalues ---    0.31719   0.33795   0.34602   0.34606   0.34606
     Eigenvalues ---    0.34624   0.34669   0.34685   0.34812   0.34824
     Eigenvalues ---    0.38662   0.40710   0.41144   0.41193   0.43510
     Eigenvalues ---    0.43684   0.44342   0.45243   0.46434   0.47060
     Eigenvalues ---    0.47395   0.48465   0.65200
 En-DIIS/RFO-DIIS/Sim-DIIS IScMMF=       -3 using points:     4    3
 RFO step:  Lambda=-1.84125427D-05.
 NNeg= 0 NGDIIS= 2 SimSw=  2.50D-01 Rises=F DC= -7.43D-05 SmlDif=  1.00D-05
 NRisDI= 0 DoIntr=F SqrtH=F CThrHd= 10.0 CDAdj=  3.0
 RMS Error=  0.9561947179D-03 NUsed= 2 OKEnD=T EnDIS=F
 InvSVX:  RCond= 1.08D-04 Info=           0 Equed=N FErr=  2.04D-15 BErr=  8.20D-17
 DidBck=F Rises=F RFO-DIIS coefs:    1.31577   -0.31577
 Iteration  1 RMS(Cart)=  0.00145194 RMS(Int)=  0.00000187
 Iteration  2 RMS(Cart)=  0.00000339 RMS(Int)=  0.00000078
 Iteration  3 RMS(Cart)=  0.00000000 RMS(Int)=  0.00000078
 ITry= 1 IFail=0 DXMaxC= 6.01D-03 DCOld= 1.00D+10 DXMaxT= 4.48D-01 DXLimC= 3.00D+00 Rises=F
 Variable       Old X    -DE/DX   Delta X   Delta X   Delta X     New X
                                 (Linear)    (Quad)   (Total)
    R1        2.63348  -0.00032  -0.00011  -0.00069  -0.00081   2.63267
    R2        2.66044   0.00009  -0.00009   0.00038   0.00029   2.66073
    R3        2.05930   0.00007   0.00011   0.00014   0.00026   2.05956
    R4        2.65493   0.00010  -0.00048   0.00059   0.00011   2.65504
    R5        2.06317  -0.00000   0.00006  -0.00006   0.00000   2.06317
    R6        2.71079  -0.00036   0.00066  -0.00113  -0.00048   2.71031
    R7        3.30499   0.00034   0.00100   0.00044   0.00144   3.30643
    R8        2.67250  -0.00017   0.00007  -0.00051  -0.00045   2.67205
    R9        2.74438  -0.00002  -0.00101   0.00001  -0.00099   2.74339
   R10        2.63208  -0.00025  -0.00053  -0.00015  -0.00068   2.63140
   R11        2.05795  -0.00002  -0.00003  -0.00008  -0.00011   2.05784
   R12        2.06434  -0.00005  -0.00006  -0.00012  -0.00018   2.06416
   R13        2.74435  -0.00003  -0.00100  -0.00001  -0.00101   2.74334
   R14        2.43362   0.00146   0.00326   0.00057   0.00384   2.43745
   R15        2.71094  -0.00036   0.00066  -0.00114  -0.00047   2.71047
   R16        2.67251  -0.00017   0.00007  -0.00052  -0.00044   2.67207
   R17        2.65489   0.00010  -0.00048   0.00057   0.00009   2.65498
   R18        3.30491   0.00034   0.00101   0.00044   0.00144   3.30635
   R19        2.06329   0.00000   0.00005  -0.00004   0.00001   2.06329
   R20        2.63354  -0.00032  -0.00012  -0.00068  -0.00080   2.63274
   R21        2.66047   0.00009  -0.00009   0.00038   0.00029   2.66076
   R22        2.05930   0.00007   0.00011   0.00014   0.00026   2.05956
   R23        2.63206  -0.00025  -0.00053  -0.00015  -0.00068   2.63138
   R24        2.06435  -0.00005  -0.00006  -0.00011  -0.00018   2.06417
   R25        2.05783  -0.00002  -0.00002  -0.00008  -0.00010   2.05773
    A1        2.07185   0.00025   0.00041   0.00086   0.00127   2.07312
    A2        2.10139  -0.00016  -0.00025  -0.00069  -0.00093   2.10046
    A3        2.10994  -0.00008  -0.00017  -0.00017  -0.00034   2.10961
    A4        2.09373  -0.00001  -0.00002  -0.00012  -0.00014   2.09359
    A5        2.10537  -0.00009   0.00015  -0.00080  -0.00064   2.10473
    A6        2.08408   0.00011  -0.00013   0.00092   0.00079   2.08487
    A7        2.13688  -0.00034  -0.00042  -0.00105  -0.00146   2.13542
    A8        2.01811   0.00007   0.00024   0.00017   0.00040   2.01851
    A9        2.12820   0.00027   0.00018   0.00088   0.00106   2.12926
   A10        2.02034   0.00044   0.00031   0.00155   0.00186   2.02220
   A11        2.17326  -0.00037  -0.00163  -0.00064  -0.00226   2.17100
   A12        2.08958  -0.00006   0.00132  -0.00091   0.00040   2.08999
   A13        2.12407  -0.00012  -0.00015  -0.00048  -0.00063   2.12344
   A14        2.04467   0.00006   0.00077  -0.00026   0.00052   2.04519
   A15        2.11445   0.00005  -0.00062   0.00073   0.00011   2.11456
   A16        2.11950  -0.00022  -0.00014  -0.00076  -0.00089   2.11860
   A17        2.08451   0.00011   0.00051   0.00004   0.00055   2.08505
   A18        2.07918   0.00011  -0.00037   0.00072   0.00035   2.07953
   A19        2.11695   0.00051   0.00295   0.00056   0.00351   2.12046
   A20        2.08297  -0.00026  -0.00148  -0.00028  -0.00177   2.08120
   A21        2.08327  -0.00025  -0.00147  -0.00028  -0.00175   2.08152
   A22        2.17320  -0.00038  -0.00164  -0.00065  -0.00228   2.17092
   A23        2.08982  -0.00006   0.00132  -0.00090   0.00042   2.09025
   A24        2.02016   0.00044   0.00031   0.00155   0.00186   2.02202
   A25        2.13702  -0.00034  -0.00043  -0.00104  -0.00146   2.13556
   A26        2.12822   0.00028   0.00018   0.00090   0.00108   2.12930
   A27        2.01794   0.00006   0.00025   0.00014   0.00038   2.01833
   A28        2.08417   0.00010  -0.00012   0.00089   0.00077   2.08494
   A29        2.09369  -0.00001  -0.00001  -0.00013  -0.00014   2.09356
   A30        2.10532  -0.00009   0.00014  -0.00077  -0.00063   2.10469
   A31        2.07179   0.00025   0.00041   0.00085   0.00127   2.07306
   A32        2.10141  -0.00017  -0.00025  -0.00069  -0.00094   2.10047
   A33        2.10998  -0.00008  -0.00016  -0.00016  -0.00032   2.10965
   A34        2.11955  -0.00022  -0.00014  -0.00076  -0.00089   2.11866
   A35        2.08461   0.00011   0.00051   0.00004   0.00055   2.08516
   A36        2.07903   0.00011  -0.00037   0.00072   0.00034   2.07937
   A37        2.12415  -0.00012  -0.00015  -0.00048  -0.00063   2.12352
   A38        2.04496   0.00007   0.00079  -0.00024   0.00055   2.04551
   A39        2.11408   0.00005  -0.00064   0.00072   0.00008   2.11416
   A40        1.84654  -0.00031  -0.00005  -0.00105  -0.00110   1.84544
    D1       -0.00001  -0.00000   0.00000  -0.00003  -0.00002  -0.00003
    D2        3.14159   0.00000  -0.00000   0.00001   0.00001  -3.14159
    D3       -3.14158  -0.00000   0.00000  -0.00002  -0.00002   3.14158
    D4        0.00001   0.00000  -0.00000   0.00002   0.00001   0.00002
    D5        0.00007  -0.00000   0.00000  -0.00002  -0.00002   0.00005
    D6       -3.14153   0.00000  -0.00001   0.00003   0.00003  -3.14150
    D7       -3.14154  -0.00000   0.00000  -0.00002  -0.00002  -3.14156
    D8        0.00005   0.00000  -0.00000   0.00003   0.00002   0.00007
    D9       -0.00006   0.00000  -0.00001   0.00007   0.00006   0.00000
   D10        3.14145   0.00000  -0.00002   0.00022   0.00019  -3.14154
   D11        3.14153   0.00000   0.00000   0.00003   0.00003   3.14156
   D12       -0.00014   0.00000  -0.00002   0.00018   0.00016   0.00002
   D13        0.00007  -0.00000   0.00000  -0.00005  -0.00005   0.00001
   D14       -3.14156  -0.00000   0.00002  -0.00019  -0.00017   3.14146
   D15       -3.14144  -0.00000   0.00002  -0.00021  -0.00019   3.14155
   D16        0.00012  -0.00000   0.00003  -0.00035  -0.00031  -0.00019
   D17       -3.14128  -0.00000   0.00006  -0.00071  -0.00065   3.14125
   D18        0.00023  -0.00000   0.00004  -0.00056  -0.00052  -0.00029
   D19       -0.00001   0.00000   0.00000   0.00001   0.00001   0.00000
   D20        3.14156  -0.00000   0.00001  -0.00008  -0.00007   3.14149
   D21       -3.14157   0.00000  -0.00001   0.00013   0.00012  -3.14145
   D22        0.00000   0.00000  -0.00000   0.00004   0.00004   0.00004
   D23       -0.00070   0.00001  -0.00013   0.00140   0.00127   0.00057
   D24       -3.14120  -0.00002   0.00032  -0.00284  -0.00253   3.13946
   D25        3.14085   0.00001  -0.00012   0.00127   0.00115  -3.14118
   D26        0.00036  -0.00002   0.00033  -0.00298  -0.00265  -0.00229
   D27       -0.00006   0.00000  -0.00000   0.00003   0.00003  -0.00003
   D28        3.14153  -0.00000   0.00000  -0.00002  -0.00002   3.14152
   D29        3.14156   0.00000  -0.00001   0.00012   0.00011  -3.14152
   D30       -0.00003   0.00000  -0.00001   0.00007   0.00006   0.00003
   D31        0.00091  -0.00001   0.00015  -0.00142  -0.00127  -0.00036
   D32       -3.14077  -0.00001   0.00012  -0.00128  -0.00116   3.14126
   D33        3.14140   0.00002  -0.00030   0.00283   0.00253  -3.13925
   D34       -0.00028   0.00002  -0.00033   0.00297   0.00264   0.00236
   D35        3.14119   0.00000  -0.00003   0.00019   0.00016   3.14135
   D36       -0.00051   0.00000  -0.00006   0.00037   0.00031  -0.00020
   D37       -0.00032   0.00000  -0.00000   0.00006   0.00005  -0.00026
   D38        3.14117   0.00000  -0.00004   0.00024   0.00020   3.14137
   D39       -3.14125  -0.00000   0.00002  -0.00015  -0.00012  -3.14138
   D40        0.00035  -0.00000   0.00001  -0.00008  -0.00006   0.00029
   D41        0.00026  -0.00000   0.00000  -0.00002  -0.00002   0.00024
   D42       -3.14133   0.00000  -0.00001   0.00005   0.00004  -3.14128
   D43       -3.14146  -0.00000  -0.00000  -0.00002  -0.00002  -3.14148
   D44        0.00015  -0.00000   0.00000  -0.00006  -0.00005   0.00010
   D45        0.00023  -0.00000   0.00003  -0.00019  -0.00016   0.00007
   D46       -3.14134  -0.00000   0.00003  -0.00022  -0.00019  -3.14153
   D47       -0.00005   0.00000  -0.00003   0.00055   0.00052   0.00047
   D48        3.14145   0.00000  -0.00006   0.00071   0.00066  -3.14108
   D49        0.00008   0.00000  -0.00000   0.00001   0.00001   0.00009
   D50       -3.14155   0.00000   0.00000   0.00002   0.00002  -3.14153
   D51       -3.14149  -0.00000   0.00001  -0.00002  -0.00002  -3.14151
   D52        0.00007  -0.00000   0.00001  -0.00002  -0.00001   0.00006
   D53       -0.00013   0.00000  -0.00000   0.00002   0.00002  -0.00011
   D54        3.14146  -0.00000   0.00000  -0.00003  -0.00002   3.14144
   D55        3.14149   0.00000  -0.00001   0.00002   0.00001   3.14151
   D56       -0.00009  -0.00000  -0.00000  -0.00003  -0.00003  -0.00012
   D57       -0.00004  -0.00000   0.00000  -0.00002  -0.00002  -0.00006
   D58        3.14154  -0.00000   0.00002  -0.00010  -0.00008   3.14146
   D59        3.14154   0.00000  -0.00000   0.00003   0.00003   3.14157
   D60       -0.00006  -0.00000   0.00001  -0.00005  -0.00004  -0.00009
         Item               Value     Threshold  Converged?
 Maximum Force            0.001460     0.000450     NO 
 RMS     Force            0.000201     0.000300     YES
 Maximum Displacement     0.006013     0.001800     NO 
 RMS     Displacement     0.001452     0.001200     NO 
 Predicted change in Energy=-9.207276D-06
 Lowest energy point so far.  Saving SCF results.
 GradGradGradGradGradGradGradGradGradGradGradGradGradGradGradGradGradGrad

 Leave Link  103 at Tue Aug 18 13:19:20 2026, MaxMem=  2684354560 cpu:               0.0 elap:               0.0
 (Enter /mnt/data/applications/G16/g16/l202.exe)
                          Input orientation:                          
 ---------------------------------------------------------------------
 Center     Atomic      Atomic             Coordinates (Angstroms)
 Number     Number       Type             X           Y           Z
 ---------------------------------------------------------------------
      1          6           0       -9.142042   -0.412581    0.008091
      2          6           0       -7.750143   -0.470396    0.020067
      3          6           0       -6.998649    0.716708    0.015033
      4          6           0       -7.611852    2.013132   -0.002239
      5          6           0       -9.025729    2.026612   -0.013958
      6          6           0       -9.768026    0.848494   -0.008914
      7          6           0       -6.879477    3.266582   -0.007892
      8          6           0       -5.428125    3.296969    0.003216
      9          6           0       -4.593615    2.130544    0.020797
     10          6           0       -3.190924    2.209586    0.030780
     11          1           0       -2.601409    1.290657    0.044007
     12          6           0       -2.564290    3.453870    0.023764
     13          6           0       -3.361603    4.614259    0.006761
     14          6           0       -4.751991    4.538821   -0.003186
     15          1           0       -9.731299   -1.329412    0.011895
     16          1           0       -7.234086   -1.432425    0.033354
     17          1           0       -9.513817    2.999976   -0.027056
     18          1           0      -10.858734    0.906843   -0.018334
     19          1           0       -1.476621    3.522708    0.031374
     20          1           0       -2.882134    5.595700    0.001259
     21          1           0       -5.364561    5.438989   -0.016208
     22         16           0       -5.260913    0.513179    0.031141
     23          8           0       -7.533263    4.378305   -0.026170
 ---------------------------------------------------------------------
                    Distance matrix (angstroms):
                    1          2          3          4          5
     1  C    0.000000
     2  C    1.393150   0.000000
     3  C    2.422700   1.404986   0.000000
     4  C    2.868043   2.487475   1.434235   0.000000
     5  C    2.442064   2.804162   2.413657   1.413990   0.000000
     6  C    1.407997   2.410843   2.772614   2.450615   1.392477
     7  C    4.319223   3.837166   2.552759   1.451737   2.478700
     8  C    5.249187   4.425504   3.020667   2.533166   3.815344
     9  C    5.211126   4.090056   2.789830   3.020607   4.433468
    10  C    6.503236   5.288563   4.089951   4.425414   5.837845
    11  H    6.758859   5.441630   4.434633   5.062474   6.466596
    12  C    7.629975   6.503303   5.211111   5.249218   6.617302
    13  C    7.660457   6.716634   5.330954   4.983027   6.227252
    14  C    6.617330   5.837954   4.433548   3.815483   4.957433
    15  H    1.089870   2.159387   3.413794   3.957885   3.429489
    16  H    2.163566   1.091784   2.162069   3.466387   3.895788
    17  H    3.432928   3.893102   3.397227   2.142883   1.088962
    18  H    2.165320   3.400235   3.864909   3.430216   2.147979
    19  H    8.616595   7.436537   6.194085   6.318307   7.696062
    20  H    8.676746   7.777877   6.383607   5.933383   7.105095
    21  H    6.964971   6.372844   4.997114   4.097195   5.004844
    22  S    3.990079   2.676530   1.749689   2.788886   4.057875
    23  O    5.053903   4.853769   3.700649   2.366600   2.785330
                    6          7          8          9         10
     6  C    0.000000
     7  C    3.767076   0.000000
     8  C    4.982962   1.451713   0.000000
     9  C    5.330953   2.552757   1.434316   0.000000
    10  C    6.716578   3.837208   2.487616   1.404952   0.000000
    11  H    7.180439   4.712625   3.466594   2.162136   1.091848
    12  C    7.660474   4.319366   2.868204   2.422677   1.393185
    13  C    7.431251   3.767213   2.450669   2.772524   2.410842
    14  C    6.227291   2.478873   1.413999   2.413597   2.804179
    15  H    2.178315   5.408921   6.318289   6.194123   7.436489
    16  H    3.409580   4.712549   5.062566   4.434749   5.441637
    17  H    2.166523   2.647865   4.096583   4.996657   6.372365
    18  H    1.092308   4.626333   5.933353   6.383627   7.777845
    19  H    8.712085   5.409066   3.958047   3.413778   2.159426
    20  H    8.363705   4.626406   3.430195   3.864822   3.400292
    21  H    6.361069   2.648470   2.143051   3.397283   3.893065
    22  S    4.519747   3.194135   2.788947   1.749646   2.676313
    23  O    4.177802   1.289844   2.366802   3.700833   4.854121
                   11         12         13         14         15
    11  H    0.000000
    12  C    2.163627   0.000000
    13  C    3.409635   1.408012   0.000000
    14  C    3.895869   2.442106   1.392469   0.000000
    15  H    7.596125   8.616609   8.712076   7.696095   0.000000
    16  H    5.373731   6.758918   7.180475   6.466677   2.499429
    17  H    7.120968   6.964519   6.360565   5.004358   4.335021
    18  H    8.266475   8.676804   8.363764   7.105196   2.504568
    19  H    2.499472   1.089871   2.178358   3.429537   9.575131
    20  H    4.314397   2.165401   1.092312   2.147877   9.740038
    21  H    4.984706   3.432756   2.166230   1.088906   8.054839
    22  S    2.770847   3.989924   4.519604   4.057828   4.835273
    23  O    5.819078   5.054480   4.178457   2.785994   6.116441
                   16         17         18         19         20
    16  H    0.000000
    17  H    4.984677   0.000000
    18  H    4.314270   2.487988   0.000000
    19  H    7.596166   8.054388   9.740085   0.000000
    20  H    8.266502   7.121643   9.252670   2.504729   0.000000
    21  H    7.121370   4.813026   7.122239   4.334798   2.487430
    22  S    2.771064   4.926940   5.611865   4.835093   5.611728
    23  O    5.818732   2.412962   4.807273   6.117047   4.807889
                   21         22         23
    21  H    0.000000
    22  S    4.927127   0.000000
    23  O    2.414211   4.483978   0.000000
 Symmetry turned off by external request.
 Stoichiometry    C13H8OS(3)
 Framework group  C1[X(C13H8OS)]
 Deg. of freedom    63
 Full point group                 C1      NOp   1
 Rotational constants (GHZ):           1.2154057           0.4223188           0.3134158
 Leave Link  202 at Tue Aug 18 13:19:20 2026, MaxMem=  2684354560 cpu:               0.0 elap:               0.0
 (Enter /mnt/data/applications/G16/g16/l301.exe)
 Basis read from rwf:  (5D, 7F)
 Pseudo-potential data read from rwf file.
   254 basis functions,   589 primitive gaussians,   269 cartesian basis functions
    56 alpha electrons       54 beta electrons
       nuclear repulsion energy       990.5098064185 Hartrees.
 IExCor=  402 DFT=T Ex+Corr=B3LYP ExCW=0 ScaHFX=  0.200000
 ScaDFX=  0.800000  0.720000  1.000000  0.810000 ScalE2=  1.000000  1.000000
 IRadAn=      5 IRanWt=     -1 IRanGd=            0 ICorTp=0 IEmpDi=141
 NAtoms=   23 NActive=   23 NUniq=   23 SFac= 1.00D+00 NAtFMM=   60 NAOKFM=F Big=F
 Integral buffers will be    131072 words long.
 Raffenetti 2 integral format.
 Two-electron integral symmetry is turned off.
 R6Disp:  Grimme-D3(BJ) Dispersion energy=       -0.0580984566 Hartrees.
 Nuclear repulsion after empirical dispersion term =      990.4517079619 Hartrees.
 No density basis found on file   724.
 ------------------------------------------------------------------------------
 Polarizable Continuum Model (PCM)
 =================================
 Model                : PCM.
 Atomic radii         : UFF (Universal Force Field).
 Polarization charges : Total charges.
 Charge compensation  : None.
 Solution method      : On-the-fly selection.
 Cavity type          : Scaled VdW (van der Waals Surface) (Alpha=1.100).
 Cavity algorithm     : GePol (No added spheres)
                        Default sphere list used, NSphG=   23.
                        Lebedev-Laikov grids with approx.  5.0 points / Ang**2.
                        Smoothing algorithm: York/Karplus (Gamma=1.0000).
                        Polarization charges: spherical gaussians, with
                                              point-specific exponents (IZeta= 3).
                        Self-potential: point-specific (ISelfS= 7).
                        Self-field    : sphere-specific E.n sum rule (ISelfD= 2).
 1st derivatives      : Analytical E(r).r(x)/FMM algorithm (CHGder, D1EAlg=3).
                        Cavity 1st derivative terms included.
 Solvent              : Acetonitrile, Eps=  35.688000 Eps(inf)=   1.806874
 ------------------------------------------------------------------------------
 GePol: Number of generator spheres                  =      23
 GePol: Total number of spheres                      =      23
 GePol: Number of exposed spheres                    =      23 (100.00%)
 GePol: Number of points                             =    1987
 GePol: Average weight of points                     =       0.13
 GePol: Minimum weight of points                     =   0.42D-11
 GePol: Maximum weight of points                     =    0.20577
 GePol: Number of points with low weight             =      96
 GePol: Fraction of low-weight points (<1% of avg)   =       4.83%
 GePol: Cavity surface area                          =    256.577 Ang**2
 GePol: Cavity volume                                =    277.434 Ang**3
 Leave Link  301 at Tue Aug 18 13:19:20 2026, MaxMem=  2684354560 cpu:               0.1 elap:               0.1
 (Enter /mnt/data/applications/G16/g16/l302.exe)
 NPDir=0 NMtPBC=     1 NCelOv=     1 NCel=       1 NClECP=     1 NCelD=      1
         NCelK=      1 NCelE2=     1 NClLst=     1 CellRange=     0.0.
 One-electron integrals computed using PRISM.
   1 Symmetry operations used in ECPInt.
 ECPInt:  NShTT=    6786 NPrTT=   65756 LenC2=    6456 LenP2D=   34284.
 LDataN:  DoStor=T MaxTD1= 4 Len=   56
 NBasis=   254 RedAO= T EigKep=  2.46D-04  NBF=   254
 NBsUse=   254 1.00D-06 EigRej= -1.00D+00 NBFU=   254
 Precomputing XC quadrature grid using
 IXCGrd= 4 IRadAn=           5 IRanWt=          -1 IRanGd=           0 AccXCQ= 0.00D+00.
 Generated NRdTot=       0 NPtTot=           0 NUsed=           0 NTot=          32
 NSgBfM=   268   268   268   268   268 MxSgAt=    23 MxSgA2=    23.
 Leave Link  302 at Tue Aug 18 13:19:21 2026, MaxMem=  2684354560 cpu:               1.2 elap:               1.2
 (Enter /mnt/data/applications/G16/g16/l303.exe)
 DipDrv:  MaxL=1.
 Leave Link  303 at Tue Aug 18 13:19:21 2026, MaxMem=  2684354560 cpu:               0.1 elap:               0.1
 (Enter /mnt/data/applications/G16/g16/l401.exe)
 Initial guess from the checkpoint file:  "TX_triplet.chk"
 B after Tr=     0.000509   -0.000847    0.001865
         Rot=    1.000000    0.000067    0.000040   -0.000001 Ang=   0.01 deg.
 Guess basis will be translated and rotated to current coordinates.
 JPrj=2 DoOrth=T DoCkMO=T.
 Initial guess <Sx>= 0.0000 <Sy>= 0.0000 <Sz>= 1.0000 <S**2>= 2.0076 S= 1.0025
 Leave Link  401 at Tue Aug 18 13:19:22 2026, MaxMem=  2684354560 cpu:               0.3 elap:               0.3
 (Enter /mnt/data/applications/G16/g16/l502.exe)
 Keep R1 and R2 ints in memory in canonical form, NReq=1058662964.
 FoFCou: FMM=F IPFlag=           0 FMFlag=           0 FMFlg1=           0
         NFxFlg=           0 DoJE=F BraDBF=F KetDBF=F FulRan=T
         wScrn=  0.000000 ICntrl=       600 IOpCl=  0 I1Cent=           0 NGrid=           0
         NMat0=    1 NMatS0=  32385 NMatT0=    0 NMatD0=    1 NMtDS0=    0 NMtDT0=    0
 Symmetry not used in FoFCou.
 Two-electron integral symmetry not used.
 UHF open shell SCF:
 Using DIIS extrapolation, IDIIS=  1040.
 NGot=  2684354560 LenX=  1635385430 LenY=  1635312628
 Requested convergence on RMS density matrix=1.00D-08 within 128 cycles.
 Requested convergence on MAX density matrix=1.00D-06.
 Requested convergence on             energy=1.00D-06.
 No special actions if energy rises.

 Cycle   1  Pass 1  IDiag  1:
 Inv3:  Mode=1 IEnd=    11844507.
 Iteration    1 A*A^-1 deviation from unit magnitude is 1.55D-15 for    311.
 Iteration    1 A*A^-1 deviation from orthogonality  is 1.34D-15 for   1454    411.
 Iteration    1 A^-1*A deviation from unit magnitude is 1.55D-15 for    202.
 Iteration    1 A^-1*A deviation from orthogonality  is 1.23D-15 for    928    153.
 E= -973.652773801324    
 DIIS: error= 1.47D-04 at cycle   1 NSaved=   1.
 NSaved= 1 IEnMin= 1 EnMin= -973.652773801324     IErMin= 1 ErrMin= 1.47D-04
 ErrMax= 1.47D-04  0.00D+00 EMaxC= 1.00D-01 BMatC= 3.18D-05 BMatP= 3.18D-05
 IDIUse=3 WtCom= 9.99D-01 WtEn= 1.47D-03
 Coeff-Com:  0.100D+01
 Coeff-En:   0.100D+01
 Coeff:      0.100D+01
 Gap=     0.658 Goal=   None    Shift=    0.000
 Gap=     0.767 Goal=   None    Shift=    0.000
 RMSDP=4.13D-05 MaxDP=1.28D-03              OVMax= 3.95D-03

 Cycle   2  Pass 1  IDiag  1:
 E= -973.652784730620     Delta-E=       -0.000010929295 Rises=F Damp=F
 DIIS: error= 2.03D-04 at cycle   2 NSaved=   2.
 NSaved= 2 IEnMin= 2 EnMin= -973.652784730620     IErMin= 1 ErrMin= 1.47D-04
 ErrMax= 2.03D-04  0.00D+00 EMaxC= 1.00D-01 BMatC= 1.53D-05 BMatP= 3.18D-05
 IDIUse=3 WtCom= 9.98D-01 WtEn= 2.03D-03
 Coeff-Com:  0.353D+00 0.647D+00
 Coeff-En:   0.000D+00 0.100D+01
 Coeff:      0.353D+00 0.647D+00
 Gap=     0.083 Goal=   None    Shift=    0.000
 Gap=     0.063 Goal=   None    Shift=    0.000
 RMSDP=2.43D-05 MaxDP=1.03D-03 DE=-1.09D-05 OVMax= 2.14D-03

 Cycle   3  Pass 1  IDiag  1:
 E= -973.652784413444     Delta-E=        0.000000317175 Rises=F Damp=F
 DIIS: error= 1.83D-04 at cycle   3 NSaved=   3.
 NSaved= 3 IEnMin= 2 EnMin= -973.652784730620     IErMin= 1 ErrMin= 1.47D-04
 ErrMax= 1.83D-04  0.00D+00 EMaxC= 1.00D-01 BMatC= 1.58D-05 BMatP= 1.53D-05
 IDIUse=3 WtCom= 9.98D-01 WtEn= 1.83D-03
 Coeff-Com: -0.324D-01 0.514D+00 0.518D+00
 Coeff-En:   0.000D+00 0.518D+00 0.482D+00
 Coeff:     -0.323D-01 0.514D+00 0.518D+00
 Gap=     0.083 Goal=   None    Shift=    0.000
 Gap=     0.062 Goal=   None    Shift=    0.000
 RMSDP=1.44D-05 MaxDP=9.06D-04 DE= 3.17D-07 OVMax= 2.54D-03

 Cycle   4  Pass 1  IDiag  1:
 E= -973.652788083059     Delta-E=       -0.000003669615 Rises=F Damp=F
 DIIS: error= 3.48D-05 at cycle   4 NSaved=   4.
 NSaved= 4 IEnMin= 4 EnMin= -973.652788083059     IErMin= 4 ErrMin= 3.48D-05
 ErrMax= 3.48D-05  0.00D+00 EMaxC= 1.00D-01 BMatC= 4.49D-07 BMatP= 1.53D-05
 IDIUse=1 WtCom= 1.00D+00 WtEn= 0.00D+00
 Coeff-Com: -0.178D-01 0.138D+00 0.234D+00 0.646D+00
 Coeff:     -0.178D-01 0.138D+00 0.234D+00 0.646D+00
 Gap=     0.083 Goal=   None    Shift=    0.000
 Gap=     0.062 Goal=   None    Shift=    0.000
 RMSDP=2.54D-06 MaxDP=9.17D-05 DE=-3.67D-06 OVMax= 4.20D-04

 Cycle   5  Pass 1  IDiag  1:
 E= -973.652788211036     Delta-E=       -0.000000127977 Rises=F Damp=F
 DIIS: error= 2.37D-05 at cycle   5 NSaved=   5.
 NSaved= 5 IEnMin= 5 EnMin= -973.652788211036     IErMin= 5 ErrMin= 2.37D-05
 ErrMax= 2.37D-05  0.00D+00 EMaxC= 1.00D-01 BMatC= 1.48D-07 BMatP= 4.49D-07
 IDIUse=1 WtCom= 1.00D+00 WtEn= 0.00D+00
 Coeff-Com:  0.130D-02-0.911D-01 0.146D-01 0.244D+00 0.831D+00
 Coeff:      0.130D-02-0.911D-01 0.146D-01 0.244D+00 0.831D+00
 Gap=     0.083 Goal=   None    Shift=    0.000
 Gap=     0.063 Goal=   None    Shift=    0.000
 RMSDP=2.44D-06 MaxDP=1.02D-04 DE=-1.28D-07 OVMax= 5.22D-04

 Cycle   6  Pass 1  IDiag  1:
 E= -973.652788292154     Delta-E=       -0.000000081118 Rises=F Damp=F
 DIIS: error= 1.17D-05 at cycle   6 NSaved=   6.
 NSaved= 6 IEnMin= 6 EnMin= -973.652788292154     IErMin= 6 ErrMin= 1.17D-05
 ErrMax= 1.17D-05  0.00D+00 EMaxC= 1.00D-01 BMatC= 4.41D-08 BMatP= 1.48D-07
 IDIUse=1 WtCom= 1.00D+00 WtEn= 0.00D+00
 Coeff-Com:  0.704D-02-0.970D-01-0.582D-01-0.222D+00 0.352D+00 0.102D+01
 Coeff:      0.704D-02-0.970D-01-0.582D-01-0.222D+00 0.352D+00 0.102D+01
 Gap=     0.083 Goal=   None    Shift=    0.000
 Gap=     0.063 Goal=   None    Shift=    0.000
 RMSDP=2.19D-06 MaxDP=1.04D-04 DE=-8.11D-08 OVMax= 5.22D-04

 Cycle   7  Pass 1  IDiag  1:
 E= -973.652788329174     Delta-E=       -0.000000037020 Rises=F Damp=F
 DIIS: error= 3.34D-06 at cycle   7 NSaved=   7.
 NSaved= 7 IEnMin= 7 EnMin= -973.652788329174     IErMin= 7 ErrMin= 3.34D-06
 ErrMax= 3.34D-06  0.00D+00 EMaxC= 1.00D-01 BMatC= 8.57D-09 BMatP= 4.41D-08
 IDIUse=1 WtCom= 1.00D+00 WtEn= 0.00D+00
 Coeff-Com:  0.370D-02-0.333D-01-0.328D-01-0.222D+00-0.657D-02 0.620D+00
 Coeff-Com:  0.671D+00
 Coeff:      0.370D-02-0.333D-01-0.328D-01-0.222D+00-0.657D-02 0.620D+00
 Coeff:      0.671D+00
 Gap=     0.083 Goal=   None    Shift=    0.000
 Gap=     0.063 Goal=   None    Shift=    0.000
 RMSDP=9.10D-07 MaxDP=4.55D-05 DE=-3.70D-08 OVMax= 2.38D-04

 Cycle   8  Pass 1  IDiag  1:
 E= -973.652788335839     Delta-E=       -0.000000006665 Rises=F Damp=F
 DIIS: error= 1.43D-06 at cycle   8 NSaved=   8.
 NSaved= 8 IEnMin= 8 EnMin= -973.652788335839     IErMin= 8 ErrMin= 1.43D-06
 ErrMax= 1.43D-06  0.00D+00 EMaxC= 1.00D-01 BMatC= 1.11D-09 BMatP= 8.57D-09
 IDIUse=1 WtCom= 1.00D+00 WtEn= 0.00D+00
 Coeff-Com: -0.947D-03 0.176D-01 0.114D-01-0.799D-02-0.877D-01-0.957D-01
 Coeff-Com:  0.243D+00 0.920D+00
 Coeff:     -0.947D-03 0.176D-01 0.114D-01-0.799D-02-0.877D-01-0.957D-01
 Coeff:      0.243D+00 0.920D+00
 Gap=     0.083 Goal=   None    Shift=    0.000
 Gap=     0.063 Goal=   None    Shift=    0.000
 RMSDP=3.02D-07 MaxDP=1.39D-05 DE=-6.67D-09 OVMax= 7.49D-05

 Cycle   9  Pass 1  IDiag  1:
 E= -973.652788336747     Delta-E=       -0.000000000908 Rises=F Damp=F
 DIIS: error= 7.62D-07 at cycle   9 NSaved=   9.
 NSaved= 9 IEnMin= 9 EnMin= -973.652788336747     IErMin= 9 ErrMin= 7.62D-07
 ErrMax= 7.62D-07  0.00D+00 EMaxC= 1.00D-01 BMatC= 3.89D-10 BMatP= 1.11D-09
 IDIUse=1 WtCom= 1.00D+00 WtEn= 0.00D+00
 Coeff-Com: -0.112D-02 0.152D-01 0.128D-01 0.340D-01-0.473D-01-0.161D+00
 Coeff-Com:  0.334D-01 0.522D+00 0.592D+00
 Coeff:     -0.112D-02 0.152D-01 0.128D-01 0.340D-01-0.473D-01-0.161D+00
 Coeff:      0.334D-01 0.522D+00 0.592D+00
 Gap=     0.083 Goal=   None    Shift=    0.000
 Gap=     0.063 Goal=   None    Shift=    0.000
 RMSDP=8.56D-08 MaxDP=3.49D-06 DE=-9.08D-10 OVMax= 1.17D-05

 Cycle  10  Pass 1  IDiag  1:
 E= -973.652788336945     Delta-E=       -0.000000000197 Rises=F Damp=F
 DIIS: error= 3.50D-07 at cycle  10 NSaved=  10.
 NSaved=10 IEnMin=10 EnMin= -973.652788336945     IErMin=10 ErrMin= 3.50D-07
 ErrMax= 3.50D-07  0.00D+00 EMaxC= 1.00D-01 BMatC= 8.85D-11 BMatP= 3.89D-10
 IDIUse=1 WtCom= 1.00D+00 WtEn= 0.00D+00
 Coeff-Com: -0.291D-03 0.158D-02 0.300D-02 0.199D-01 0.412D-02-0.485D-01
 Coeff-Com: -0.620D-01-0.767D-01 0.320D+00 0.839D+00
 Coeff:     -0.291D-03 0.158D-02 0.300D-02 0.199D-01 0.412D-02-0.485D-01
 Coeff:     -0.620D-01-0.767D-01 0.320D+00 0.839D+00
 Gap=     0.083 Goal=   None    Shift=    0.000
 Gap=     0.063 Goal=   None    Shift=    0.000
 RMSDP=5.96D-08 MaxDP=3.04D-06 DE=-1.97D-10 OVMax= 1.26D-05

 Cycle  11  Pass 1  IDiag  1:
 E= -973.652788336986     Delta-E=       -0.000000000041 Rises=F Damp=F
 DIIS: error= 2.14D-07 at cycle  11 NSaved=  11.
 NSaved=11 IEnMin=11 EnMin= -973.652788336986     IErMin=11 ErrMin= 2.14D-07
 ErrMax= 2.14D-07  0.00D+00 EMaxC= 1.00D-01 BMatC= 2.47D-11 BMatP= 8.85D-11
 IDIUse=1 WtCom= 1.00D+00 WtEn= 0.00D+00
 Coeff-Com:  0.391D-04-0.179D-02-0.736D-03 0.630D-02 0.924D-02-0.393D-02
 Coeff-Com: -0.428D-01-0.144D+00 0.925D-01 0.493D+00 0.592D+00
 Coeff:      0.391D-04-0.179D-02-0.736D-03 0.630D-02 0.924D-02-0.393D-02
 Coeff:     -0.428D-01-0.144D+00 0.925D-01 0.493D+00 0.592D+00
 Gap=     0.083 Goal=   None    Shift=    0.000
 Gap=     0.063 Goal=   None    Shift=    0.000
 RMSDP=2.79D-08 MaxDP=1.49D-06 DE=-4.09D-11 OVMax= 4.04D-06

 Cycle  12  Pass 1  IDiag  1:
 E= -973.652788336996     Delta-E=       -0.000000000010 Rises=F Damp=F
 DIIS: error= 7.52D-08 at cycle  12 NSaved=  12.
 NSaved=12 IEnMin=12 EnMin= -973.652788336996     IErMin=12 ErrMin= 7.52D-08
 ErrMax= 7.52D-08  0.00D+00 EMaxC= 1.00D-01 BMatC= 5.91D-12 BMatP= 2.47D-11
 IDIUse=1 WtCom= 1.00D+00 WtEn= 0.00D+00
 Coeff-Com:  0.787D-04-0.110D-02-0.108D-02-0.161D-02 0.308D-02 0.107D-01
 Coeff-Com: -0.999D-03-0.472D-01-0.303D-01 0.246D-01 0.299D+00 0.745D+00
 Coeff:      0.787D-04-0.110D-02-0.108D-02-0.161D-02 0.308D-02 0.107D-01
 Coeff:     -0.999D-03-0.472D-01-0.303D-01 0.246D-01 0.299D+00 0.745D+00
 Gap=     0.083 Goal=   None    Shift=    0.000
 Gap=     0.063 Goal=   None    Shift=    0.000
 RMSDP=1.10D-08 MaxDP=3.75D-07 DE=-1.02D-11 OVMax= 1.23D-06

 Cycle  13  Pass 1  IDiag  1:
 E= -973.652788337002     Delta-E=       -0.000000000006 Rises=F Damp=F
 DIIS: error= 3.25D-08 at cycle  13 NSaved=  13.
 NSaved=13 IEnMin=13 EnMin= -973.652788337002     IErMin=13 ErrMin= 3.25D-08
 ErrMax= 3.25D-08  0.00D+00 EMaxC= 1.00D-01 BMatC= 8.74D-13 BMatP= 5.91D-12
 IDIUse=1 WtCom= 1.00D+00 WtEn= 0.00D+00
 Coeff-Com:  0.167D-04 0.223D-03-0.193D-03-0.197D-02-0.195D-02 0.369D-02
 Coeff-Com:  0.124D-01 0.283D-01-0.364D-01-0.139D+00-0.976D-01 0.153D+00
 Coeff-Com:  0.108D+01
 Coeff:      0.167D-04 0.223D-03-0.193D-03-0.197D-02-0.195D-02 0.369D-02
 Coeff:      0.124D-01 0.283D-01-0.364D-01-0.139D+00-0.976D-01 0.153D+00
 Coeff:      0.108D+01
 Gap=     0.083 Goal=   None    Shift=    0.000
 Gap=     0.063 Goal=   None    Shift=    0.000
 RMSDP=7.18D-09 MaxDP=2.85D-07 DE=-6.14D-12 OVMax= 9.76D-07

 Error on total polarization charges =  0.01276
 SCF Done:  E(UB3LYP) =  -973.652788337     A.U. after   13 cycles
            NFock= 13  Conv=0.72D-08     -V/T= 2.0049
 <Sx>= 0.0000 <Sy>= 0.0000 <Sz>= 1.0000 <S**2>= 2.0077 S= 1.0026
 <L.S>= 0.000000000000E+00
 KE= 9.688937292513D+02 PE=-4.264413937096D+03 EE= 1.331415711546D+03
 Annihilation of the first spin contaminant:
 S**2 before annihilation     2.0077,   after     2.0000
 Leave Link  502 at Tue Aug 18 13:30:09 2026, MaxMem=  2684354560 cpu:             646.5 elap:             647.4
 (Enter /mnt/data/applications/G16/g16/l701.exe)
 ... and contract with generalized density number  0.
 Compute integral first derivatives.
 R6Disp: Adding Grimme-D3(BJ) dispersion energy 1st derivatives to the gradient.
   1 Symmetry operations used in ECPInt.
 ECPInt:  NShTT=    6786 NPrTT=   65756 LenC2=    6456 LenP2D=   34284.
 LDataN:  DoStor=T MaxTD1= 5 Len=  102
 D1PCM: PCM CHGder 1st derivatives, ID1Alg=3 FixD1E=F DoIter=F DoCFld=F I1PDM=0.
 GePol: Maximum number of non-zero 1st derivatives   =     242
 Leave Link  701 at Tue Aug 18 13:30:23 2026, MaxMem=  2684354560 cpu:              13.3 elap:              13.3
 (Enter /mnt/data/applications/G16/g16/l702.exe)
 L702 exits ... SP integral derivatives will be done elsewhere.
 Leave Link  702 at Tue Aug 18 13:30:23 2026, MaxMem=  2684354560 cpu:               0.0 elap:               0.0
 (Enter /mnt/data/applications/G16/g16/l703.exe)
 Integral derivatives from FoFJK, PRISM(SPDF).
 Compute integral first derivatives, UseDBF=F ICtDFT=           0.
 Calling FoFJK, ICntrl=      2127 FMM=F ISym2X=0 I1Cent= 0 IOpClX= 1 NMat=1 NMatS=1 NMatT=0.
 FoFJK:  IHMeth= 1 ICntrl=    2127 DoSepK=F KAlg= 0 I1Cent=           0 FoldK=F
 IRaf=         0 NMat=       1 IRICut=       1 DoRegI=T DoRafI=F ISym2E= 0 IDoP0=0 IntGTp=1.
 FoFCou: FMM=F IPFlag=           0 FMFlag=      100000 FMFlg1=         800
         NFxFlg=           0 DoJE=F BraDBF=F KetDBF=F FulRan=T
         wScrn=  0.000000 ICntrl=      2127 IOpCl=  1 I1Cent=           0 NGrid=           0
         NMat0=    1 NMatS0=      1 NMatT0=    0 NMatD0=    1 NMtDS0=    0 NMtDT0=    0
 Symmetry not used in FoFCou.
 Leave Link  703 at Tue Aug 18 13:32:45 2026, MaxMem=  2684354560 cpu:             141.9 elap:             142.1
 (Enter /mnt/data/applications/G16/g16/l716.exe)
 Dipole        = 1.26840615D+00-2.15710981D+00 3.20847866D-02
 -------------------------------------------------------------------
 Center     Atomic                   Forces (Hartrees/Bohr)
 Number     Number              X              Y              Z
 -------------------------------------------------------------------
      1        6           0.000158586   -0.000028393    0.000003474
      2        6          -0.000119338   -0.000079487    0.000000335
      3        6           0.000091198    0.000278049    0.000001935
      4        6           0.000008489   -0.000291034    0.000067731
      5        6          -0.000114047   -0.000002000   -0.000004250
      6        6          -0.000073877    0.000121894   -0.000001234
      7        6           0.000060761   -0.000096447   -0.000234914
      8        6           0.000249502   -0.000149073    0.000067957
      9        6          -0.000289390    0.000053444    0.000001246
     10        6           0.000127918    0.000060028    0.000001420
     11        1           0.000027303    0.000020350   -0.000002624
     12        6          -0.000048687   -0.000156545    0.000003605
     13        6          -0.000065495    0.000117656   -0.000000493
     14        6           0.000059731    0.000095297   -0.000003788
     15        1          -0.000007609   -0.000007929    0.000000863
     16        1          -0.000039729   -0.000012233   -0.000003524
     17        1           0.000055215    0.000014978   -0.000006772
     18        1           0.000004907   -0.000034415   -0.000000991
     19        1           0.000012951   -0.000005310    0.000002007
     20        1           0.000033341   -0.000026652    0.000000056
     21        1          -0.000034617   -0.000043328   -0.000004764
     22       16           0.000005888   -0.000009772    0.000013564
     23        8          -0.000103001    0.000180923    0.000099162
 -------------------------------------------------------------------
 Cartesian Forces:  Max     0.000291034 RMS     0.000096501
 Leave Link  716 at Tue Aug 18 13:32:45 2026, MaxMem=  2684354560 cpu:               0.0 elap:               0.0
 (Enter /mnt/data/applications/G16/g16/l103.exe)

 GradGradGradGradGradGradGradGradGradGradGradGradGradGradGradGradGradGrad
 Berny optimization.
 Using GEDIIS/GDIIS optimizer.
 FormGI is forming the generalized inverse of G from B-inverse, IUseBI=4.
 Internal  Forces:  Max     0.000206740 RMS     0.000044967
 Search for a local minimum.
 Step number   5 out of a maximum of  135
 All quantities printed in internal units (Hartrees-Bohrs-Radians)
 RMS Force = .44967D-04 SwitMx=.10000D-02 MixMth= 2
 Mixed Optimization -- En-DIIS/RFO-DIIS
 Swapping is turned off.
 Update second derivatives using D2CorX and points    1    2    3    4    5
 DE= -9.84D-06 DEPred=-9.21D-06 R= 1.07D+00
 TightC=F SS=  1.41D+00  RLast= 1.07D-02 DXNew= 7.5422D-01 3.2071D-02
 Trust test= 1.07D+00 RLast= 1.07D-02 DXMaxT set to 4.48D-01
 ITU=  1  1  1  1  0
     Eigenvalues ---    0.00939   0.01046   0.01454   0.01549   0.01681
     Eigenvalues ---    0.01713   0.01811   0.01833   0.02052   0.02054
     Eigenvalues ---    0.02063   0.02063   0.02108   0.02108   0.02127
     Eigenvalues ---    0.02127   0.02143   0.02144   0.02185   0.02185
     Eigenvalues ---    0.15448   0.15993   0.16000   0.16000   0.16000
     Eigenvalues ---    0.16000   0.16028   0.16174   0.17752   0.20571
     Eigenvalues ---    0.22000   0.22597   0.22632   0.23064   0.24470
     Eigenvalues ---    0.24999   0.25000   0.25004   0.29034   0.29106
     Eigenvalues ---    0.31661   0.33797   0.34598   0.34603   0.34606
     Eigenvalues ---    0.34622   0.34669   0.34676   0.34812   0.34828
     Eigenvalues ---    0.38660   0.40485   0.41113   0.41145   0.43510
     Eigenvalues ---    0.43732   0.44342   0.45321   0.46124   0.46435
     Eigenvalues ---    0.47395   0.48778   0.63457
 En-DIIS/RFO-DIIS/Sim-DIIS IScMMF=       -3 using points:     5    4    3
 RFO step:  Lambda=-2.55594065D-06.
 NNeg= 0 NGDIIS= 3 SimSw=  2.50D-01 Rises=F DC= -9.84D-06 SmlDif=  1.00D-05
 NRisDI= 0 DoIntr=F SqrtH=F CThrHd= 10.0 CDAdj=  3.0
 RMS Error=  0.1147549882D-02 NUsed= 3 OKEnD=F EnDIS=F
 InvSVX:  RCond= 1.72D-05 Info=           0 Equed=N FErr=  5.37D-15 BErr=  7.28D-17
 DidBck=T Rises=F RFO-DIIS coefs:    0.47233    0.82253   -0.29487
 Iteration  1 RMS(Cart)=  0.00053973 RMS(Int)=  0.00000071
 Iteration  2 RMS(Cart)=  0.00000047 RMS(Int)=  0.00000058
 ITry= 1 IFail=0 DXMaxC= 2.53D-03 DCOld= 1.00D+10 DXMaxT= 4.48D-01 DXLimC= 3.00D+00 Rises=F
 Variable       Old X    -DE/DX   Delta X   Delta X   Delta X     New X
                                 (Linear)    (Quad)   (Total)
    R1        2.63267  -0.00009   0.00032  -0.00050  -0.00018   2.63249
    R2        2.66073   0.00007  -0.00024   0.00035   0.00011   2.66084
    R3        2.05956   0.00001  -0.00003   0.00008   0.00005   2.05961
    R4        2.65504   0.00011  -0.00051   0.00067   0.00016   2.65520
    R5        2.06317  -0.00001   0.00005  -0.00006  -0.00001   2.06317
    R6        2.71031  -0.00015   0.00086  -0.00117  -0.00031   2.71000
    R7        3.30643  -0.00002   0.00017  -0.00002   0.00015   3.30658
    R8        2.67205   0.00006   0.00030  -0.00030  -0.00000   2.67205
    R9        2.74339   0.00009  -0.00042   0.00060   0.00018   2.74357
   R10        2.63140  -0.00003  -0.00014   0.00004  -0.00009   2.63131
   R11        2.05784  -0.00001   0.00003  -0.00006  -0.00003   2.05781
   R12        2.06416  -0.00001   0.00004  -0.00007  -0.00003   2.06413
   R13        2.74334   0.00009  -0.00040   0.00058   0.00017   2.74351
   R14        2.43745   0.00021   0.00102  -0.00080   0.00022   2.43767
   R15        2.71047  -0.00015   0.00087  -0.00118  -0.00031   2.71015
   R16        2.67207   0.00005   0.00030  -0.00031  -0.00000   2.67207
   R17        2.65498   0.00011  -0.00050   0.00065   0.00016   2.65513
   R18        3.30635  -0.00002   0.00018  -0.00003   0.00015   3.30650
   R19        2.06329  -0.00000   0.00004  -0.00004  -0.00001   2.06329
   R20        2.63274  -0.00008   0.00031  -0.00049  -0.00018   2.63256
   R21        2.66076   0.00007  -0.00024   0.00035   0.00011   2.66087
   R22        2.05956   0.00001  -0.00003   0.00008   0.00005   2.05961
   R23        2.63138  -0.00003  -0.00014   0.00005  -0.00009   2.63129
   R24        2.06417  -0.00001   0.00003  -0.00007  -0.00003   2.06414
   R25        2.05773  -0.00001   0.00003  -0.00006  -0.00003   2.05771
    A1        2.07312   0.00005  -0.00028   0.00056   0.00027   2.07339
    A2        2.10046  -0.00003   0.00026  -0.00045  -0.00018   2.10027
    A3        2.10961  -0.00002   0.00002  -0.00011  -0.00009   2.10952
    A4        2.09359   0.00000   0.00006  -0.00007  -0.00001   2.09358
    A5        2.10473  -0.00004   0.00048  -0.00069  -0.00020   2.10452
    A6        2.08487   0.00004  -0.00054   0.00075   0.00021   2.08508
    A7        2.13542  -0.00006   0.00038  -0.00070  -0.00032   2.13510
    A8        2.01851   0.00001   0.00001   0.00004   0.00005   2.01856
    A9        2.12926   0.00005  -0.00039   0.00066   0.00027   2.12952
   A10        2.02220   0.00008  -0.00069   0.00111   0.00042   2.02262
   A11        2.17100  -0.00003  -0.00033   0.00007  -0.00025   2.17074
   A12        2.08999  -0.00005   0.00102  -0.00118  -0.00016   2.08982
   A13        2.12344  -0.00002   0.00019  -0.00030  -0.00011   2.12333
   A14        2.04519  -0.00005   0.00045  -0.00056  -0.00011   2.04508
   A15        2.11456   0.00007  -0.00064   0.00086   0.00022   2.11477
   A16        2.11860  -0.00006   0.00034  -0.00060  -0.00025   2.11835
   A17        2.08505  -0.00001   0.00019  -0.00018   0.00000   2.08506
   A18        2.07953   0.00007  -0.00053   0.00078   0.00025   2.07977
   A19        2.12046  -0.00000   0.00090  -0.00069   0.00022   2.12067
   A20        2.08120   0.00000  -0.00045   0.00035  -0.00010   2.08109
   A21        2.08152   0.00000  -0.00045   0.00034  -0.00011   2.08142
   A22        2.17092  -0.00003  -0.00032   0.00007  -0.00025   2.17066
   A23        2.09025  -0.00005   0.00101  -0.00117  -0.00016   2.09008
   A24        2.02202   0.00008  -0.00069   0.00111   0.00042   2.02244
   A25        2.13556  -0.00005   0.00037  -0.00069  -0.00032   2.13524
   A26        2.12930   0.00005  -0.00040   0.00067   0.00027   2.12957
   A27        2.01833   0.00001   0.00003   0.00002   0.00005   2.01837
   A28        2.08494   0.00004  -0.00052   0.00073   0.00021   2.08515
   A29        2.09356   0.00000   0.00006  -0.00007  -0.00001   2.09354
   A30        2.10469  -0.00004   0.00046  -0.00065  -0.00019   2.10449
   A31        2.07306   0.00004  -0.00028   0.00055   0.00027   2.07333
   A32        2.10047  -0.00002   0.00026  -0.00045  -0.00018   2.10029
   A33        2.10965  -0.00002   0.00002  -0.00010  -0.00009   2.10957
   A34        2.11866  -0.00006   0.00034  -0.00059  -0.00025   2.11841
   A35        2.08516  -0.00001   0.00018  -0.00018   0.00000   2.08516
   A36        2.07937   0.00007  -0.00053   0.00077   0.00024   2.07962
   A37        2.12352  -0.00002   0.00019  -0.00030  -0.00011   2.12341
   A38        2.04551  -0.00005   0.00045  -0.00056  -0.00011   2.04540
   A39        2.11416   0.00007  -0.00064   0.00086   0.00022   2.11438
   A40        1.84544  -0.00002   0.00054  -0.00078  -0.00024   1.84520
    D1       -0.00003   0.00000   0.00002   0.00000   0.00002  -0.00001
    D2       -3.14159  -0.00000  -0.00001   0.00000  -0.00001   3.14159
    D3        3.14158   0.00000   0.00001   0.00001   0.00002  -3.14158
    D4        0.00002  -0.00000  -0.00001   0.00000  -0.00001   0.00002
    D5        0.00005   0.00000   0.00001   0.00000   0.00001   0.00006
    D6       -3.14150  -0.00000  -0.00002  -0.00000  -0.00002  -3.14152
    D7       -3.14156   0.00000   0.00001   0.00000   0.00002  -3.14155
    D8        0.00007  -0.00000  -0.00002  -0.00001  -0.00002   0.00005
    D9        0.00000  -0.00000  -0.00004  -0.00001  -0.00005  -0.00005
   D10       -3.14154  -0.00001  -0.00012  -0.00006  -0.00018   3.14146
   D11        3.14156  -0.00000  -0.00001  -0.00001  -0.00002   3.14154
   D12        0.00002  -0.00001  -0.00010  -0.00006  -0.00016  -0.00014
   D13        0.00001   0.00000   0.00003   0.00001   0.00004   0.00006
   D14        3.14146   0.00001   0.00011   0.00003   0.00013   3.14159
   D15        3.14155   0.00001   0.00012   0.00006   0.00018  -3.14145
   D16       -0.00019   0.00001   0.00020   0.00008   0.00028   0.00008
   D17        3.14125   0.00001   0.00040   0.00012   0.00051  -3.14142
   D18       -0.00029   0.00001   0.00031   0.00007   0.00038   0.00009
   D19        0.00000  -0.00000  -0.00000  -0.00000  -0.00001  -0.00000
   D20        3.14149   0.00000   0.00005   0.00001   0.00006   3.14155
   D21       -3.14145  -0.00000  -0.00007  -0.00002  -0.00009  -3.14154
   D22        0.00004  -0.00000  -0.00002  -0.00000  -0.00003   0.00002
   D23        0.00057  -0.00003  -0.00079  -0.00024  -0.00104  -0.00047
   D24        3.13946   0.00005   0.00163   0.00056   0.00219  -3.14154
   D25       -3.14118  -0.00002  -0.00072  -0.00023  -0.00094   3.14106
   D26       -0.00229   0.00006   0.00171   0.00058   0.00229  -0.00000
   D27       -0.00003  -0.00000  -0.00002  -0.00000  -0.00002  -0.00006
   D28        3.14152   0.00000   0.00001   0.00000   0.00002   3.14153
   D29       -3.14152  -0.00000  -0.00007  -0.00002  -0.00009   3.14157
   D30        0.00003  -0.00000  -0.00004  -0.00001  -0.00005  -0.00002
   D31       -0.00036   0.00003   0.00081   0.00024   0.00105   0.00068
   D32        3.14126   0.00003   0.00072   0.00023   0.00096  -3.14097
   D33       -3.13925  -0.00005  -0.00162  -0.00057  -0.00218  -3.14144
   D34        0.00236  -0.00006  -0.00170  -0.00057  -0.00227   0.00009
   D35        3.14135  -0.00001  -0.00011  -0.00003  -0.00014   3.14121
   D36       -0.00020  -0.00001  -0.00022  -0.00007  -0.00029  -0.00048
   D37       -0.00026  -0.00000  -0.00003  -0.00002  -0.00005  -0.00032
   D38        3.14137  -0.00001  -0.00014  -0.00006  -0.00020   3.14117
   D39       -3.14138   0.00000   0.00009   0.00001   0.00010  -3.14127
   D40        0.00029   0.00000   0.00004  -0.00000   0.00004   0.00033
   D41        0.00024   0.00000   0.00001   0.00001   0.00002   0.00026
   D42       -3.14128  -0.00000  -0.00003  -0.00001  -0.00004  -3.14133
   D43       -3.14148   0.00000   0.00001   0.00002   0.00003  -3.14146
   D44        0.00010   0.00000   0.00003   0.00002   0.00005   0.00016
   D45        0.00007   0.00001   0.00011   0.00005   0.00016   0.00023
   D46       -3.14153   0.00001   0.00013   0.00006   0.00019  -3.14134
   D47        0.00047  -0.00000  -0.00030  -0.00008  -0.00038   0.00010
   D48       -3.14108  -0.00001  -0.00040  -0.00011  -0.00051   3.14159
   D49        0.00009  -0.00000  -0.00001  -0.00001  -0.00001   0.00008
   D50       -3.14153  -0.00000  -0.00001  -0.00001  -0.00002  -3.14155
   D51       -3.14151   0.00000   0.00001   0.00000   0.00001  -3.14149
   D52        0.00006   0.00000   0.00001  -0.00001   0.00001   0.00006
   D53       -0.00011  -0.00000  -0.00001  -0.00001  -0.00002  -0.00013
   D54        3.14144   0.00000   0.00002  -0.00000   0.00001   3.14146
   D55        3.14151  -0.00000  -0.00001   0.00000  -0.00001   3.14149
   D56       -0.00012   0.00000   0.00002   0.00001   0.00002  -0.00010
   D57       -0.00006   0.00000   0.00001   0.00001   0.00002  -0.00004
   D58        3.14146   0.00000   0.00006   0.00002   0.00008   3.14154
   D59        3.14157  -0.00000  -0.00002   0.00000  -0.00002   3.14155
   D60       -0.00009   0.00000   0.00003   0.00002   0.00004  -0.00005
         Item               Value     Threshold  Converged?
 Maximum Force            0.000207     0.000450     YES
 RMS     Force            0.000045     0.000300     YES
 Maximum Displacement     0.002533     0.001800     NO 
 RMS     Displacement     0.000540     0.001200     YES
 Predicted change in Energy=-8.954764D-07
 Lowest energy point so far.  Saving SCF results.
 GradGradGradGradGradGradGradGradGradGradGradGradGradGradGradGradGradGrad

 Leave Link  103 at Tue Aug 18 13:32:45 2026, MaxMem=  2684354560 cpu:               0.0 elap:               0.0
 (Enter /mnt/data/applications/G16/g16/l202.exe)
                          Input orientation:                          
 ---------------------------------------------------------------------
 Center     Atomic      Atomic             Coordinates (Angstroms)
 Number     Number       Type             X           Y           Z
 ---------------------------------------------------------------------
      1          6           0       -9.142056   -0.412361    0.008517
      2          6           0       -7.750261   -0.470429    0.020042
      3          6           0       -6.998514    0.716612    0.014503
      4          6           0       -7.611836    2.012796   -0.002902
      5          6           0       -9.025711    2.026663   -0.014163
      6          6           0       -9.768178    0.848712   -0.008577
      7          6           0       -6.879274    3.266244   -0.009232
      8          6           0       -5.427838    3.296797    0.002554
      9          6           0       -4.593596    2.130385    0.020259
     10          6           0       -3.190839    2.209674    0.030739
     11          1           0       -2.600982    1.290969    0.044019
     12          6           0       -2.564476    3.453990    0.024176
     13          6           0       -3.361720    4.614498    0.007105
     14          6           0       -4.752044    4.538833   -0.003375
     15          1           0       -9.731330   -1.329210    0.012734
     16          1           0       -7.234577   -1.432654    0.033386
     17          1           0       -9.513422    3.000198   -0.027410
     18          1           0      -10.858876    0.906971   -0.017667
     19          1           0       -1.476784    3.522831    0.032195
     20          1           0       -2.882180    5.595886    0.001945
     21          1           0       -5.364947    5.438757   -0.016523
     22         16           0       -5.260722    0.512864    0.030366
     23          8           0       -7.533138    4.378094   -0.025110
 ---------------------------------------------------------------------
                    Distance matrix (angstroms):
                    1          2          3          4          5
     1  C    0.000000
     2  C    1.393053   0.000000
     3  C    2.422681   1.405070   0.000000
     4  C    2.867593   2.487186   1.434071   0.000000
     5  C    2.441902   2.804178   2.413832   1.413988   0.000000
     6  C    1.408057   2.411004   2.772908   2.450497   1.392428
     7  C    4.318869   3.836952   2.552529   1.451833   2.478665
     8  C    5.249124   4.425602   3.020683   2.533483   3.815523
     9  C    5.210967   4.090082   2.789699   3.020619   4.433463
    10  C    6.503272   5.288799   4.089974   4.425506   5.837915
    11  H    6.759308   5.442258   4.434980   5.062795   6.466976
    12  C    7.629775   6.503342   5.210953   5.249154   6.617122
    13  C    7.660391   6.716840   5.331026   4.983216   6.227210
    14  C    6.617150   5.838028   4.433546   3.815662   4.957353
    15  H    1.089896   2.159211   3.413747   3.957461   3.429359
    16  H    2.163352   1.091780   2.162273   3.466232   3.895805
    17  H    3.432894   3.893102   3.397247   2.142800   1.088948
    18  H    2.165362   3.400315   3.865186   3.430209   2.148072
    19  H    8.616419   7.436584   6.193922   6.318251   7.695906
    20  H    8.676699   7.778092   6.383704   5.933650   7.105110
    21  H    6.964392   6.372562   4.996815   4.097061   5.004357
    22  S    3.990147   2.676710   1.749768   2.789021   4.058167
    23  O    5.053534   4.853592   3.700519   2.366711   2.785161
                    6          7          8          9         10
     6  C    0.000000
     7  C    3.766992   0.000000
     8  C    4.983151   1.451805   0.000000
     9  C    5.331024   2.552522   1.434152   0.000000
    10  C    6.716781   3.836990   2.487327   1.405035   0.000000
    11  H    7.181020   4.712571   3.466436   2.162335   1.091845
    12  C    7.660409   4.319010   2.867755   2.422658   1.393089
    13  C    7.431291   3.767126   2.450551   2.772816   2.411003
    14  C    6.227248   2.478836   1.413997   2.413771   2.804195
    15  H    2.178338   5.408595   6.318234   6.193962   7.436534
    16  H    3.409622   4.712504   5.062901   4.435110   5.442277
    17  H    2.166599   2.647611   4.096445   4.996352   6.372077
    18  H    1.092290   4.626388   5.933620   6.383722   7.778057
    19  H    8.712048   5.408738   3.957625   3.413731   2.159251
    20  H    8.363775   4.626458   3.430187   3.865097   3.400372
    21  H    6.360583   2.648217   2.142968   3.397302   3.893065
    22  S    4.520118   3.194116   2.789083   1.749724   2.676486
    23  O    4.177584   1.289962   2.366908   3.700697   4.853939
                   11         12         13         14         15
    11  H    0.000000
    12  C    2.163420   0.000000
    13  C    3.409681   1.408072   0.000000
    14  C    3.895887   2.441946   1.392421   0.000000
    15  H    7.596590   8.616434   8.712039   7.695939   0.000000
    16  H    5.374797   6.759380   7.181069   6.467069   2.498980
    17  H    7.120982   6.963938   6.360078   5.003868   4.335075
    18  H    8.267047   8.676758   8.363833   7.105211   2.504553
    19  H    2.499033   1.089897   2.178382   3.429410   9.574977
    20  H    4.314296   2.165444   1.092295   2.147971   9.740016
    21  H    4.984708   3.432724   2.166306   1.088892   8.054286
    22  S    2.771254   3.989988   4.519972   4.058118   4.835275
    23  O    5.819044   5.054107   4.178236   2.785820   6.116109
                   16         17         18         19         20
    16  H    0.000000
    17  H    4.984677   0.000000
    18  H    4.314162   2.488361   0.000000
    19  H    7.596644   8.053834   9.740064   0.000000
    20  H    8.267086   7.121223   9.252782   2.504718   0.000000
    21  H    7.121397   4.812123   7.121821   4.334854   2.487803
    22  S    2.771489   4.927030   5.612215   4.835089   5.612074
    23  O    5.818707   2.412493   4.807211   6.116713   4.807823
                   21         22         23
    21  H    0.000000
    22  S    4.927219   0.000000
    23  O    2.413738   4.484078   0.000000
 Symmetry turned off by external request.
 Stoichiometry    C13H8OS(3)
 Framework group  C1[X(C13H8OS)]
 Deg. of freedom    63
 Full point group                 C1      NOp   1
 Rotational constants (GHZ):           1.2153855           0.4223181           0.3134141
 Leave Link  202 at Tue Aug 18 13:32:45 2026, MaxMem=  2684354560 cpu:               0.0 elap:               0.0
 (Enter /mnt/data/applications/G16/g16/l301.exe)
 Basis read from rwf:  (5D, 7F)
 Pseudo-potential data read from rwf file.
   254 basis functions,   589 primitive gaussians,   269 cartesian basis functions
    56 alpha electrons       54 beta electrons
       nuclear repulsion energy       990.5043955828 Hartrees.
 IExCor=  402 DFT=T Ex+Corr=B3LYP ExCW=0 ScaHFX=  0.200000
 ScaDFX=  0.800000  0.720000  1.000000  0.810000 ScalE2=  1.000000  1.000000
 IRadAn=      5 IRanWt=     -1 IRanGd=            0 ICorTp=0 IEmpDi=141
 NAtoms=   23 NActive=   23 NUniq=   23 SFac= 1.00D+00 NAtFMM=   60 NAOKFM=F Big=F
 Integral buffers will be    131072 words long.
 Raffenetti 2 integral format.
 Two-electron integral symmetry is turned off.
 R6Disp:  Grimme-D3(BJ) Dispersion energy=       -0.0580984193 Hartrees.
 Nuclear repulsion after empirical dispersion term =      990.4462971635 Hartrees.
 No density basis found on file   724.
 ------------------------------------------------------------------------------
 Polarizable Continuum Model (PCM)
 =================================
 Model                : PCM.
 Atomic radii         : UFF (Universal Force Field).
 Polarization charges : Total charges.
 Charge compensation  : None.
 Solution method      : On-the-fly selection.
 Cavity type          : Scaled VdW (van der Waals Surface) (Alpha=1.100).
 Cavity algorithm     : GePol (No added spheres)
                        Default sphere list used, NSphG=   23.
                        Lebedev-Laikov grids with approx.  5.0 points / Ang**2.
                        Smoothing algorithm: York/Karplus (Gamma=1.0000).
                        Polarization charges: spherical gaussians, with
                                              point-specific exponents (IZeta= 3).
                        Self-potential: point-specific (ISelfS= 7).
                        Self-field    : sphere-specific E.n sum rule (ISelfD= 2).
 1st derivatives      : Analytical E(r).r(x)/FMM algorithm (CHGder, D1EAlg=3).
                        Cavity 1st derivative terms included.
 Solvent              : Acetonitrile, Eps=  35.688000 Eps(inf)=   1.806874
 ------------------------------------------------------------------------------
 GePol: Number of generator spheres                  =      23
 GePol: Total number of spheres                      =      23
 GePol: Number of exposed spheres                    =      23 (100.00%)
 GePol: Number of points                             =    1988
 GePol: Average weight of points                     =       0.13
 GePol: Minimum weight of points                     =   0.12D-11
 GePol: Maximum weight of points                     =    0.20577
 GePol: Number of points with low weight             =      97
 GePol: Fraction of low-weight points (<1% of avg)   =       4.88%
 GePol: Cavity surface area                          =    256.571 Ang**2
 GePol: Cavity volume                                =    277.431 Ang**3
 Leave Link  301 at Tue Aug 18 13:32:45 2026, MaxMem=  2684354560 cpu:               0.1 elap:               0.1
 (Enter /mnt/data/applications/G16/g16/l302.exe)
 NPDir=0 NMtPBC=     1 NCelOv=     1 NCel=       1 NClECP=     1 NCelD=      1
         NCelK=      1 NCelE2=     1 NClLst=     1 CellRange=     0.0.
 One-electron integrals computed using PRISM.
   1 Symmetry operations used in ECPInt.
 ECPInt:  NShTT=    6786 NPrTT=   65756 LenC2=    6456 LenP2D=   34284.
 LDataN:  DoStor=T MaxTD1= 4 Len=   56
 NBasis=   254 RedAO= T EigKep=  2.46D-04  NBF=   254
 NBsUse=   254 1.00D-06 EigRej= -1.00D+00 NBFU=   254
 Precomputing XC quadrature grid using
 IXCGrd= 4 IRadAn=           5 IRanWt=          -1 IRanGd=           0 AccXCQ= 0.00D+00.
 Generated NRdTot=       0 NPtTot=           0 NUsed=           0 NTot=          32
 NSgBfM=   268   268   268   268   268 MxSgAt=    23 MxSgA2=    23.
 Leave Link  302 at Tue Aug 18 13:32:46 2026, MaxMem=  2684354560 cpu:               1.2 elap:               1.2
 (Enter /mnt/data/applications/G16/g16/l303.exe)
 DipDrv:  MaxL=1.
 Leave Link  303 at Tue Aug 18 13:32:46 2026, MaxMem=  2684354560 cpu:               0.0 elap:               0.1
 (Enter /mnt/data/applications/G16/g16/l401.exe)
 Initial guess from the checkpoint file:  "TX_triplet.chk"
 B after Tr=     0.000075   -0.000116   -0.001519
         Rot=    1.000000   -0.000056   -0.000033   -0.000000 Ang=  -0.01 deg.
 Guess basis will be translated and rotated to current coordinates.
 JPrj=2 DoOrth=T DoCkMO=T.
 Initial guess <Sx>= 0.0000 <Sy>= 0.0000 <Sz>= 1.0000 <S**2>= 2.0077 S= 1.0026
 Leave Link  401 at Tue Aug 18 13:32:47 2026, MaxMem=  2684354560 cpu:               0.3 elap:               0.3
 (Enter /mnt/data/applications/G16/g16/l502.exe)
 Keep R1 and R2 ints in memory in canonical form, NReq=1058662964.
 FoFCou: FMM=F IPFlag=           0 FMFlag=           0 FMFlg1=           0
         NFxFlg=           0 DoJE=F BraDBF=F KetDBF=F FulRan=T
         wScrn=  0.000000 ICntrl=       600 IOpCl=  0 I1Cent=           0 NGrid=           0
         NMat0=    1 NMatS0=  32385 NMatT0=    0 NMatD0=    1 NMtDS0=    0 NMtDT0=    0
 Symmetry not used in FoFCou.
 Two-electron integral symmetry not used.
 UHF open shell SCF:
 Using DIIS extrapolation, IDIIS=  1040.
 NGot=  2684354560 LenX=  1635385430 LenY=  1635312628
 Requested convergence on RMS density matrix=1.00D-08 within 128 cycles.
 Requested convergence on MAX density matrix=1.00D-06.
 Requested convergence on             energy=1.00D-06.
 No special actions if energy rises.

 Cycle   1  Pass 1  IDiag  1:
 Inv3:  Mode=1 IEnd=    11856432.
 Iteration    1 A*A^-1 deviation from unit magnitude is 1.78D-15 for     81.
 Iteration    1 A*A^-1 deviation from orthogonality  is 1.23D-15 for   1264    163.
 Iteration    1 A^-1*A deviation from unit magnitude is 1.55D-15 for     81.
 Iteration    1 A^-1*A deviation from orthogonality  is 1.23D-15 for   1405    544.
 E= -973.652786196929    
 DIIS: error= 1.14D-04 at cycle   1 NSaved=   1.
 NSaved= 1 IEnMin= 1 EnMin= -973.652786196929     IErMin= 1 ErrMin= 1.14D-04
 ErrMax= 1.14D-04  0.00D+00 EMaxC= 1.00D-01 BMatC= 5.47D-06 BMatP= 5.47D-06
 IDIUse=3 WtCom= 9.99D-01 WtEn= 1.14D-03
 Coeff-Com:  0.100D+01
 Coeff-En:   0.100D+01
 Coeff:      0.100D+01
 Gap=     0.658 Goal=   None    Shift=    0.000
 Gap=     0.768 Goal=   None    Shift=    0.000
 RMSDP=1.43D-05 MaxDP=6.43D-04              OVMax= 7.26D-04

 Cycle   2  Pass 1  IDiag  1:
 E= -973.652788902493     Delta-E=       -0.000002705564 Rises=F Damp=F
 DIIS: error= 2.17D-05 at cycle   2 NSaved=   2.
 NSaved= 2 IEnMin= 2 EnMin= -973.652788902493     IErMin= 2 ErrMin= 2.17D-05
 ErrMax= 2.17D-05  0.00D+00 EMaxC= 1.00D-01 BMatC= 1.35D-07 BMatP= 5.47D-06
 IDIUse=1 WtCom= 1.00D+00 WtEn= 0.00D+00
 Coeff-Com: -0.658D-01 0.107D+01
 Coeff:     -0.658D-01 0.107D+01
 Gap=     0.083 Goal=   None    Shift=    0.000
 Gap=     0.063 Goal=   None    Shift=    0.000
 RMSDP=2.09D-06 MaxDP=1.12D-04 DE=-2.71D-06 OVMax= 2.06D-04

 Cycle   3  Pass 1  IDiag  1:
 E= -973.652788931924     Delta-E=       -0.000000029431 Rises=F Damp=F
 DIIS: error= 1.33D-05 at cycle   3 NSaved=   3.
 NSaved= 3 IEnMin= 3 EnMin= -973.652788931924     IErMin= 3 ErrMin= 1.33D-05
 ErrMax= 1.33D-05  0.00D+00 EMaxC= 1.00D-01 BMatC= 1.40D-07 BMatP= 1.35D-07
 IDIUse=1 WtCom= 1.00D+00 WtEn= 0.00D+00
 Coeff-Com: -0.482D-01 0.574D+00 0.474D+00
 Coeff:     -0.482D-01 0.574D+00 0.474D+00
 Gap=     0.083 Goal=   None    Shift=    0.000
 Gap=     0.063 Goal=   None    Shift=    0.000
 RMSDP=1.28D-06 MaxDP=7.23D-05 DE=-2.94D-08 OVMax= 2.25D-04

 Cycle   4  Pass 1  IDiag  1:
 E= -973.652788967538     Delta-E=       -0.000000035614 Rises=F Damp=F
 DIIS: error= 6.23D-06 at cycle   4 NSaved=   4.
 NSaved= 4 IEnMin= 4 EnMin= -973.652788967538     IErMin= 4 ErrMin= 6.23D-06
 ErrMax= 6.23D-06  0.00D+00 EMaxC= 1.00D-01 BMatC= 1.89D-08 BMatP= 1.35D-07
 IDIUse=1 WtCom= 1.00D+00 WtEn= 0.00D+00
 Coeff-Com: -0.985D-02 0.989D-01 0.264D+00 0.647D+00
 Coeff:     -0.985D-02 0.989D-01 0.264D+00 0.647D+00
 Gap=     0.083 Goal=   None    Shift=    0.000
 Gap=     0.063 Goal=   None    Shift=    0.000
 RMSDP=6.41D-07 MaxDP=2.12D-05 DE=-3.56D-08 OVMax= 5.30D-05

 Cycle   5  Pass 1  IDiag  1:
 E= -973.652788972279     Delta-E=       -0.000000004741 Rises=F Damp=F
 DIIS: error= 3.38D-06 at cycle   5 NSaved=   5.
 NSaved= 5 IEnMin= 5 EnMin= -973.652788972279     IErMin= 5 ErrMin= 3.38D-06
 ErrMax= 3.38D-06  0.00D+00 EMaxC= 1.00D-01 BMatC= 5.38D-09 BMatP= 1.89D-08
 IDIUse=1 WtCom= 1.00D+00 WtEn= 0.00D+00
 Coeff-Com:  0.332D-02-0.543D-01 0.894D-01 0.411D+00 0.551D+00
 Coeff:      0.332D-02-0.543D-01 0.894D-01 0.411D+00 0.551D+00
 Gap=     0.083 Goal=   None    Shift=    0.000
 Gap=     0.063 Goal=   None    Shift=    0.000
 RMSDP=2.86D-07 MaxDP=1.95D-05 DE=-4.74D-09 OVMax= 5.86D-05

 Cycle   6  Pass 1  IDiag  1:
 E= -973.652788973818     Delta-E=       -0.000000001539 Rises=F Damp=F
 DIIS: error= 1.28D-06 at cycle   6 NSaved=   6.
 NSaved= 6 IEnMin= 6 EnMin= -973.652788973818     IErMin= 6 ErrMin= 1.28D-06
 ErrMax= 1.28D-06  0.00D+00 EMaxC= 1.00D-01 BMatC= 1.08D-09 BMatP= 5.38D-09
 IDIUse=1 WtCom= 1.00D+00 WtEn= 0.00D+00
 Coeff-Com:  0.449D-02-0.623D-01-0.244D-01 0.139D-01 0.330D+00 0.738D+00
 Coeff:      0.449D-02-0.623D-01-0.244D-01 0.139D-01 0.330D+00 0.738D+00
 Gap=     0.083 Goal=   None    Shift=    0.000
 Gap=     0.063 Goal=   None    Shift=    0.000
 RMSDP=1.62D-07 MaxDP=5.96D-06 DE=-1.54D-09 OVMax= 2.36D-05

 Cycle   7  Pass 1  IDiag  1:
 E= -973.652788974175     Delta-E=       -0.000000000357 Rises=F Damp=F
 DIIS: error= 4.45D-07 at cycle   7 NSaved=   7.
 NSaved= 7 IEnMin= 7 EnMin= -973.652788974175     IErMin= 7 ErrMin= 4.45D-07
 ErrMax= 4.45D-07  0.00D+00 EMaxC= 1.00D-01 BMatC= 1.71D-10 BMatP= 1.08D-09
 IDIUse=1 WtCom= 1.00D+00 WtEn= 0.00D+00
 Coeff-Com:  0.203D-02-0.274D-01-0.222D-01-0.571D-01 0.141D+00 0.372D+00
 Coeff-Com:  0.592D+00
 Coeff:      0.203D-02-0.274D-01-0.222D-01-0.571D-01 0.141D+00 0.372D+00
 Coeff:      0.592D+00
 Gap=     0.083 Goal=   None    Shift=    0.000
 Gap=     0.063 Goal=   None    Shift=    0.000
 RMSDP=5.22D-08 MaxDP=3.27D-06 DE=-3.57D-10 OVMax= 1.17D-05

 Cycle   8  Pass 1  IDiag  1:
 E= -973.652788974256     Delta-E=       -0.000000000081 Rises=F Damp=F
 DIIS: error= 4.74D-07 at cycle   8 NSaved=   8.
 NSaved= 8 IEnMin= 8 EnMin= -973.652788974256     IErMin= 7 ErrMin= 4.45D-07
 ErrMax= 4.74D-07  0.00D+00 EMaxC= 1.00D-01 BMatC= 7.04D-11 BMatP= 1.71D-10
 IDIUse=1 WtCom= 1.00D+00 WtEn= 0.00D+00
 Coeff-Com: -0.227D-03 0.419D-02-0.102D-02-0.436D-01 0.127D-01-0.533D-01
 Coeff-Com:  0.322D+00 0.759D+00
 Coeff:     -0.227D-03 0.419D-02-0.102D-02-0.436D-01 0.127D-01-0.533D-01
 Coeff:      0.322D+00 0.759D+00
 Gap=     0.083 Goal=   None    Shift=    0.000
 Gap=     0.063 Goal=   None    Shift=    0.000
 RMSDP=4.96D-08 MaxDP=1.88D-06 DE=-8.12D-11 OVMax= 1.17D-05

 Cycle   9  Pass 1  IDiag  1:
 E= -973.652788974282     Delta-E=       -0.000000000025 Rises=F Damp=F
 DIIS: error= 2.07D-07 at cycle   9 NSaved=   9.
 NSaved= 9 IEnMin= 9 EnMin= -973.652788974282     IErMin= 9 ErrMin= 2.07D-07
 ErrMax= 2.07D-07  0.00D+00 EMaxC= 1.00D-01 BMatC= 2.78D-11 BMatP= 7.04D-11
 IDIUse=1 WtCom= 1.00D+00 WtEn= 0.00D+00
 Coeff-Com: -0.696D-03 0.102D-01 0.763D-02-0.166D-01-0.115D-01-0.153D+00
 Coeff-Com:  0.451D-01 0.445D+00 0.674D+00
 Coeff:     -0.696D-03 0.102D-01 0.763D-02-0.166D-01-0.115D-01-0.153D+00
 Coeff:      0.451D-01 0.445D+00 0.674D+00
 Gap=     0.083 Goal=   None    Shift=    0.000
 Gap=     0.063 Goal=   None    Shift=    0.000
 RMSDP=3.02D-08 MaxDP=1.43D-06 DE=-2.55D-11 OVMax= 6.82D-06

 Cycle  10  Pass 1  IDiag  1:
 E= -973.652788974286     Delta-E=       -0.000000000005 Rises=F Damp=F
 DIIS: error= 1.48D-07 at cycle  10 NSaved=  10.
 NSaved=10 IEnMin=10 EnMin= -973.652788974286     IErMin=10 ErrMin= 1.48D-07
 ErrMax= 1.48D-07  0.00D+00 EMaxC= 1.00D-01 BMatC= 9.30D-12 BMatP= 2.78D-11
 IDIUse=1 WtCom= 1.00D+00 WtEn= 0.00D+00
 Coeff-Com: -0.171D-03 0.184D-02 0.491D-02 0.710D-02 0.591D-02-0.549D-01
 Coeff-Com: -0.130D+00-0.222D+00 0.287D+00 0.110D+01
 Coeff:     -0.171D-03 0.184D-02 0.491D-02 0.710D-02 0.591D-02-0.549D-01
 Coeff:     -0.130D+00-0.222D+00 0.287D+00 0.110D+01
 Gap=     0.083 Goal=   None    Shift=    0.000
 Gap=     0.063 Goal=   None    Shift=    0.000
 RMSDP=3.38D-08 MaxDP=1.47D-06 DE=-4.77D-12 OVMax= 7.96D-06

 Cycle  11  Pass 1  IDiag  1:
 E= -973.652788974305     Delta-E=       -0.000000000018 Rises=F Damp=F
 DIIS: error= 4.12D-08 at cycle  11 NSaved=  11.
 NSaved=11 IEnMin=11 EnMin= -973.652788974305     IErMin=11 ErrMin= 4.12D-08
 ErrMax= 4.12D-08  0.00D+00 EMaxC= 1.00D-01 BMatC= 1.23D-12 BMatP= 9.30D-12
 IDIUse=1 WtCom= 1.00D+00 WtEn= 0.00D+00
 Coeff-Com:  0.664D-04-0.146D-02 0.122D-02 0.661D-02 0.883D-02 0.203D-02
 Coeff-Com: -0.808D-01-0.228D+00 0.150D-01 0.620D+00 0.657D+00
 Coeff:      0.664D-04-0.146D-02 0.122D-02 0.661D-02 0.883D-02 0.203D-02
 Coeff:     -0.808D-01-0.228D+00 0.150D-01 0.620D+00 0.657D+00
 Gap=     0.083 Goal=   None    Shift=    0.000
 Gap=     0.063 Goal=   None    Shift=    0.000
 RMSDP=1.06D-08 MaxDP=4.58D-07 DE=-1.84D-11 OVMax= 2.55D-06

 Cycle  12  Pass 1  IDiag  1:
 E= -973.652788974323     Delta-E=       -0.000000000018 Rises=F Damp=F
 DIIS: error= 2.50D-08 at cycle  12 NSaved=  12.
 NSaved=12 IEnMin=12 EnMin= -973.652788974323     IErMin=12 ErrMin= 2.50D-08
 ErrMax= 2.50D-08  0.00D+00 EMaxC= 1.00D-01 BMatC= 2.14D-13 BMatP= 1.23D-12
 IDIUse=1 WtCom= 1.00D+00 WtEn= 0.00D+00
 Coeff-Com:  0.655D-04-0.116D-02-0.101D-03 0.243D-02 0.409D-02 0.101D-01
 Coeff-Com: -0.245D-01-0.924D-01-0.399D-01 0.166D+00 0.387D+00 0.588D+00
 Coeff:      0.655D-04-0.116D-02-0.101D-03 0.243D-02 0.409D-02 0.101D-01
 Coeff:     -0.245D-01-0.924D-01-0.399D-01 0.166D+00 0.387D+00 0.588D+00
 Gap=     0.083 Goal=   None    Shift=    0.000
 Gap=     0.063 Goal=   None    Shift=    0.000
 RMSDP=2.43D-09 MaxDP=9.26D-08 DE=-1.80D-11 OVMax= 4.94D-07

 Error on total polarization charges =  0.01277
 SCF Done:  E(UB3LYP) =  -973.652788974     A.U. after   12 cycles
            NFock= 12  Conv=0.24D-08     -V/T= 2.0049
 <Sx>= 0.0000 <Sy>= 0.0000 <Sz>= 1.0000 <S**2>= 2.0077 S= 1.0026
 <L.S>= 0.000000000000E+00
 KE= 9.688936168252D+02 PE=-4.264403517191D+03 EE= 1.331410814228D+03
 Annihilation of the first spin contaminant:
 S**2 before annihilation     2.0077,   after     2.0000
 Leave Link  502 at Tue Aug 18 13:42:49 2026, MaxMem=  2684354560 cpu:             601.3 elap:             602.2
 (Enter /mnt/data/applications/G16/g16/l701.exe)
 ... and contract with generalized density number  0.
 Compute integral first derivatives.
 R6Disp: Adding Grimme-D3(BJ) dispersion energy 1st derivatives to the gradient.
   1 Symmetry operations used in ECPInt.
 ECPInt:  NShTT=    6786 NPrTT=   65756 LenC2=    6456 LenP2D=   34284.
 LDataN:  DoStor=T MaxTD1= 5 Len=  102
 D1PCM: PCM CHGder 1st derivatives, ID1Alg=3 FixD1E=F DoIter=F DoCFld=F I1PDM=0.
 GePol: Maximum number of non-zero 1st derivatives   =     242
 Leave Link  701 at Tue Aug 18 13:43:02 2026, MaxMem=  2684354560 cpu:              13.3 elap:              13.3
 (Enter /mnt/data/applications/G16/g16/l702.exe)
 L702 exits ... SP integral derivatives will be done elsewhere.
 Leave Link  702 at Tue Aug 18 13:43:02 2026, MaxMem=  2684354560 cpu:               0.0 elap:               0.0
 (Enter /mnt/data/applications/G16/g16/l703.exe)
 Integral derivatives from FoFJK, PRISM(SPDF).
 Compute integral first derivatives, UseDBF=F ICtDFT=           0.
 Calling FoFJK, ICntrl=      2127 FMM=F ISym2X=0 I1Cent= 0 IOpClX= 1 NMat=1 NMatS=1 NMatT=0.
 FoFJK:  IHMeth= 1 ICntrl=    2127 DoSepK=F KAlg= 0 I1Cent=           0 FoldK=F
 IRaf=         0 NMat=       1 IRICut=       1 DoRegI=T DoRafI=F ISym2E= 0 IDoP0=0 IntGTp=1.
 FoFCou: FMM=F IPFlag=           0 FMFlag=      100000 FMFlg1=         800
         NFxFlg=           0 DoJE=F BraDBF=F KetDBF=F FulRan=T
         wScrn=  0.000000 ICntrl=      2127 IOpCl=  1 I1Cent=           0 NGrid=           0
         NMat0=    1 NMatS0=      1 NMatT0=    0 NMatD0=    1 NMtDS0=    0 NMtDT0=    0
 Symmetry not used in FoFCou.
 Leave Link  703 at Tue Aug 18 13:45:24 2026, MaxMem=  2684354560 cpu:             142.1 elap:             142.3
 (Enter /mnt/data/applications/G16/g16/l716.exe)
 Dipole        = 1.26810734D+00-2.15662159D+00 3.13620661D-02
 -------------------------------------------------------------------
 Center     Atomic                   Forces (Hartrees/Bohr)
 Number     Number              X              Y              Z
 -------------------------------------------------------------------
      1        6           0.000056415   -0.000058640    0.000000738
      2        6          -0.000048259   -0.000046436    0.000000710
      3        6           0.000056479    0.000095683   -0.000001085
      4        6           0.000113611   -0.000084005   -0.000009372
      5        6          -0.000116283   -0.000018626   -0.000001385
      6        6          -0.000018251    0.000084271   -0.000001790
      7        6           0.000024212   -0.000037662    0.000039047
      8        6           0.000018614   -0.000140757   -0.000009056
      9        6          -0.000112993   -0.000005420   -0.000001238
     10        6           0.000065399    0.000013859    0.000001696
     11        1           0.000010181    0.000007775    0.000002275
     12        6           0.000027040   -0.000082910    0.000001432
     13        6          -0.000060079    0.000050875   -0.000001163
     14        6           0.000076578    0.000089852   -0.000000481
     15        1          -0.000006594    0.000006137    0.000000066
     16        1          -0.000019527   -0.000003595    0.000001705
     17        1           0.000044468    0.000017090   -0.000000444
     18        1          -0.000002448   -0.000025545   -0.000000872
     19        1           0.000000114    0.000000765    0.000001064
     20        1           0.000029265   -0.000015969    0.000000192
     21        1          -0.000031286   -0.000033101   -0.000000358
     22       16          -0.000042947    0.000072476   -0.000001410
     23        8          -0.000063712    0.000113883   -0.000020271
 -------------------------------------------------------------------
 Cartesian Forces:  Max     0.000140757 RMS     0.000048886
 Leave Link  716 at Tue Aug 18 13:45:24 2026, MaxMem=  2684354560 cpu:               0.0 elap:               0.0
 (Enter /mnt/data/applications/G16/g16/l103.exe)

 GradGradGradGradGradGradGradGradGradGradGradGradGradGradGradGradGradGrad
 Berny optimization.
 Using GEDIIS/GDIIS optimizer.
 FormGI is forming the generalized inverse of G from B-inverse, IUseBI=4.
 Internal  Forces:  Max     0.000130703 RMS     0.000024891
 Search for a local minimum.
 Step number   6 out of a maximum of  135
 All quantities printed in internal units (Hartrees-Bohrs-Radians)
 RMS Force = .24891D-04 SwitMx=.10000D-02 MixMth= 2
 Mixed Optimization -- En-DIIS/RFO-DIIS
 Swapping is turned off.
 Update second derivatives using D2CorX and points    1    2    3    4    5
                                                      6
 DE= -6.37D-07 DEPred=-8.95D-07 R= 7.12D-01
 Trust test= 7.12D-01 RLast= 5.25D-03 DXMaxT set to 4.48D-01
 ITU=  0  1  1  1  1  0
     Eigenvalues ---    0.00942   0.01397   0.01549   0.01681   0.01696
     Eigenvalues ---    0.01811   0.01828   0.02039   0.02052   0.02063
     Eigenvalues ---    0.02063   0.02107   0.02108   0.02127   0.02127
     Eigenvalues ---    0.02143   0.02144   0.02183   0.02185   0.02551
     Eigenvalues ---    0.13098   0.15926   0.16000   0.16000   0.16000
     Eigenvalues ---    0.16000   0.16007   0.16083   0.17284   0.19953
     Eigenvalues ---    0.22000   0.22597   0.22602   0.23023   0.24470
     Eigenvalues ---    0.25000   0.25000   0.25028   0.29034   0.29216
     Eigenvalues ---    0.32048   0.33797   0.34589   0.34603   0.34606
     Eigenvalues ---    0.34627   0.34669   0.34672   0.34812   0.34824
     Eigenvalues ---    0.38660   0.40068   0.41145   0.41157   0.42832
     Eigenvalues ---    0.43510   0.44342   0.45520   0.45737   0.46435
     Eigenvalues ---    0.47395   0.48670   0.64391
 En-DIIS/RFO-DIIS/Sim-DIIS IScMMF=       -3 using points:     6    5    4    3
 RFO step:  Lambda=-2.75900361D-07.
 NNeg= 0 NGDIIS= 4 SimSw=  2.50D-01 Rises=F DC= -6.37D-07 SmlDif=  1.00D-05
 NRisDI= 0 DoIntr=F SqrtH=F CThrHd= 10.0 CDAdj=  3.0
 RMS Error=  0.1399483484D-03 NUsed= 4 OKEnD=F EnDIS=F
 InvSVX:  RCond= 1.76D-06 Info=           0 Equed=N FErr=  4.52D-15 BErr=  8.09D-17
 DidBck=F Rises=F RFO-DIIS coefs:    1.01991    0.09792   -0.16868    0.05085
 Iteration  1 RMS(Cart)=  0.00013639 RMS(Int)=  0.00000011
 Iteration  2 RMS(Cart)=  0.00000002 RMS(Int)=  0.00000011
 ITry= 1 IFail=0 DXMaxC= 5.18D-04 DCOld= 1.00D+10 DXMaxT= 4.48D-01 DXLimC= 3.00D+00 Rises=F
 Variable       Old X    -DE/DX   Delta X   Delta X   Delta X     New X
                                 (Linear)    (Quad)   (Total)
    R1        2.63249  -0.00003  -0.00008  -0.00002  -0.00010   2.63239
    R2        2.66084   0.00006   0.00005   0.00008   0.00013   2.66098
    R3        2.05961  -0.00000   0.00001  -0.00001   0.00001   2.05961
    R4        2.65520   0.00007   0.00009   0.00007   0.00016   2.65536
    R5        2.06317  -0.00000  -0.00001  -0.00000  -0.00001   2.06315
    R6        2.71000  -0.00006  -0.00017  -0.00003  -0.00019   2.70981
    R7        3.30658  -0.00006   0.00001  -0.00018  -0.00017   3.30641
    R8        2.67205   0.00007  -0.00006   0.00023   0.00017   2.67222
    R9        2.74357   0.00003   0.00005   0.00006   0.00010   2.74367
   R10        2.63131  -0.00000   0.00000  -0.00004  -0.00004   2.63127
   R11        2.05781  -0.00001  -0.00001  -0.00001  -0.00002   2.05779
   R12        2.06413  -0.00000  -0.00001   0.00001  -0.00000   2.06413
   R13        2.74351   0.00003   0.00005   0.00005   0.00010   2.74361
   R14        2.43767   0.00013  -0.00007   0.00027   0.00020   2.43787
   R15        2.71015  -0.00006  -0.00017  -0.00003  -0.00020   2.70996
   R16        2.67207   0.00007  -0.00006   0.00023   0.00017   2.67223
   R17        2.65513   0.00007   0.00009   0.00007   0.00016   2.65529
   R18        3.30650  -0.00006   0.00001  -0.00018  -0.00017   3.30633
   R19        2.06329  -0.00000  -0.00001  -0.00000  -0.00001   2.06328
   R20        2.63256  -0.00003  -0.00008  -0.00001  -0.00009   2.63246
   R21        2.66087   0.00006   0.00005   0.00008   0.00013   2.66100
   R22        2.05961  -0.00000   0.00001  -0.00001   0.00001   2.05961
   R23        2.63129  -0.00000   0.00000  -0.00004  -0.00004   2.63125
   R24        2.06414  -0.00000  -0.00001   0.00001  -0.00000   2.06413
   R25        2.05771  -0.00001  -0.00001  -0.00002  -0.00002   2.05768
    A1        2.07339   0.00000   0.00009  -0.00001   0.00008   2.07347
    A2        2.10027   0.00000  -0.00007   0.00006  -0.00001   2.10026
    A3        2.10952  -0.00001  -0.00001  -0.00006  -0.00007   2.10945
    A4        2.09358   0.00000  -0.00001   0.00001   0.00000   2.09358
    A5        2.10452  -0.00002  -0.00010  -0.00003  -0.00013   2.10439
    A6        2.08508   0.00002   0.00012   0.00001   0.00013   2.08521
    A7        2.13510   0.00000  -0.00011   0.00005  -0.00007   2.13503
    A8        2.01856   0.00000   0.00001   0.00002   0.00003   2.01859
    A9        2.12952  -0.00000   0.00010  -0.00006   0.00004   2.12956
   A10        2.02262   0.00001   0.00018  -0.00008   0.00010   2.02272
   A11        2.17074   0.00001  -0.00001  -0.00000  -0.00001   2.17073
   A12        2.08982  -0.00002  -0.00017   0.00008  -0.00009   2.08974
   A13        2.12333  -0.00000  -0.00005   0.00003  -0.00002   2.12331
   A14        2.04508  -0.00004  -0.00007  -0.00023  -0.00030   2.04478
   A15        2.11477   0.00005   0.00012   0.00020   0.00032   2.11510
   A16        2.11835  -0.00001  -0.00009  -0.00000  -0.00009   2.11826
   A17        2.08506  -0.00003  -0.00002  -0.00015  -0.00016   2.08490
   A18        2.07977   0.00004   0.00011   0.00015   0.00025   2.08003
   A19        2.12067  -0.00004  -0.00006  -0.00002  -0.00008   2.12060
   A20        2.08109   0.00002   0.00003   0.00001   0.00004   2.08114
   A21        2.08142   0.00002   0.00003   0.00001   0.00004   2.08145
   A22        2.17066   0.00001  -0.00001   0.00000  -0.00001   2.17066
   A23        2.09008  -0.00002  -0.00017   0.00008  -0.00009   2.09000
   A24        2.02244   0.00000   0.00018  -0.00008   0.00009   2.02253
   A25        2.13524   0.00000  -0.00011   0.00005  -0.00006   2.13518
   A26        2.12957  -0.00000   0.00010  -0.00007   0.00004   2.12961
   A27        2.01837  -0.00000   0.00001   0.00002   0.00002   2.01840
   A28        2.08515   0.00002   0.00011   0.00001   0.00012   2.08527
   A29        2.09354   0.00000  -0.00001   0.00001  -0.00000   2.09354
   A30        2.10449  -0.00002  -0.00010  -0.00002  -0.00012   2.10437
   A31        2.07333   0.00000   0.00009  -0.00001   0.00008   2.07341
   A32        2.10029   0.00000  -0.00007   0.00007  -0.00001   2.10028
   A33        2.10957  -0.00001  -0.00001  -0.00006  -0.00007   2.10950
   A34        2.11841  -0.00001  -0.00009  -0.00000  -0.00009   2.11832
   A35        2.08516  -0.00003  -0.00002  -0.00015  -0.00016   2.08500
   A36        2.07962   0.00003   0.00011   0.00015   0.00025   2.07987
   A37        2.12341  -0.00000  -0.00005   0.00003  -0.00002   2.12339
   A38        2.04540  -0.00005  -0.00006  -0.00024  -0.00031   2.04510
   A39        2.11438   0.00005   0.00012   0.00021   0.00033   2.11470
   A40        1.84520   0.00002  -0.00013   0.00015   0.00002   1.84522
    D1       -0.00001  -0.00000  -0.00000   0.00000  -0.00000  -0.00001
    D2        3.14159   0.00000   0.00000   0.00000   0.00000   3.14159
    D3       -3.14158  -0.00000  -0.00000   0.00000  -0.00000  -3.14159
    D4        0.00002   0.00000   0.00000   0.00000   0.00000   0.00002
    D5        0.00006  -0.00000  -0.00000   0.00000  -0.00000   0.00006
    D6       -3.14152   0.00000   0.00000  -0.00000   0.00000  -3.14152
    D7       -3.14155  -0.00000  -0.00000   0.00000  -0.00000  -3.14155
    D8        0.00005   0.00000   0.00000  -0.00000   0.00000   0.00005
    D9       -0.00005   0.00000   0.00001  -0.00000   0.00001  -0.00004
   D10        3.14146   0.00000   0.00002  -0.00000   0.00002   3.14148
   D11        3.14154   0.00000   0.00000  -0.00000   0.00000   3.14154
   D12       -0.00014   0.00000   0.00002  -0.00000   0.00002  -0.00012
   D13        0.00006  -0.00000  -0.00001  -0.00000  -0.00001   0.00005
   D14        3.14159  -0.00000  -0.00002   0.00000  -0.00002   3.14157
   D15       -3.14145  -0.00000  -0.00002   0.00000  -0.00002  -3.14147
   D16        0.00008  -0.00000  -0.00004   0.00001  -0.00003   0.00005
   D17       -3.14142  -0.00000  -0.00008  -0.00001  -0.00009  -3.14151
   D18        0.00009  -0.00000  -0.00006  -0.00002  -0.00008   0.00002
   D19       -0.00000   0.00000   0.00000   0.00000   0.00000  -0.00000
   D20        3.14155  -0.00000  -0.00001   0.00000  -0.00001   3.14155
   D21       -3.14154   0.00000   0.00001  -0.00000   0.00001  -3.14153
   D22        0.00002  -0.00000   0.00000  -0.00000   0.00000   0.00002
   D23       -0.00047   0.00000   0.00015   0.00001   0.00016  -0.00032
   D24       -3.14154  -0.00001  -0.00031  -0.00001  -0.00031   3.14134
   D25        3.14106   0.00000   0.00014   0.00001   0.00015   3.14121
   D26       -0.00000  -0.00001  -0.00032  -0.00000  -0.00032  -0.00033
   D27       -0.00006   0.00000   0.00000  -0.00000   0.00000  -0.00006
   D28        3.14153  -0.00000  -0.00000  -0.00000  -0.00000   3.14153
   D29        3.14157   0.00000   0.00001  -0.00000   0.00001   3.14159
   D30       -0.00002   0.00000   0.00001   0.00000   0.00001  -0.00002
   D31        0.00068  -0.00000  -0.00015  -0.00000  -0.00016   0.00053
   D32       -3.14097  -0.00000  -0.00014  -0.00001  -0.00015  -3.14112
   D33       -3.14144   0.00001   0.00030   0.00001   0.00031  -3.14113
   D34        0.00009   0.00001   0.00032  -0.00000   0.00032   0.00041
   D35        3.14121   0.00000   0.00002  -0.00001   0.00002   3.14123
   D36       -0.00048   0.00000   0.00004  -0.00001   0.00003  -0.00045
   D37       -0.00032   0.00000   0.00001   0.00000   0.00001  -0.00031
   D38        3.14117   0.00000   0.00003   0.00000   0.00003   3.14120
   D39       -3.14127  -0.00000  -0.00002   0.00001  -0.00001  -3.14128
   D40        0.00033  -0.00000  -0.00001   0.00001  -0.00000   0.00033
   D41        0.00026  -0.00000  -0.00000  -0.00000  -0.00001   0.00025
   D42       -3.14133   0.00000   0.00001  -0.00000   0.00000  -3.14132
   D43       -3.14146  -0.00000  -0.00000   0.00000  -0.00000  -3.14146
   D44        0.00016  -0.00000  -0.00001  -0.00000  -0.00001   0.00015
   D45        0.00023  -0.00000  -0.00002   0.00000  -0.00002   0.00022
   D46       -3.14134  -0.00000  -0.00002   0.00000  -0.00002  -3.14136
   D47        0.00010   0.00000   0.00006   0.00002   0.00008   0.00017
   D48        3.14159   0.00000   0.00008   0.00001   0.00009  -3.14150
   D49        0.00008   0.00000   0.00000   0.00000   0.00000   0.00008
   D50       -3.14155   0.00000   0.00000   0.00000   0.00000  -3.14155
   D51       -3.14149  -0.00000  -0.00000  -0.00000  -0.00001  -3.14150
   D52        0.00006  -0.00000  -0.00000  -0.00000  -0.00000   0.00006
   D53       -0.00013   0.00000   0.00000  -0.00000   0.00000  -0.00013
   D54        3.14146  -0.00000  -0.00000   0.00000  -0.00000   3.14145
   D55        3.14149   0.00000   0.00000  -0.00000   0.00000   3.14150
   D56       -0.00010  -0.00000  -0.00000  -0.00000  -0.00000  -0.00011
   D57       -0.00004  -0.00000  -0.00000   0.00000  -0.00000  -0.00004
   D58        3.14154  -0.00000  -0.00001  -0.00000  -0.00001   3.14153
   D59        3.14155   0.00000   0.00000   0.00000   0.00000   3.14156
   D60       -0.00005  -0.00000  -0.00000  -0.00000  -0.00001  -0.00005
         Item               Value     Threshold  Converged?
 Maximum Force            0.000131     0.000450     YES
 RMS     Force            0.000025     0.000300     YES
 Maximum Displacement     0.000518     0.001800     YES
 RMS     Displacement     0.000136     0.001200     YES
 Predicted change in Energy=-1.344314D-07
 Optimization completed.
    -- Stationary point found.
                           ----------------------------
                           !   Optimized Parameters   !
                           ! (Angstroms and Degrees)  !
 --------------------------                            --------------------------
 ! Name  Definition              Value          Derivative Info.                !
 --------------------------------------------------------------------------------
 ! R1    R(1,2)                  1.3931         -DE/DX =    0.0                 !
 ! R2    R(1,6)                  1.4081         -DE/DX =    0.0001              !
 ! R3    R(1,15)                 1.0899         -DE/DX =    0.0                 !
 ! R4    R(2,3)                  1.4051         -DE/DX =    0.0001              !
 ! R5    R(2,16)                 1.0918         -DE/DX =    0.0                 !
 ! R6    R(3,4)                  1.4341         -DE/DX =   -0.0001              !
 ! R7    R(3,22)                 1.7498         -DE/DX =   -0.0001              !
 ! R8    R(4,5)                  1.414          -DE/DX =    0.0001              !
 ! R9    R(4,7)                  1.4518         -DE/DX =    0.0                 !
 ! R10   R(5,6)                  1.3924         -DE/DX =    0.0                 !
 ! R11   R(5,17)                 1.0889         -DE/DX =    0.0                 !
 ! R12   R(6,18)                 1.0923         -DE/DX =    0.0                 !
 ! R13   R(7,8)                  1.4518         -DE/DX =    0.0                 !
 ! R14   R(7,23)                 1.29           -DE/DX =    0.0001              !
 ! R15   R(8,9)                  1.4342         -DE/DX =   -0.0001              !
 ! R16   R(8,14)                 1.414          -DE/DX =    0.0001              !
 ! R17   R(9,10)                 1.405          -DE/DX =    0.0001              !
 ! R18   R(9,22)                 1.7497         -DE/DX =   -0.0001              !
 ! R19   R(10,11)                1.0918         -DE/DX =    0.0                 !
 ! R20   R(10,12)                1.3931         -DE/DX =    0.0                 !
 ! R21   R(12,13)                1.4081         -DE/DX =    0.0001              !
 ! R22   R(12,19)                1.0899         -DE/DX =    0.0                 !
 ! R23   R(13,14)                1.3924         -DE/DX =    0.0                 !
 ! R24   R(13,20)                1.0923         -DE/DX =    0.0                 !
 ! R25   R(14,21)                1.0889         -DE/DX =    0.0                 !
 ! A1    A(2,1,6)              118.7967         -DE/DX =    0.0                 !
 ! A2    A(2,1,15)             120.3369         -DE/DX =    0.0                 !
 ! A3    A(6,1,15)             120.8665         -DE/DX =    0.0                 !
 ! A4    A(1,2,3)              119.9532         -DE/DX =    0.0                 !
 ! A5    A(1,2,16)             120.5803         -DE/DX =    0.0                 !
 ! A6    A(3,2,16)             119.4665         -DE/DX =    0.0                 !
 ! A7    A(2,3,4)              122.3321         -DE/DX =    0.0                 !
 ! A8    A(2,3,22)             115.6551         -DE/DX =    0.0                 !
 ! A9    A(4,3,22)             122.0128         -DE/DX =    0.0                 !
 ! A10   A(3,4,5)              115.8875         -DE/DX =    0.0                 !
 ! A11   A(3,4,7)              124.3745         -DE/DX =    0.0                 !
 ! A12   A(5,4,7)              119.738          -DE/DX =    0.0                 !
 ! A13   A(4,5,6)              121.6579         -DE/DX =    0.0                 !
 ! A14   A(4,5,17)             117.1745         -DE/DX =    0.0                 !
 ! A15   A(6,5,17)             121.1677         -DE/DX =    0.0                 !
 ! A16   A(1,6,5)              121.3727         -DE/DX =    0.0                 !
 ! A17   A(1,6,18)             119.465          -DE/DX =    0.0                 !
 ! A18   A(5,6,18)             119.1623         -DE/DX =    0.0                 !
 ! A19   A(4,7,8)              121.5057         -DE/DX =    0.0                 !
 ! A20   A(4,7,23)             119.238          -DE/DX =    0.0                 !
 ! A21   A(8,7,23)             119.2564         -DE/DX =    0.0                 !
 ! A22   A(7,8,9)              124.3699         -DE/DX =    0.0                 !
 ! A23   A(7,8,14)             119.753          -DE/DX =    0.0                 !
 ! A24   A(9,8,14)             115.8771         -DE/DX =    0.0                 !
 ! A25   A(8,9,10)             122.3405         -DE/DX =    0.0                 !
 ! A26   A(8,9,22)             122.0153         -DE/DX =    0.0                 !
 ! A27   A(10,9,22)            115.6443         -DE/DX =    0.0                 !
 ! A28   A(9,10,11)            119.4701         -DE/DX =    0.0                 !
 ! A29   A(9,10,12)            119.9513         -DE/DX =    0.0                 !
 ! A30   A(11,10,12)           120.5786         -DE/DX =    0.0                 !
 ! A31   A(10,12,13)           118.7931         -DE/DX =    0.0                 !
 ! A32   A(10,12,19)           120.3376         -DE/DX =    0.0                 !
 ! A33   A(13,12,19)           120.8693         -DE/DX =    0.0                 !
 ! A34   A(12,13,14)           121.3757         -DE/DX =    0.0                 !
 ! A35   A(12,13,20)           119.4711         -DE/DX =    0.0                 !
 ! A36   A(14,13,20)           119.1532         -DE/DX =    0.0                 !
 ! A37   A(8,14,13)            121.6623         -DE/DX =    0.0                 !
 ! A38   A(8,14,21)            117.1929         -DE/DX =    0.0                 !
 ! A39   A(13,14,21)           121.1448         -DE/DX =    0.0                 !
 ! A40   A(3,22,9)             105.7219         -DE/DX =    0.0                 !
 ! D1    D(6,1,2,3)             -0.0007         -DE/DX =    0.0                 !
 ! D2    D(6,1,2,16)           179.9998         -DE/DX =    0.0                 !
 ! D3    D(15,1,2,3)          -179.9995         -DE/DX =    0.0                 !
 ! D4    D(15,1,2,16)            0.001          -DE/DX =    0.0                 !
 ! D5    D(2,1,6,5)              0.0036         -DE/DX =    0.0                 !
 ! D6    D(2,1,6,18)          -179.9961         -DE/DX =    0.0                 !
 ! D7    D(15,1,6,5)          -179.9975         -DE/DX =    0.0                 !
 ! D8    D(15,1,6,18)            0.0028         -DE/DX =    0.0                 !
 ! D9    D(1,2,3,4)             -0.0028         -DE/DX =    0.0                 !
 ! D10   D(1,2,3,22)           179.9925         -DE/DX =    0.0                 !
 ! D11   D(16,2,3,4)           179.9967         -DE/DX =    0.0                 !
 ! D12   D(16,2,3,22)           -0.008          -DE/DX =    0.0                 !
 ! D13   D(2,3,4,5)              0.0032         -DE/DX =    0.0                 !
 ! D14   D(2,3,4,7)            179.9998         -DE/DX =    0.0                 !
 ! D15   D(22,3,4,5)          -179.9919         -DE/DX =    0.0                 !
 ! D16   D(22,3,4,7)             0.0048         -DE/DX =    0.0                 !
 ! D17   D(2,3,22,9)          -179.99           -DE/DX =    0.0                 !
 ! D18   D(4,3,22,9)             0.0053         -DE/DX =    0.0                 !
 ! D19   D(3,4,5,6)             -0.0002         -DE/DX =    0.0                 !
 ! D20   D(3,4,5,17)           179.9977         -DE/DX =    0.0                 !
 ! D21   D(7,4,5,6)           -179.997          -DE/DX =    0.0                 !
 ! D22   D(7,4,5,17)             0.0009         -DE/DX =    0.0                 !
 ! D23   D(3,4,7,8)             -0.027          -DE/DX =    0.0                 !
 ! D24   D(3,4,7,23)           180.0033         -DE/DX =    0.0                 !
 ! D25   D(5,4,7,8)            179.9695         -DE/DX =    0.0                 !
 ! D26   D(5,4,7,23)            -0.0002         -DE/DX =    0.0                 !
 ! D27   D(4,5,6,1)             -0.0032         -DE/DX =    0.0                 !
 ! D28   D(4,5,6,18)           179.9965         -DE/DX =    0.0                 !
 ! D29   D(17,5,6,1)           179.999          -DE/DX =    0.0                 !
 ! D30   D(17,5,6,18)           -0.0013         -DE/DX =    0.0                 !
 ! D31   D(4,7,8,9)              0.0392         -DE/DX =    0.0                 !
 ! D32   D(4,7,8,14)          -179.9645         -DE/DX =    0.0                 !
 ! D33   D(23,7,8,9)          -179.9911         -DE/DX =    0.0                 !
 ! D34   D(23,7,8,14)            0.0052         -DE/DX =    0.0                 !
 ! D35   D(7,8,9,10)           179.9782         -DE/DX =    0.0                 !
 ! D36   D(7,8,9,22)            -0.0278         -DE/DX =    0.0                 !
 ! D37   D(14,8,9,10)           -0.0182         -DE/DX =    0.0                 !
 ! D38   D(14,8,9,22)          179.9759         -DE/DX =    0.0                 !
 ! D39   D(7,8,14,13)         -179.9817         -DE/DX =    0.0                 !
 ! D40   D(7,8,14,21)            0.0187         -DE/DX =    0.0                 !
 ! D41   D(9,8,14,13)            0.0148         -DE/DX =    0.0                 !
 ! D42   D(9,8,14,21)         -179.9847         -DE/DX =    0.0                 !
 ! D43   D(8,9,10,11)         -179.9923         -DE/DX =    0.0                 !
 ! D44   D(8,9,10,12)            0.0089         -DE/DX =    0.0                 !
 ! D45   D(22,9,10,11)           0.0133         -DE/DX =    0.0                 !
 ! D46   D(22,9,10,12)        -179.9855         -DE/DX =    0.0                 !
 ! D47   D(8,9,22,3)             0.0054         -DE/DX =    0.0                 !
 ! D48   D(10,9,22,3)         -180.0001         -DE/DX =    0.0                 !
 ! D49   D(9,10,12,13)           0.0044         -DE/DX =    0.0                 !
 ! D50   D(9,10,12,19)        -179.9976         -DE/DX =    0.0                 !
 ! D51   D(11,10,12,13)       -179.9943         -DE/DX =    0.0                 !
 ! D52   D(11,10,12,19)          0.0036         -DE/DX =    0.0                 !
 ! D53   D(10,12,13,14)         -0.0077         -DE/DX =    0.0                 !
 ! D54   D(10,12,13,20)        179.9921         -DE/DX =    0.0                 !
 ! D55   D(19,12,13,14)        179.9943         -DE/DX =    0.0                 !
 ! D56   D(19,12,13,20)         -0.0058         -DE/DX =    0.0                 !
 ! D57   D(12,13,14,8)          -0.0024         -DE/DX =    0.0                 !
 ! D58   D(12,13,14,21)        179.9971         -DE/DX =    0.0                 !
 ! D59   D(20,13,14,8)         179.9977         -DE/DX =    0.0                 !
 ! D60   D(20,13,14,21)         -0.0028         -DE/DX =    0.0                 !
 --------------------------------------------------------------------------------
 Lowest energy point so far.  Saving SCF results.
 Largest change from initial coordinates is atom   23       0.057 Angstoms.
 GradGradGradGradGradGradGradGradGradGradGradGradGradGradGradGradGradGrad

 Leave Link  103 at Tue Aug 18 13:45:25 2026, MaxMem=  2684354560 cpu:               0.0 elap:               0.0
 (Enter /mnt/data/applications/G16/g16/l202.exe)
                          Input orientation:                          
 ---------------------------------------------------------------------
 Center     Atomic      Atomic             Coordinates (Angstroms)
 Number     Number       Type             X           Y           Z
 ---------------------------------------------------------------------
      1          6           0       -9.142056   -0.412361    0.008517
      2          6           0       -7.750261   -0.470429    0.020042
      3          6           0       -6.998514    0.716612    0.014503
      4          6           0       -7.611836    2.012796   -0.002902
      5          6           0       -9.025711    2.026663   -0.014163
      6          6           0       -9.768178    0.848712   -0.008577
      7          6           0       -6.879274    3.266244   -0.009232
      8          6           0       -5.427838    3.296797    0.002554
      9          6           0       -4.593596    2.130385    0.020259
     10          6           0       -3.190839    2.209674    0.030739
     11          1           0       -2.600982    1.290969    0.044019
     12          6           0       -2.564476    3.453990    0.024176
     13          6           0       -3.361720    4.614498    0.007105
     14          6           0       -4.752044    4.538833   -0.003375
     15          1           0       -9.731330   -1.329210    0.012734
     16          1           0       -7.234577   -1.432654    0.033386
     17          1           0       -9.513422    3.000198   -0.027410
     18          1           0      -10.858876    0.906971   -0.017667
     19          1           0       -1.476784    3.522831    0.032195
     20          1           0       -2.882180    5.595886    0.001945
     21          1           0       -5.364947    5.438757   -0.016523
     22         16           0       -5.260722    0.512864    0.030366
     23          8           0       -7.533138    4.378094   -0.025110
 ---------------------------------------------------------------------
                    Distance matrix (angstroms):
                    1          2          3          4          5
     1  C    0.000000
     2  C    1.393053   0.000000
     3  C    2.422681   1.405070   0.000000
     4  C    2.867593   2.487186   1.434071   0.000000
     5  C    2.441902   2.804178   2.413832   1.413988   0.000000
     6  C    1.408057   2.411004   2.772908   2.450497   1.392428
     7  C    4.318869   3.836952   2.552529   1.451833   2.478665
     8  C    5.249124   4.425602   3.020683   2.533483   3.815523
     9  C    5.210967   4.090082   2.789699   3.020619   4.433463
    10  C    6.503272   5.288799   4.089974   4.425506   5.837915
    11  H    6.759308   5.442258   4.434980   5.062795   6.466976
    12  C    7.629775   6.503342   5.210953   5.249154   6.617122
    13  C    7.660391   6.716840   5.331026   4.983216   6.227210
    14  C    6.617150   5.838028   4.433546   3.815662   4.957353
    15  H    1.089896   2.159211   3.413747   3.957461   3.429359
    16  H    2.163352   1.091780   2.162273   3.466232   3.895805
    17  H    3.432894   3.893102   3.397247   2.142800   1.088948
    18  H    2.165362   3.400315   3.865186   3.430209   2.148072
    19  H    8.616419   7.436584   6.193922   6.318251   7.695906
    20  H    8.676699   7.778092   6.383704   5.933650   7.105110
    21  H    6.964392   6.372562   4.996815   4.097061   5.004357
    22  S    3.990147   2.676710   1.749768   2.789021   4.058167
    23  O    5.053534   4.853592   3.700519   2.366711   2.785161
                    6          7          8          9         10
     6  C    0.000000
     7  C    3.766992   0.000000
     8  C    4.983151   1.451805   0.000000
     9  C    5.331024   2.552522   1.434152   0.000000
    10  C    6.716781   3.836990   2.487327   1.405035   0.000000
    11  H    7.181020   4.712571   3.466436   2.162335   1.091845
    12  C    7.660409   4.319010   2.867755   2.422658   1.393089
    13  C    7.431291   3.767126   2.450551   2.772816   2.411003
    14  C    6.227248   2.478836   1.413997   2.413771   2.804195
    15  H    2.178338   5.408595   6.318234   6.193962   7.436534
    16  H    3.409622   4.712504   5.062901   4.435110   5.442277
    17  H    2.166599   2.647611   4.096445   4.996352   6.372077
    18  H    1.092290   4.626388   5.933620   6.383722   7.778057
    19  H    8.712048   5.408738   3.957625   3.413731   2.159251
    20  H    8.363775   4.626458   3.430187   3.865097   3.400372
    21  H    6.360583   2.648217   2.142968   3.397302   3.893065
    22  S    4.520118   3.194116   2.789083   1.749724   2.676486
    23  O    4.177584   1.289962   2.366908   3.700697   4.853939
                   11         12         13         14         15
    11  H    0.000000
    12  C    2.163420   0.000000
    13  C    3.409681   1.408072   0.000000
    14  C    3.895887   2.441946   1.392421   0.000000
    15  H    7.596590   8.616434   8.712039   7.695939   0.000000
    16  H    5.374797   6.759380   7.181069   6.467069   2.498980
    17  H    7.120982   6.963938   6.360078   5.003868   4.335075
    18  H    8.267047   8.676758   8.363833   7.105211   2.504553
    19  H    2.499033   1.089897   2.178382   3.429410   9.574977
    20  H    4.314296   2.165444   1.092295   2.147971   9.740016
    21  H    4.984708   3.432724   2.166306   1.088892   8.054286
    22  S    2.771254   3.989988   4.519972   4.058118   4.835275
    23  O    5.819044   5.054107   4.178236   2.785820   6.116109
                   16         17         18         19         20
    16  H    0.000000
    17  H    4.984677   0.000000
    18  H    4.314162   2.488361   0.000000
    19  H    7.596644   8.053834   9.740064   0.000000
    20  H    8.267086   7.121223   9.252782   2.504718   0.000000
    21  H    7.121397   4.812123   7.121821   4.334854   2.487803
    22  S    2.771489   4.927030   5.612215   4.835089   5.612074
    23  O    5.818707   2.412493   4.807211   6.116713   4.807823
                   21         22         23
    21  H    0.000000
    22  S    4.927219   0.000000
    23  O    2.413738   4.484078   0.000000
 Symmetry turned off by external request.
 Stoichiometry    C13H8OS(3)
 Framework group  C1[X(C13H8OS)]
 Deg. of freedom    63
 Full point group                 C1      NOp   1
 Rotational constants (GHZ):           1.2153855           0.4223181           0.3134141
 Leave Link  202 at Tue Aug 18 13:45:25 2026, MaxMem=  2684354560 cpu:               0.0 elap:               0.0
 (Enter /mnt/data/applications/G16/g16/l601.exe)
 Copying SCF densities to generalized density rwf, IOpCl= 1 IROHF=0.

 **********************************************************************

            Population analysis using the SCF density.

 **********************************************************************

 Alpha  occ. eigenvalues --  -88.95599 -19.11219 -10.25003 -10.25002 -10.23435
 Alpha  occ. eigenvalues --  -10.22085 -10.22083 -10.21658 -10.21657 -10.21315
 Alpha  occ. eigenvalues --  -10.21315 -10.20153 -10.20153 -10.19723 -10.19723
 Alpha  occ. eigenvalues --   -8.01743  -5.97959  -5.97823  -5.97527  -1.00265
 Alpha  occ. eigenvalues --   -0.90706  -0.87605  -0.83259  -0.78635  -0.77384
 Alpha  occ. eigenvalues --   -0.76532  -0.72807  -0.66535  -0.63761  -0.61204
 Alpha  occ. eigenvalues --   -0.60258  -0.56162  -0.54563  -0.49935  -0.47890
 Alpha  occ. eigenvalues --   -0.47807  -0.47603  -0.44739  -0.44052  -0.44004
 Alpha  occ. eigenvalues --   -0.43016  -0.41435  -0.40124  -0.39299  -0.38502
 Alpha  occ. eigenvalues --   -0.38373  -0.36688  -0.35549  -0.34466  -0.34347
 Alpha  occ. eigenvalues --   -0.28743  -0.27940  -0.27496  -0.25397  -0.24719
 Alpha  occ. eigenvalues --   -0.13284
 Alpha virt. eigenvalues --   -0.04939  -0.02739  -0.02666   0.01246   0.04064
 Alpha virt. eigenvalues --    0.05091   0.07989   0.08324   0.10161   0.10584
 Alpha virt. eigenvalues --    0.12018   0.12757   0.14429   0.14769   0.15208
 Alpha virt. eigenvalues --    0.16442   0.19618   0.22825   0.23978   0.25147
 Alpha virt. eigenvalues --    0.27925   0.28168   0.28684   0.31200   0.31386
 Alpha virt. eigenvalues --    0.33255   0.38662   0.39372   0.40082   0.40648
 Alpha virt. eigenvalues --    0.41995   0.42939   0.43894   0.44323   0.45898
 Alpha virt. eigenvalues --    0.46075   0.46788   0.47425   0.47779   0.47851
 Alpha virt. eigenvalues --    0.48024   0.48975   0.49754   0.49763   0.50511
 Alpha virt. eigenvalues --    0.50711   0.51115   0.51936   0.51949   0.55344
 Alpha virt. eigenvalues --    0.55441   0.55770   0.57270   0.58212   0.60110
 Alpha virt. eigenvalues --    0.61379   0.61638   0.62541   0.63209   0.63241
 Alpha virt. eigenvalues --    0.63798   0.65628   0.65672   0.66287   0.68704
 Alpha virt. eigenvalues --    0.70136   0.70570   0.72161   0.73954   0.75217
 Alpha virt. eigenvalues --    0.75227   0.79020   0.82503   0.82890   0.85069
 Alpha virt. eigenvalues --    0.86872   0.87043   0.87271   0.89255   0.89310
 Alpha virt. eigenvalues --    0.90760   0.91006   0.91921   0.93011   0.95830
 Alpha virt. eigenvalues --    0.96453   0.96562   0.97752   0.98674   0.99714
 Alpha virt. eigenvalues --    1.01158   1.01430   1.02193   1.03476   1.03492
 Alpha virt. eigenvalues --    1.04744   1.04777   1.06860   1.07700   1.12475
 Alpha virt. eigenvalues --    1.14011   1.15673   1.16337   1.18804   1.19662
 Alpha virt. eigenvalues --    1.19870   1.27285   1.29847   1.31543   1.33940
 Alpha virt. eigenvalues --    1.35063   1.36663   1.39325   1.43159   1.45328
 Alpha virt. eigenvalues --    1.46094   1.46356   1.47015   1.47282   1.48907
 Alpha virt. eigenvalues --    1.49334   1.50109   1.50288   1.51371   1.53350
 Alpha virt. eigenvalues --    1.58090   1.60168   1.60569   1.60635   1.62813
 Alpha virt. eigenvalues --    1.62932   1.63886   1.64546   1.65810   1.66933
 Alpha virt. eigenvalues --    1.67014   1.69392   1.69435   1.72068   1.72455
 Alpha virt. eigenvalues --    1.74697   1.75487   1.76784   1.77302   1.77800
 Alpha virt. eigenvalues --    1.77913   1.78715   1.79724   1.82233   1.82603
 Alpha virt. eigenvalues --    1.83382   1.85109   1.85110   1.86419   1.90367
 Alpha virt. eigenvalues --    1.90820   1.92987   1.94646   1.95666   1.96152
 Alpha virt. eigenvalues --    1.99124   1.99615   2.01505   2.06912   2.07769
 Alpha virt. eigenvalues --    2.13031   2.15392   2.15639   2.17707   2.19002
 Alpha virt. eigenvalues --    2.20768   2.22821   2.27889   2.35652   2.35675
 Alpha virt. eigenvalues --    2.37034   2.38365   2.42062   2.43411   2.45684
 Alpha virt. eigenvalues --    2.53782   2.55913   2.63494   2.64366   2.68742
 Alpha virt. eigenvalues --    2.69423   2.71407   2.73826   2.75595   2.76209
 Alpha virt. eigenvalues --    2.81139   2.81946   2.95943   3.01926   3.31804
 Alpha virt. eigenvalues --    3.41726   3.43890   3.54066
  Beta  occ. eigenvalues --  -88.95333 -19.10076 -10.24801 -10.24800 -10.23103
  Beta  occ. eigenvalues --  -10.22000 -10.21998 -10.21625 -10.21624 -10.21211
  Beta  occ. eigenvalues --  -10.21211 -10.19977 -10.19977 -10.19608 -10.19608
  Beta  occ. eigenvalues --   -8.01471  -5.97795  -5.97374  -5.96942  -0.98042
  Beta  occ. eigenvalues --   -0.89904  -0.87135  -0.82543  -0.77855  -0.76943
  Beta  occ. eigenvalues --   -0.76040  -0.71949  -0.65746  -0.63387  -0.60881
  Beta  occ. eigenvalues --   -0.59613  -0.55625  -0.54323  -0.49485  -0.47603
  Beta  occ. eigenvalues --   -0.47573  -0.47412  -0.44525  -0.43857  -0.42773
  Beta  occ. eigenvalues --   -0.41910  -0.40524  -0.39739  -0.37996  -0.37937
  Beta  occ. eigenvalues --   -0.36511  -0.35343  -0.34387  -0.33935  -0.32136
  Beta  occ. eigenvalues --   -0.27049  -0.26117  -0.24606  -0.24311
  Beta virt. eigenvalues --   -0.18050  -0.05957  -0.03525  -0.01232  -0.01120
  Beta virt. eigenvalues --    0.01615   0.05639   0.06629   0.08079   0.08859
  Beta virt. eigenvalues --    0.10217   0.10658   0.12937   0.13292   0.14590
  Beta virt. eigenvalues --    0.14907   0.15330   0.18487   0.19851   0.23226
  Beta virt. eigenvalues --    0.24389   0.25438   0.28078   0.28556   0.28871
  Beta virt. eigenvalues --    0.31657   0.31686   0.33741   0.39000   0.39561
  Beta virt. eigenvalues --    0.40630   0.40975   0.43045   0.43633   0.45134
  Beta virt. eigenvalues --    0.45384   0.46231   0.46418   0.47922   0.48125
  Beta virt. eigenvalues --    0.48127   0.48345   0.48369   0.49369   0.50017
  Beta virt. eigenvalues --    0.50848   0.50892   0.51135   0.51527   0.52290
  Beta virt. eigenvalues --    0.52663   0.55600   0.56192   0.56556   0.57442
  Beta virt. eigenvalues --    0.59167   0.60693   0.62456   0.62648   0.63105
  Beta virt. eigenvalues --    0.63291   0.63501   0.64084   0.65767   0.66456
  Beta virt. eigenvalues --    0.66607   0.69063   0.70324   0.70727   0.72693
  Beta virt. eigenvalues --    0.74613   0.75374   0.75542   0.79920   0.82955
  Beta virt. eigenvalues --    0.83118   0.85226   0.87492   0.87652   0.87905
  Beta virt. eigenvalues --    0.89502   0.90003   0.90975   0.91628   0.92142
  Beta virt. eigenvalues --    0.93276   0.96012   0.96959   0.97260   0.98067
  Beta virt. eigenvalues --    0.99086   1.01149   1.01469   1.01838   1.02740
  Beta virt. eigenvalues --    1.04019   1.04136   1.04956   1.06724   1.07037
  Beta virt. eigenvalues --    1.07978   1.14300   1.14430   1.16437   1.16550
  Beta virt. eigenvalues --    1.19561   1.20045   1.20713   1.27549   1.30106
  Beta virt. eigenvalues --    1.31965   1.34322   1.35450   1.37095   1.40398
  Beta virt. eigenvalues --    1.44029   1.45873   1.46504   1.46517   1.47297
  Beta virt. eigenvalues --    1.47634   1.49285   1.49548   1.50339   1.50946
  Beta virt. eigenvalues --    1.51849   1.53583   1.58262   1.60636   1.60750
  Beta virt. eigenvalues --    1.60774   1.63107   1.63163   1.64102   1.64775
  Beta virt. eigenvalues --    1.66109   1.67129   1.67411   1.69696   1.69769
  Beta virt. eigenvalues --    1.72752   1.72859   1.75006   1.76024   1.77340
  Beta virt. eigenvalues --    1.77529   1.78167   1.78591   1.78990   1.80010
  Beta virt. eigenvalues --    1.82438   1.82773   1.83963   1.85253   1.85263
  Beta virt. eigenvalues --    1.86577   1.90588   1.91204   1.93324   1.95080
  Beta virt. eigenvalues --    1.96288   1.96433   1.99386   1.99968   2.01715
  Beta virt. eigenvalues --    2.07282   2.07969   2.13855   2.15943   2.16232
  Beta virt. eigenvalues --    2.18583   2.19642   2.21103   2.23524   2.28077
  Beta virt. eigenvalues --    2.35905   2.35936   2.37170   2.38461   2.42274
  Beta virt. eigenvalues --    2.44106   2.45929   2.54000   2.56157   2.63743
  Beta virt. eigenvalues --    2.64650   2.69619   2.71529   2.72160   2.74929
  Beta virt. eigenvalues --    2.75794   2.78013   2.81262   2.82188   2.97143
  Beta virt. eigenvalues --    3.05244   3.32206   3.41926   3.45189   3.54339
          Condensed to atoms (all electrons):
               1          2          3          4          5          6
     1  C    4.787668   0.491779   0.005656  -0.074669   0.010909   0.439757
     2  C    0.491779   4.743386   0.449005   0.006325  -0.077314   0.014983
     3  C    0.005656   0.449005   5.469373   0.287009  -0.051606  -0.084369
     4  C   -0.074669   0.006325   0.287009   5.425100   0.344654   0.015367
     5  C    0.010909  -0.077314  -0.051606   0.344654   5.004251   0.413832
     6  C    0.439757   0.014983  -0.084369   0.015367   0.413832   4.818791
     7  C   -0.000676   0.007589  -0.058899   0.156521  -0.081411   0.015074
     8  C    0.000067  -0.000547  -0.058637  -0.003103   0.025935  -0.000593
     9  C   -0.000149   0.001835  -0.003687  -0.058641  -0.000023   0.000089
    10  C    0.000001  -0.000241   0.001836  -0.000548   0.000047   0.000001
    11  H   -0.000000  -0.000009   0.000435   0.000026  -0.000002   0.000000
    12  C    0.000000   0.000001  -0.000149   0.000067   0.000001  -0.000000
    13  C   -0.000000   0.000001   0.000089  -0.000592  -0.000007   0.000000
    14  C    0.000001   0.000047  -0.000024   0.025944  -0.001095  -0.000007
    15  H    0.397144  -0.044098   0.010660   0.000042   0.009220  -0.049654
    16  H   -0.043898   0.392613  -0.050157   0.011617  -0.000554   0.009673
    17  H    0.010679  -0.001175   0.015421  -0.053028   0.393405  -0.057214
    18  H   -0.051916   0.009602   0.000440   0.009580  -0.041208   0.393243
    19  H    0.000000  -0.000000   0.000002   0.000001   0.000000  -0.000000
    20  H    0.000000   0.000000  -0.000000   0.000001  -0.000000  -0.000000
    21  H    0.000000   0.000002  -0.000186   0.003592  -0.000151  -0.000003
    22  S    0.005345  -0.086441   0.303366  -0.062098   0.007353  -0.000356
    23  O   -0.000004  -0.000051   0.005299  -0.131378   0.016982   0.001407
               7          8          9         10         11         12
     1  C   -0.000676   0.000067  -0.000149   0.000001  -0.000000   0.000000
     2  C    0.007589  -0.000547   0.001835  -0.000241  -0.000009   0.000001
     3  C   -0.058899  -0.058637  -0.003687   0.001836   0.000435  -0.000149
     4  C    0.156521  -0.003103  -0.058641  -0.000548   0.000026   0.000067
     5  C   -0.081411   0.025935  -0.000023   0.000047  -0.000002   0.000001
     6  C    0.015074  -0.000593   0.000089   0.000001   0.000000  -0.000000
     7  C    5.329038   0.156718  -0.058883   0.007591  -0.000122  -0.000675
     8  C    0.156718   5.424955   0.286949   0.006312   0.011615  -0.074659
     9  C   -0.058883   0.286949   5.469226   0.449011  -0.050159   0.005634
    10  C    0.007591   0.006312   0.449011   4.743411   0.392624   0.491787
    11  H   -0.000122   0.011615  -0.050159   0.392624   0.703565  -0.043881
    12  C   -0.000675  -0.074659   0.005634   0.491787  -0.043881   4.787827
    13  C    0.015061   0.015357  -0.084354   0.014968   0.009671   0.439697
    14  C   -0.081488   0.344490  -0.051517  -0.077295  -0.000555   0.010887
    15  H    0.000030   0.000001   0.000002  -0.000000  -0.000000   0.000000
    16  H   -0.000122   0.000026   0.000435  -0.000009   0.000011  -0.000000
    17  H   -0.032011   0.003598  -0.000187   0.000002  -0.000000   0.000000
    18  H   -0.000367   0.000001  -0.000000   0.000000   0.000000   0.000000
    19  H    0.000030   0.000043   0.010659  -0.044073  -0.013926   0.397134
    20  H   -0.000367   0.009582   0.000439   0.009601  -0.000256  -0.051953
    21  H   -0.031964  -0.053086   0.015412  -0.001173   0.000048   0.010684
    22  S   -0.026622  -0.062076   0.303489  -0.086488  -0.007874   0.005346
    23  O    0.687741  -0.131311   0.005295  -0.000051   0.000001  -0.000004
              13         14         15         16         17         18
     1  C   -0.000000   0.000001   0.397144  -0.043898   0.010679  -0.051916
     2  C    0.000001   0.000047  -0.044098   0.392613  -0.001175   0.009602
     3  C    0.000089  -0.000024   0.010660  -0.050157   0.015421   0.000440
     4  C   -0.000592   0.025944   0.000042   0.011617  -0.053028   0.009580
     5  C   -0.000007  -0.001095   0.009220  -0.000554   0.393405  -0.041208
     6  C    0.000000  -0.000007  -0.049654   0.009673  -0.057214   0.393243
     7  C    0.015061  -0.081488   0.000030  -0.000122  -0.032011  -0.000367
     8  C    0.015357   0.344490   0.000001   0.000026   0.003598   0.000001
     9  C   -0.084354  -0.051517   0.000002   0.000435  -0.000187  -0.000000
    10  C    0.014968  -0.077295  -0.000000  -0.000009   0.000002   0.000000
    11  H    0.009671  -0.000555  -0.000000   0.000011  -0.000000   0.000000
    12  C    0.439697   0.010887   0.000000  -0.000000   0.000000   0.000000
    13  C    4.818679   0.414054  -0.000000   0.000000  -0.000003  -0.000000
    14  C    0.414054   5.004090   0.000000  -0.000002  -0.000151  -0.000000
    15  H   -0.000000   0.000000   0.713107  -0.013931  -0.000185  -0.013976
    16  H    0.000000  -0.000002  -0.013931   0.703663   0.000048  -0.000256
    17  H   -0.000003  -0.000151  -0.000185   0.000048   0.746312  -0.015060
    18  H   -0.000000  -0.000000  -0.013976  -0.000256  -0.015060   0.710940
    19  H   -0.049669   0.009217  -0.000000  -0.000000   0.000000   0.000000
    20  H    0.393224  -0.041149   0.000000   0.000000  -0.000000  -0.000000
    21  H   -0.057164   0.393465   0.000000  -0.000000  -0.000074  -0.000000
    22  S   -0.000355   0.007354  -0.000246  -0.007869  -0.000149   0.000032
    23  O    0.001403   0.016997   0.000000   0.000001   0.031776  -0.000017
              19         20         21         22         23
     1  C    0.000000   0.000000   0.000000   0.005345  -0.000004
     2  C   -0.000000   0.000000   0.000002  -0.086441  -0.000051
     3  C    0.000002  -0.000000  -0.000186   0.303366   0.005299
     4  C    0.000001   0.000001   0.003592  -0.062098  -0.131378
     5  C    0.000000  -0.000000  -0.000151   0.007353   0.016982
     6  C   -0.000000  -0.000000  -0.000003  -0.000356   0.001407
     7  C    0.000030  -0.000367  -0.031964  -0.026622   0.687741
     8  C    0.000043   0.009582  -0.053086  -0.062076  -0.131311
     9  C    0.010659   0.000439   0.015412   0.303489   0.005295
    10  C   -0.044073   0.009601  -0.001173  -0.086488  -0.000051
    11  H   -0.013926  -0.000256   0.000048  -0.007874   0.000001
    12  C    0.397134  -0.051953   0.010684   0.005346  -0.000004
    13  C   -0.049669   0.393224  -0.057164  -0.000355   0.001403
    14  C    0.009217  -0.041149   0.393465   0.007354   0.016997
    15  H   -0.000000   0.000000   0.000000  -0.000246   0.000000
    16  H   -0.000000   0.000000  -0.000000  -0.007869   0.000001
    17  H    0.000000  -0.000000  -0.000074  -0.000149   0.031776
    18  H    0.000000  -0.000000  -0.000000   0.000032  -0.000017
    19  H    0.713100  -0.013970  -0.000185  -0.000246   0.000000
    20  H   -0.013970   0.710947  -0.015075   0.000032  -0.000017
    21  H   -0.000185  -0.015075   0.746273  -0.000149   0.031692
    22  S   -0.000246   0.000032  -0.000149  15.416953  -0.000192
    23  O    0.000000  -0.000017   0.031692  -0.000192   7.787979
          Atomic-Atomic Spin Densities.
               1          2          3          4          5          6
     1  C    0.150013  -0.022673  -0.010376   0.002939  -0.011728   0.009700
     2  C   -0.022673   0.010659   0.040049  -0.002392   0.003821  -0.004405
     3  C   -0.010376   0.040049   0.153105  -0.002557   0.007413  -0.001738
     4  C    0.002939  -0.002392  -0.002557   0.063097  -0.023572  -0.004645
     5  C   -0.011728   0.003821   0.007413  -0.023572   0.110974   0.011370
     6  C    0.009700  -0.004405  -0.001738  -0.004645   0.011370   0.062870
     7  C    0.000328  -0.000916  -0.010630   0.051362  -0.011304  -0.000183
     8  C    0.000010  -0.000038  -0.000105   0.005429  -0.001353  -0.000018
     9  C   -0.000021   0.000446   0.008742  -0.000103   0.000088  -0.000006
    10  C   -0.000000   0.000013   0.000446  -0.000038  -0.000002  -0.000000
    11  H   -0.000000  -0.000001  -0.000005   0.000003   0.000000  -0.000000
    12  C    0.000000  -0.000000  -0.000021   0.000010  -0.000000   0.000000
    13  C    0.000000  -0.000000  -0.000006  -0.000018   0.000000   0.000000
    14  C   -0.000000  -0.000002   0.000088  -0.001353   0.000104   0.000000
    15  H    0.002391  -0.000168  -0.000062  -0.000048  -0.000029  -0.000049
    16  H    0.000109   0.000767   0.000326  -0.000036   0.000007  -0.000058
    17  H   -0.000124   0.000027  -0.000139   0.002747   0.002333  -0.000531
    18  H   -0.000070  -0.000020  -0.000030  -0.000025  -0.000248   0.001588
    19  H    0.000000   0.000000  -0.000000  -0.000000   0.000000   0.000000
    20  H    0.000000   0.000000  -0.000000   0.000000   0.000000   0.000000
    21  H   -0.000000  -0.000000  -0.000003  -0.000130   0.000012   0.000000
    22  S    0.000674  -0.010335  -0.072284  -0.002544  -0.000548   0.000270
    23  O   -0.000006   0.000003   0.000147  -0.007393   0.003874  -0.000014
               7          8          9         10         11         12
     1  C    0.000328   0.000010  -0.000021  -0.000000  -0.000000   0.000000
     2  C   -0.000916  -0.000038   0.000446   0.000013  -0.000001  -0.000000
     3  C   -0.010630  -0.000105   0.008742   0.000446  -0.000005  -0.000021
     4  C    0.051362   0.005429  -0.000103  -0.000038   0.000003   0.000010
     5  C   -0.011304  -0.001353   0.000088  -0.000002   0.000000  -0.000000
     6  C   -0.000183  -0.000018  -0.000006  -0.000000  -0.000000   0.000000
     7  C    0.210531   0.051389  -0.010639  -0.000917  -0.000009   0.000328
     8  C    0.051389   0.063171  -0.002581  -0.002393  -0.000036   0.002944
     9  C   -0.010639  -0.002581   0.153299   0.040068   0.000326  -0.010389
    10  C   -0.000917  -0.002393   0.040068   0.010644   0.000768  -0.022682
    11  H   -0.000009  -0.000036   0.000326   0.000768  -0.002585   0.000109
    12  C    0.000328   0.002944  -0.010389  -0.022682   0.000109   0.150206
    13  C   -0.000183  -0.004651  -0.001737  -0.004407  -0.000058   0.009684
    14  C   -0.011302  -0.023602   0.007418   0.003822   0.000007  -0.011737
    15  H   -0.000000  -0.000000  -0.000000   0.000000   0.000000   0.000000
    16  H   -0.000009   0.000003  -0.000005  -0.000001  -0.000001  -0.000000
    17  H   -0.000044  -0.000130  -0.000003  -0.000000   0.000000  -0.000000
    18  H    0.000004   0.000000  -0.000000   0.000000  -0.000000   0.000000
    19  H   -0.000000  -0.000048  -0.000062  -0.000168   0.000172   0.002394
    20  H    0.000004  -0.000025  -0.000030  -0.000020   0.000003  -0.000069
    21  H   -0.000044   0.002747  -0.000139   0.000027  -0.000002  -0.000124
    22  S    0.006222  -0.002540  -0.072318  -0.010342  -0.000471   0.000675
    23  O   -0.088428  -0.007394   0.000147   0.000003  -0.000000  -0.000006
              13         14         15         16         17         18
     1  C    0.000000  -0.000000   0.002391   0.000109  -0.000124  -0.000070
     2  C   -0.000000  -0.000002  -0.000168   0.000767   0.000027  -0.000020
     3  C   -0.000006   0.000088  -0.000062   0.000326  -0.000139  -0.000030
     4  C   -0.000018  -0.001353  -0.000048  -0.000036   0.002747  -0.000025
     5  C    0.000000   0.000104  -0.000029   0.000007   0.002333  -0.000248
     6  C    0.000000   0.000000  -0.000049  -0.000058  -0.000531   0.001588
     7  C   -0.000183  -0.011302  -0.000000  -0.000009  -0.000044   0.000004
     8  C   -0.004651  -0.023602  -0.000000   0.000003  -0.000130   0.000000
     9  C   -0.001737   0.007418  -0.000000  -0.000005  -0.000003  -0.000000
    10  C   -0.004407   0.003822   0.000000  -0.000001  -0.000000   0.000000
    11  H   -0.000058   0.000007   0.000000  -0.000001   0.000000  -0.000000
    12  C    0.009684  -0.011737   0.000000  -0.000000  -0.000000   0.000000
    13  C    0.062904   0.011397   0.000000  -0.000000   0.000000   0.000000
    14  C    0.011397   0.111057   0.000000   0.000000   0.000012   0.000000
    15  H    0.000000   0.000000  -0.008624   0.000172   0.000001   0.000169
    16  H   -0.000000   0.000000   0.000172  -0.002585  -0.000002   0.000003
    17  H    0.000000   0.000012   0.000001  -0.000002  -0.008754   0.000174
    18  H    0.000000   0.000000   0.000169   0.000003   0.000174  -0.005042
    19  H   -0.000048  -0.000029  -0.000000   0.000000   0.000000   0.000000
    20  H    0.001589  -0.000249   0.000000  -0.000000   0.000000  -0.000000
    21  H   -0.000531   0.002331   0.000000   0.000000   0.000007   0.000000
    22  S    0.000271  -0.000548   0.000000  -0.000470  -0.000004   0.000001
    23  O   -0.000014   0.003869  -0.000000  -0.000000  -0.001237   0.000000
              19         20         21         22         23
     1  C    0.000000   0.000000  -0.000000   0.000674  -0.000006
     2  C    0.000000   0.000000  -0.000000  -0.010335   0.000003
     3  C   -0.000000  -0.000000  -0.000003  -0.072284   0.000147
     4  C   -0.000000   0.000000  -0.000130  -0.002544  -0.007393
     5  C    0.000000   0.000000   0.000012  -0.000548   0.003874
     6  C    0.000000   0.000000   0.000000   0.000270  -0.000014
     7  C   -0.000000   0.000004  -0.000044   0.006222  -0.088428
     8  C   -0.000048  -0.000025   0.002747  -0.002540  -0.007394
     9  C   -0.000062  -0.000030  -0.000139  -0.072318   0.000147
    10  C   -0.000168  -0.000020   0.000027  -0.010342   0.000003
    11  H    0.000172   0.000003  -0.000002  -0.000471  -0.000000
    12  C    0.002394  -0.000069  -0.000124   0.000675  -0.000006
    13  C   -0.000048   0.001589  -0.000531   0.000271  -0.000014
    14  C   -0.000029  -0.000249   0.002331  -0.000548   0.003869
    15  H   -0.000000   0.000000   0.000000   0.000000  -0.000000
    16  H    0.000000  -0.000000   0.000000  -0.000470  -0.000000
    17  H    0.000000   0.000000   0.000007  -0.000004  -0.001237
    18  H    0.000000  -0.000000   0.000000   0.000001   0.000000
    19  H   -0.008634   0.000169   0.000001   0.000000  -0.000000
    20  H    0.000169  -0.005045   0.000175   0.000001   0.000000
    21  H    0.000001   0.000175  -0.008756  -0.000004  -0.001234
    22  S    0.000000   0.000001  -0.000004   0.588348   0.000015
    23  O   -0.000000   0.000000  -0.001234   0.000015   0.533060
 Mulliken charges and spin densities:
               1          2
     1  C    0.022304   0.121167
     2  C    0.092709   0.014835
     3  C   -0.240877   0.112361
     4  C    0.098212   0.080734
     5  C    0.026782   0.091213
     6  C    0.069980   0.074153
     7  C   -0.001784   0.185560
     8  C    0.098363   0.080779
     9  C   -0.240876   0.112502
    10  C    0.092686   0.014821
    11  H   -0.001211  -0.001781
    12  C    0.022256   0.121320
    13  C    0.069941   0.074191
    14  C    0.026739   0.091284
    15  H   -0.008117  -0.006246
    16  H   -0.001289  -0.001780
    17  H   -0.042004  -0.005666
    18  H   -0.001038  -0.003495
    19  H   -0.008119  -0.006254
    20  H   -0.001039  -0.003497
    21  H   -0.041959  -0.005667
    22  S    0.291891   0.424068
    23  O   -0.323549   0.435396
 Sum of Mulliken charges =  -0.00000   2.00000
 Mulliken charges and spin densities with hydrogens summed into heavy atoms:
               1          2
     1  C    0.014186   0.114921
     2  C    0.091419   0.013055
     3  C   -0.240877   0.112361
     4  C    0.098212   0.080734
     5  C   -0.015221   0.085547
     6  C    0.068942   0.070658
     7  C   -0.001784   0.185560
     8  C    0.098363   0.080779
     9  C   -0.240876   0.112502
    10  C    0.091475   0.013041
    12  C    0.014137   0.115066
    13  C    0.068902   0.070695
    14  C   -0.015220   0.085617
    22  S    0.291891   0.424068
    23  O   -0.323549   0.435396
 Electronic spatial extent (au):  <R**2>=          20122.9138
 Charge=              0.0000 electrons
 Dipole moment (field-independent basis, Debye):
    X=              3.2232    Y=             -5.4816    Z=              0.0797  Tot=              6.3595
 Quadrupole moment (field-independent basis, Debye-Ang):
   XX=           -115.3571   YY=           -111.0944   ZZ=            -96.6465
   XY=             52.0820   XZ=             -0.4093   YZ=              0.1378
 Traceless Quadrupole moment (field-independent basis, Debye-Ang):
   XX=             -7.6578   YY=             -3.3951   ZZ=             11.0529
   XY=             52.0820   XZ=             -0.4093   YZ=              0.1378
 Octapole moment (field-independent basis, Debye-Ang**2):
  XXX=           1778.2038  YYY=           -655.5367  ZZZ=             -2.3849  XYY=            766.6270
  XXY=           -603.0356  XXZ=              1.5888  XZZ=            597.2378  YZZ=           -200.6377
  YYZ=             -0.0019  XYZ=             -0.8482
 Hexadecapole moment (field-independent basis, Debye-Ang**3):
 XXXX=         -22939.1501 YYYY=          -4355.8238 ZZZZ=           -105.7340 XXXY=           6162.9302
 XXXZ=             -4.3008 YYYX=           4000.6891 YYYZ=              1.8726 ZZZX=              8.1683
 ZZZY=             -1.1493 XXYY=          -6275.7097 XXZZ=          -4215.7714 YYZZ=           -738.2818
 XXYZ=              5.6428 YYXZ=             -3.1830 ZZXY=           1057.2435
 N-N= 9.904462971635D+02 E-N=-4.264403516498D+03  KE= 9.688936168252D+02

 Atomic contributions to Alpha molecular orbitals:
 Alpha occ 37 OE=-0.476 is C3-p=0.0823
 Alpha occ 38 OE=-0.447 is H11-s=0.0975
 Alpha occ 39 OE=-0.441 is S22-p=0.1576 C7-p=0.1353 C9-p=0.1215 C3-p=0.1215 C4-p=0.1041 C8-p=0.1040
 Alpha occ 40 OE=-0.440 is C5-p=0.1053 C14-p=0.1052
 Alpha occ 41 OE=-0.430 is C1-p=0.0771
 Alpha occ 42 OE=-0.414 is O23-p=0.4263 C7-p=0.1352
 Alpha occ 43 OE=-0.401 is S22-p=0.1405
 Alpha occ 44 OE=-0.393 is C9-p=0.1171 C3-p=0.1169
 Alpha occ 45 OE=-0.385 is O23-p=0.3425 S22-p=0.2210 C7-p=0.2168
 Alpha occ 46 OE=-0.384 is S22-p=0.1583
 Alpha occ 47 OE=-0.367 is C13-p=0.0741
 Alpha occ 48 OE=-0.355 is S22-p=0.0813
 Alpha occ 49 OE=-0.345 is S22-p=0.2427 C13-p=0.1333 C6-p=0.1332 C12-p=0.1084 C1-p=0.1084
 Alpha occ 50 OE=-0.343 is S22-p=0.2092
 Alpha occ 51 OE=-0.287 is C6-p=0.1617 C13-p=0.1617 C3-p=0.1543 C9-p=0.1543
 Alpha occ 52 OE=-0.279 is O23-p=0.2830 C8-p=0.1232 C4-p=0.1227
 Alpha occ 53 OE=-0.275 is C1-p=0.1496 C12-p=0.1492 C4-p=0.1491 C8-p=0.1487
 Alpha occ 54 OE=-0.254 is O23-p=0.7708
 Alpha occ 55 OE=-0.247 is S22-p=0.2678 C6-p=0.1053 C13-p=0.1053
 Alpha occ 56 OE=-0.133 is C7-p=0.2322 O23-p=0.1340
 Alpha vir 57 OE=-0.049 is C4-p=0.1366 C8-p=0.1366 C13-p=0.1229 C6-p=0.1229 C3-p=0.1100 C9-p=0.1099
 Alpha vir 58 OE=-0.027 is C2-p=0.1239 C10-p=0.1222 C3-p=0.1159 C9-p=0.1152 C5-p=0.1113 C14-p=0.1098
 Alpha vir 59 OE=-0.027 is C10-p=0.1674 C2-p=0.1658 C14-p=0.1512 C5-p=0.1498
 Alpha vir 60 OE=0.012 is S22-p=0.4875 S22-d=0.1012
 Alpha vir 61 OE=0.041 is C7-p=0.1982 C1-p=0.1399 C12-p=0.1399
 Alpha vir 62 OE=0.051 is S22-p=0.1771 H19-s=0.1078 H15-s=0.1078
 Alpha vir 63 OE=0.080 is H19-s=0.2290 H15-s=0.2289 H20-s=0.2182 H18-s=0.2180
 Alpha vir 64 OE=0.083 is S22-p=0.1554 H18-s=0.1522 H20-s=0.1519 H16-s=0.1164 H11-s=0.1162
 Alpha vir 65 OE=0.102 is H11-s=0.2426 H16-s=0.2423 H21-s=0.1710 H17-s=0.1709 H20-s=0.1214 H18-s=0.1212
 Alpha vir 66 OE=0.106 is H16-s=0.2091 H11-s=0.2090 H17-s=0.1633 H21-s=0.1630 H18-s=0.1225 H20-s=0.1224
 Alpha vir 67 OE=0.120 is C13-p=0.0969
 Alpha vir 68 OE=0.128 is H17-s=0.2259 H21-s=0.2257 H16-s=0.1095 H11-s=0.1095
 Alpha vir 69 OE=0.144 is H19-s=0.2876 H15-s=0.2868 H18-s=0.1429 H20-s=0.1425
 Alpha vir 70 OE=0.148 is H16-s=0.2372 H11-s=0.2364 H15-s=0.1875 H19-s=0.1863 H21-s=0.1093 H17-s=0.1089
 Alpha vir 71 OE=0.152 is H21-s=0.2755 H17-s=0.2749 H20-s=0.2388 H18-s=0.2384
 Alpha vir 72 OE=0.164 is C7-p=0.1706 C4-p=0.1430 C8-p=0.1429
 Alpha vir 73 OE=0.196 is C3-p=0.2352 C9-p=0.2351
 Alpha vir 74 OE=0.228 is C7-p=0.2070 C8-p=0.1446 C4-p=0.1446
 Alpha vir 75 OE=0.240 is C6-p=0.1044 C13-p=0.1043
 Alpha vir 76 OE=0.251 is C2-p=0.1928 C10-p=0.1925

 Atomic contributions to Beta  molecular orbitals:
 Beta  occ 35 OE=-0.476 is C12-p=0.1088 C1-p=0.1079 C6-p=0.1067 C13-p=0.1045
 Beta  occ 36 OE=-0.476 is C7-p=0.1002
 Beta  occ 37 OE=-0.474 is C9-p=0.0841
 Beta  occ 38 OE=-0.445 is H11-s=0.0980
 Beta  occ 39 OE=-0.439 is C5-p=0.1057 C14-p=0.1056
 Beta  occ 40 OE=-0.428 is C1-p=0.0742
 Beta  occ 41 OE=-0.419 is S22-p=0.1414 C3-p=0.1363 C9-p=0.1363 C4-p=0.1054 C8-p=0.1053
 Beta  occ 42 OE=-0.405 is O23-p=0.3888 C7-p=0.1126
 Beta  occ 43 OE=-0.397 is S22-p=0.1110
 Beta  occ 44 OE=-0.380 is C9-p=0.1078 C3-p=0.1078
 Beta  occ 45 OE=-0.379 is S22-p=0.1965
 Beta  occ 46 OE=-0.365 is C13-p=0.0748
 Beta  occ 47 OE=-0.353 is S22-p=0.0814
 Beta  occ 48 OE=-0.344 is C7-p=0.2669 O23-p=0.2141 S22-p=0.1816
 Beta  occ 49 OE=-0.339 is S22-p=0.2267
 Beta  occ 50 OE=-0.321 is S22-p=0.1935 C13-p=0.1460 C6-p=0.1460 C1-p=0.1205 C12-p=0.1205
 Beta  occ 51 OE=-0.270 is C14-p=0.1544 C5-p=0.1544 C10-p=0.1248 C2-p=0.1248
 Beta  occ 52 OE=-0.261 is C1-p=0.1571 C12-p=0.1571 C4-p=0.1393 C8-p=0.1392
 Beta  occ 53 OE=-0.246 is O23-p=0.2183 C2-p=0.1142 C10-p=0.1142 C5-p=0.1105 C14-p=0.1105
 Beta  occ 54 OE=-0.243 is O23-p=0.7742
 Beta  vir 55 OE=-0.181 is S22-p=0.3296 O23-p=0.1420
 Beta  vir 56 OE=-0.060 is O23-p=0.1825 C7-p=0.1242 C12-p=0.1032 C1-p=0.1031
 Beta  vir 57 OE=-0.035 is C6-p=0.1410 C13-p=0.1409 C3-p=0.1325 C9-p=0.1324 C4-p=0.1008 C8-p=0.1008
 Beta  vir 58 OE=-0.012 is C5-p=0.1468 C14-p=0.1453 C2-p=0.1429 C10-p=0.1414
 Beta  vir 59 OE=-0.011 is C9-p=0.1449 C3-p=0.1442
 Beta  vir 60 OE=0.016 is S22-p=0.4847
 Beta  vir 61 OE=0.056 is H19-s=0.1351 H15-s=0.1350 S22-p=0.1268
 Beta  vir 62 OE=0.066 is C7-p=0.2108 C12-p=0.1321 C1-p=0.1321
 Beta  vir 63 OE=0.081 is H15-s=0.2257 H19-s=0.2256 H18-s=0.2209 H20-s=0.2208
 Beta  vir 64 OE=0.089 is S22-p=0.1906 H20-s=0.1348 H18-s=0.1347
 Beta  vir 65 OE=0.102 is H11-s=0.2505 H16-s=0.2503 H21-s=0.1682 H17-s=0.1681 H20-s=0.1186 H18-s=0.1185
 Beta  vir 66 OE=0.107 is H16-s=0.2081 H11-s=0.2080 H17-s=0.1634 H21-s=0.1631 H18-s=0.1195 H20-s=0.1195
 Beta  vir 67 OE=0.129 is H17-s=0.2279 H21-s=0.2277 H16-s=0.1130 H11-s=0.1130 H19-s=0.1008 H15-s=0.1006
 Beta  vir 68 OE=0.133 is C14-p=0.0972
 Beta  vir 69 OE=0.146 is H19-s=0.2833 H15-s=0.2824 H18-s=0.1476 H20-s=0.1472
 Beta  vir 70 OE=0.149 is H16-s=0.2364 H11-s=0.2356 H15-s=0.1841 H19-s=0.1829 H21-s=0.1110 H17-s=0.1105
 Beta  vir 71 OE=0.153 is H21-s=0.2729 H17-s=0.2722 H20-s=0.2390 H18-s=0.2385
 Beta  vir 72 OE=0.185 is C7-p=0.2105 C8-p=0.1382 C4-p=0.1382
 Beta  vir 73 OE=0.199 is C3-p=0.2422 C9-p=0.2421
 Beta  vir 74 OE=0.232 is C7-p=0.2004 C4-p=0.1445 C8-p=0.1445
 
                          Isotropic Fermi Contact Couplings
        Atom                 a.u.       MegaHertz       Gauss      10(-4) cm-1
     1  C(13)              0.01263       7.09982       2.53339       2.36824
     2  C(13)             -0.00295      -1.65576      -0.59082      -0.55230
     3  C(13)              0.01028       5.77751       2.06156       1.92717
     4  C(13)             -0.00398      -2.23453      -0.79734      -0.74536
     5  C(13)              0.00687       3.86133       1.37782       1.28800
     6  C(13)              0.00434       2.43757       0.86979       0.81309
     7  C(13)              0.01346       7.56424       2.69911       2.52316
     8  C(13)             -0.00397      -2.23420      -0.79722      -0.74525
     9  C(13)              0.01030       5.78853       2.06549       1.93084
    10  C(13)             -0.00295      -1.65936      -0.59210      -0.55350
    11  H(1)              -0.00056      -1.24289      -0.44349      -0.41458
    12  C(13)              0.01265       7.11006       2.53705       2.37166
    13  C(13)              0.00434       2.43766       0.86982       0.81311
    14  C(13)              0.00688       3.86611       1.37953       1.28960
    15  H(1)              -0.00206      -4.59828      -1.64078      -1.53382
    16  H(1)              -0.00056      -1.24264      -0.44341      -0.41450
    17  H(1)              -0.00153      -3.42192      -1.22103      -1.14143
    18  H(1)              -0.00119      -2.66022      -0.94923      -0.88735
    19  H(1)              -0.00206      -4.60368      -1.64271      -1.53562
    20  H(1)              -0.00119      -2.66165      -0.94974      -0.88783
    21  H(1)              -0.00153      -3.42451      -1.22195      -1.14229
    22  S(33)              0.08218      14.11392       5.03620       4.70790
    23  O(17)              0.09134     -27.68480      -9.87862      -9.23465
 --------------------------------------------------------
       Center         ----  Spin Dipole Couplings  ----
                      3XX-RR        3YY-RR        3ZZ-RR
 --------------------------------------------------------
     1   Atom       -0.070537     -0.068333      0.138871
     2   Atom       -0.017143     -0.017754      0.034898
     3   Atom       -0.088633     -0.084217      0.172850
     4   Atom       -0.050633     -0.039588      0.090222
     5   Atom       -0.044972     -0.046638      0.091610
     6   Atom       -0.045947     -0.043739      0.089687
     7   Atom       -0.151368     -0.130357      0.281725
     8   Atom       -0.037793     -0.052492      0.090285
     9   Atom       -0.084975     -0.088058      0.173033
    10   Atom       -0.013330     -0.021572      0.034902
    11   Atom        0.006597     -0.000372     -0.006225
    12   Atom       -0.066613     -0.072431      0.139044
    13   Atom       -0.042710     -0.047027      0.089737
    14   Atom       -0.041822     -0.049873      0.091695
    15   Atom       -0.004877      0.007437     -0.002560
    16   Atom       -0.001812      0.008034     -0.006222
    17   Atom        0.002784      0.004591     -0.007376
    18   Atom        0.010750     -0.006603     -0.004147
    19   Atom        0.013598     -0.011039     -0.002559
    20   Atom       -0.002441      0.006591     -0.004150
    21   Atom        0.003767      0.003604     -0.007371
    22   Atom       -0.981439     -1.000474      1.981913
    23   Atom       -0.853339     -0.863031      1.716370
 --------------------------------------------------------
                        XY            XZ            YZ
 --------------------------------------------------------
     1   Atom        0.002726     -0.001669      0.002023
     2   Atom        0.005032     -0.000453      0.000552
     3   Atom        0.000433     -0.002082      0.002486
     4   Atom        0.005209     -0.001149      0.001320
     5   Atom        0.005247     -0.001105      0.001373
     6   Atom        0.001847     -0.001072      0.001311
     7   Atom       -0.018926     -0.003412      0.003831
     8   Atom       -0.001950     -0.001066      0.001288
     9   Atom       -0.001655     -0.002023      0.002479
    10   Atom        0.002912     -0.000426      0.000551
    11   Atom       -0.003633      0.000136     -0.000084
    12   Atom        0.000495     -0.001644      0.001961
    13   Atom        0.000029     -0.001061      0.001254
    14   Atom        0.003469     -0.001105      0.001304
    15   Atom        0.010663     -0.000121     -0.000012
    16   Atom        0.001050      0.000025     -0.000128
    17   Atom       -0.000450      0.000085     -0.000118
    18   Atom        0.000069      0.000116      0.000025
    19   Atom        0.000384      0.000125      0.000081
    20   Atom        0.007415     -0.000054     -0.000040
    21   Atom       -0.001019      0.000101     -0.000106
    22   Atom        0.016923     -0.023923      0.028802
    23   Atom        0.008563     -0.021034      0.024731
 --------------------------------------------------------


 ---------------------------------------------------------------------------------
              Anisotropic Spin Dipole Couplings in Principal Axis System
 ---------------------------------------------------------------------------------

       Atom             a.u.   MegaHertz   Gauss  10(-4) cm-1        Axes

              Baa    -0.0724    -9.716    -3.467    -3.241  0.8282 -0.5603  0.0119
     1 C(13)  Bbb    -0.0665    -8.923    -3.184    -2.977  0.5604  0.8282 -0.0036
              Bcc     0.1389    18.640     6.651     6.217 -0.0078  0.0097  0.9999
 
              Baa    -0.0225    -3.019    -1.077    -1.007 -0.6852  0.7282 -0.0124
     2 C(13)  Bbb    -0.0124    -1.665    -0.594    -0.555  0.7283  0.6853 -0.0010
              Bcc     0.0349     4.684     1.671     1.562 -0.0078  0.0097  0.9999
 
              Baa    -0.0887   -11.902    -4.247    -3.970  0.9948 -0.1010  0.0089
     3 C(13)  Bbb    -0.0842   -11.298    -4.031    -3.769  0.1011  0.9948 -0.0088
              Bcc     0.1729    23.200     8.278     7.739 -0.0079  0.0097  0.9999
 
              Baa    -0.0527    -7.074    -2.524    -2.360  0.9291 -0.3697  0.0109
     4 C(13)  Bbb    -0.0375    -5.035    -1.797    -1.680  0.3698  0.9291 -0.0063
              Bcc     0.0902    12.110     4.321     4.039 -0.0078  0.0099  0.9999
 
              Baa    -0.0511    -6.862    -2.449    -2.289 -0.6492  0.7605 -0.0123
     5 C(13)  Bbb    -0.0405    -5.434    -1.939    -1.812  0.7606  0.6493 -0.0004
              Bcc     0.0916    12.296     4.388     4.102 -0.0077  0.0096  0.9999
 
              Baa    -0.0470    -6.309    -2.251    -2.104  0.8689 -0.4948  0.0116
     6 C(13)  Bbb    -0.0427    -5.729    -2.044    -1.911  0.4949  0.8689 -0.0046
              Bcc     0.0897    12.038     4.295     4.015 -0.0078  0.0097  0.9999
 
              Baa    -0.1625   -21.807    -7.781    -7.274  0.8619  0.5071  0.0022
     7 C(13)  Bbb    -0.1193   -16.006    -5.711    -5.339 -0.5070  0.8619 -0.0125
              Bcc     0.2818    37.814    13.493    12.613 -0.0083  0.0097  0.9999
 
              Baa    -0.0528    -7.079    -2.526    -2.361  0.1287  0.9917 -0.0080
     8 C(13)  Bbb    -0.0376    -5.039    -1.798    -1.681  0.9917 -0.1286  0.0096
              Bcc     0.0903    12.118     4.324     4.042 -0.0085  0.0091  0.9999
 
              Baa    -0.0888   -11.914    -4.251    -3.974  0.3957  0.9183 -0.0056
     9 C(13)  Bbb    -0.0843   -11.310    -4.036    -3.773  0.9183 -0.3957  0.0110
              Bcc     0.1731    23.225     8.287     7.747 -0.0079  0.0095  0.9999
 
              Baa    -0.0225    -3.020    -1.078    -1.007 -0.3030  0.9529 -0.0114
    10 C(13)  Bbb    -0.0124    -1.665    -0.594    -0.555  0.9530  0.3031  0.0051
              Bcc     0.0349     4.685     1.672     1.563 -0.0083  0.0093  0.9999
 
              Baa    -0.0062    -3.322    -1.185    -1.108 -0.0079  0.0094  0.9999
    11 H(1)   Bbb    -0.0019    -1.025    -0.366    -0.342  0.3924  0.9198 -0.0055
              Bcc     0.0081     4.347     1.551     1.450  0.9198 -0.3923  0.0110
 
              Baa    -0.0725    -9.728    -3.471    -3.245 -0.0866  0.9962 -0.0099
    12 C(13)  Bbb    -0.0666    -8.935    -3.188    -2.980  0.9962  0.0867  0.0071
              Bcc     0.1391    18.663     6.659     6.225 -0.0080  0.0093  0.9999
 
              Baa    -0.0470    -6.312    -2.252    -2.105 -0.0089  0.9999 -0.0092
    13 C(13)  Bbb    -0.0427    -5.732    -2.045    -1.912  0.9999  0.0090  0.0079
              Bcc     0.0898    12.045     4.298     4.018 -0.0080  0.0092  0.9999
 
              Baa    -0.0512    -6.868    -2.451    -2.291 -0.3487  0.9372 -0.0113
    14 C(13)  Bbb    -0.0405    -5.440    -1.941    -1.814  0.9372  0.3488  0.0044
              Bcc     0.0917    12.307     4.392     4.105 -0.0080  0.0090  0.9999
 
              Baa    -0.0110    -5.887    -2.101    -1.964  0.8660 -0.4999  0.0116
    15 H(1)   Bbb    -0.0026    -1.365    -0.487    -0.455 -0.0078  0.0096  0.9999
              Bcc     0.0136     7.252     2.588     2.419  0.5000  0.8660 -0.0044
 
              Baa    -0.0062    -3.321    -1.185    -1.108 -0.0079  0.0096  0.9999
    16 H(1)   Bbb    -0.0019    -1.026    -0.366    -0.342  0.9945 -0.1047  0.0088
              Bcc     0.0081     4.346     1.551     1.450  0.1048  0.9945 -0.0087
 
              Baa    -0.0074    -3.936    -1.405    -1.313 -0.0080  0.0095  0.9999
    17 H(1)   Bbb     0.0027     1.429     0.510     0.477  0.9734  0.2292  0.0056
              Bcc     0.0047     2.507     0.895     0.836 -0.2291  0.9733 -0.0111
 
              Baa    -0.0066    -3.523    -1.257    -1.175 -0.0039  0.9999 -0.0098
    18 H(1)   Bbb    -0.0041    -2.213    -0.790    -0.738 -0.0078  0.0098  0.9999
              Bcc     0.0108     5.737     2.047     1.914  1.0000  0.0040  0.0078
 
              Baa    -0.0110    -5.894    -2.103    -1.966 -0.0155  0.9998 -0.0093
    19 H(1)   Bbb    -0.0026    -1.366    -0.487    -0.456 -0.0080  0.0092  0.9999
              Bcc     0.0136     7.259     2.590     2.421  0.9998  0.0156  0.0078
 
              Baa    -0.0066    -3.525    -1.258    -1.176  0.8718 -0.4897  0.0113
    20 H(1)   Bbb    -0.0042    -2.214    -0.790    -0.739 -0.0079  0.0091  0.9999
              Bcc     0.0108     5.740     2.048     1.915  0.4898  0.8718 -0.0041
 
              Baa    -0.0074    -3.934    -1.404    -1.312 -0.0082  0.0089  0.9999
    21 H(1)   Bbb     0.0027     1.421     0.507     0.474  0.6783  0.7348 -0.0010
              Bcc     0.0047     2.513     0.897     0.838  0.7347 -0.6783  0.0121
 
              Baa    -1.0108   -41.443   -14.788   -13.824 -0.5065  0.8622 -0.0123
    22 S(33)  Bbb    -0.9716   -39.833   -14.213   -13.287  0.8622  0.5066  0.0020
              Bcc     1.9824    81.276    29.001    27.111 -0.0080  0.0096  0.9999
 
              Baa    -0.8684    62.838    22.422    20.961 -0.5067  0.8620 -0.0124
    23 O(17)  Bbb    -0.8484    61.387    21.904    20.476  0.8621  0.5068  0.0022
              Bcc     1.7168  -124.225   -44.327   -41.437 -0.0082  0.0096  0.9999
 

 ---------------------------------------------------------------------------------

 No NMR shielding tensors so no spin-rotation constants.
 Leave Link  601 at Tue Aug 18 13:45:25 2026, MaxMem=  2684354560 cpu:               0.5 elap:               0.5
 (Enter /mnt/data/applications/G16/g16/l9999.exe)
 1\1\GINC-KIMIK2194\FOpt\UB3LYP\Gen\C13H8O1S1(3)\ASOLE\18-Aug-2026\0\\#
 p opt freq b3lyp/gen EmpiricalDispersion=GD3BJ pseudo=read scrf=(solve
 nt=acetonitrile,pcm) nosymm pop=(Orbitals=20)\\Title Card Required\\0,
 3\C,-9.1420557223,-0.4123607375,0.0085166379\C,-7.7502608166,-0.470429
 3487,0.0200418778\C,-6.9985140222,0.7166116823,0.0145029811\C,-7.61183
 58951,2.0127957655,-0.0029023039\C,-9.0257114887,2.0266628781,-0.01416
 27335\C,-9.768177735,0.8487119386,-0.0085772482\C,-6.8792738391,3.2662
 43827,-0.0092323006\C,-5.427838185,3.2967973063,0.0025535842\C,-4.5935
 957571,2.1303849933,0.0202594868\C,-3.1908390146,2.2096742056,0.030738
 8827\H,-2.6009820562,1.2909693145,0.0440189168\C,-2.5644758535,3.45399
 01449,0.0241764101\C,-3.3617200128,4.6144976751,0.007104928\C,-4.75204
 38669,4.5388334251,-0.0033754775\H,-9.7313296942,-1.3292098139,0.01273
 44025\H,-7.2345770428,-1.4326537771,0.0333864914\H,-9.5134217343,3.000
 1984144,-0.0274098919\H,-10.8588755398,0.9069709351,-0.0176670951\H,-1
 .4767843834,3.5228305288,0.0321945468\H,-2.882180279,5.5958856432,0.00
 19448195\H,-5.3649471683,5.4387570673,-0.0165232101\S,-5.2607218419,0.
 5128641884,0.0303660037\O,-7.5331380512,4.3780937439,-0.0251097088\\Ve
 rsion=AM64L-G16RevA.03\HF=-973.652789\S2=2.007674\S2-1=0.\S2A=2.000031
 \RMSD=2.430e-09\RMSF=4.889e-05\Dipole=1.2681073,-2.1566216,0.0313621\Q
 uadrupole=-5.6933504,-2.5241729,8.2175233,38.7217024,-0.3042875,0.1024
 233\PG=C01 [X(C13H8O1S1)]\\@


 THE HURRIEDER I GO, THE BEHINDER I GET.
 Leave Link 9999 at Tue Aug 18 13:45:25 2026, MaxMem=  2684354560 cpu:               0.0 elap:               0.1
 Job cpu time:       0 days  1 hours 30 minutes 34.5 seconds.
 Elapsed time:       0 days  1 hours 30 minutes 42.6 seconds.
 File lengths (MBytes):  RWF=    123 Int=      0 D2E=      0 Chk=     10 Scr=      1
 Normal termination of Gaussian 16 at Tue Aug 18 13:45:26 2026.
 (Enter /mnt/data/applications/G16/g16/l1.exe)
 Link1:  Proceeding to internal job step number  2.
 ------------------------------------------------------------------
 #P Geom=AllCheck Guess=TCheck SCRF=Check GenChk UB3LYP/ChkBas Freq
 ------------------------------------------------------------------
 1/10=4,29=7,30=1,38=1,40=1/1,3;
 2/12=2,15=1,40=1/2;
 3/5=7,6=2,11=2,14=-4,16=1,17=8,25=1,30=1,67=1,70=2,71=2,74=-5,82=7,116=2,124=41,140=1/1,2,3;
 4/5=101/1;
 5/5=2,38=6,98=1/2;
 8/6=4,10=90,11=11/1;
 11/6=1,8=1,9=11,15=111,16=1,31=1/1,2,10;
 10/6=1,31=1/2;
 6/7=2,8=2,9=2,10=2,28=1/1;
 7/8=1,10=1,25=1,30=1/1,2,3,16;
 1/10=4,30=1/3;
 99//99;
 Leave Link    1 at Tue Aug 18 13:45:26 2026, MaxMem=  2684354560 cpu:               0.0 elap:               0.0
 (Enter /mnt/data/applications/G16/g16/l101.exe)
 Structure from the checkpoint file:  "TX_triplet.chk"
 -------------------
 Title Card Required
 -------------------
 Charge =  0 Multiplicity = 3
 Redundant internal coordinates found in file.  (old form).
 C,0,-9.1420557223,-0.4123607375,0.0085166379
 C,0,-7.7502608166,-0.4704293487,0.0200418778
 C,0,-6.9985140222,0.7166116823,0.0145029811
 C,0,-7.6118358951,2.0127957655,-0.0029023039
 C,0,-9.0257114887,2.0266628781,-0.0141627335
 C,0,-9.768177735,0.8487119386,-0.0085772482
 C,0,-6.8792738391,3.266243827,-0.0092323006
 C,0,-5.427838185,3.2967973063,0.0025535842
 C,0,-4.5935957571,2.1303849933,0.0202594868
 C,0,-3.1908390146,2.2096742056,0.0307388827
 H,0,-2.6009820562,1.2909693145,0.0440189168
 C,0,-2.5644758535,3.4539901449,0.0241764101
 C,0,-3.3617200128,4.6144976751,0.007104928
 C,0,-4.7520438669,4.5388334251,-0.0033754775
 H,0,-9.7313296942,-1.3292098139,0.0127344025
 H,0,-7.2345770428,-1.4326537771,0.0333864914
 H,0,-9.5134217343,3.0001984144,-0.0274098919
 H,0,-10.8588755398,0.9069709351,-0.0176670951
 H,0,-1.4767843834,3.5228305288,0.0321945468
 H,0,-2.882180279,5.5958856432,0.0019448195
 H,0,-5.3649471683,5.4387570673,-0.0165232101
 S,0,-5.2607218419,0.5128641884,0.0303660037
 O,0,-7.5331380512,4.3780937439,-0.0251097088
 Recover connectivity data from disk.
 ITRead=  0  0  0  0  0  0  0  0  0  0  0  0  0  0  0  0  0  0  0  0
 ITRead=  0  0  0
 MicOpt= -1 -1 -1 -1 -1 -1 -1 -1 -1 -1 -1 -1 -1 -1 -1 -1 -1 -1 -1 -1
 MicOpt= -1 -1 -1
 NAtoms=     23 NQM=       23 NQMF=       0 NMMI=      0 NMMIF=      0
                NMic=       0 NMicF=      0.
                    Isotopes and Nuclear Properties:
 (Nuclear quadrupole moments (NQMom) in fm**2, nuclear magnetic moments (NMagM)
  in nuclear magnetons)

  Atom         1           2           3           4           5           6           7           8           9          10
 IAtWgt=          12          12          12          12          12          12          12          12          12          12
 AtmWgt=  12.0000000  12.0000000  12.0000000  12.0000000  12.0000000  12.0000000  12.0000000  12.0000000  12.0000000  12.0000000
 NucSpn=           0           0           0           0           0           0           0           0           0           0
 AtZEff=   3.6000000   3.6000000   3.6000000   3.6000000   3.6000000   3.6000000   3.6000000   3.6000000   3.6000000   3.6000000
 NQMom=    0.0000000   0.0000000   0.0000000   0.0000000   0.0000000   0.0000000   0.0000000   0.0000000   0.0000000   0.0000000
 NMagM=    0.0000000   0.0000000   0.0000000   0.0000000   0.0000000   0.0000000   0.0000000   0.0000000   0.0000000   0.0000000
 AtZNuc=   6.0000000   6.0000000   6.0000000   6.0000000   6.0000000   6.0000000   6.0000000   6.0000000   6.0000000   6.0000000

  Atom        11          12          13          14          15          16          17          18          19          20
 IAtWgt=           1          12          12          12           1           1           1           1           1           1
 AtmWgt=   1.0078250  12.0000000  12.0000000  12.0000000   1.0078250   1.0078250   1.0078250   1.0078250   1.0078250   1.0078250
 NucSpn=           1           0           0           0           1           1           1           1           1           1
 AtZEff=   1.0000000   3.6000000   3.6000000   3.6000000   1.0000000   1.0000000   1.0000000   1.0000000   1.0000000   1.0000000
 NQMom=    0.0000000   0.0000000   0.0000000   0.0000000   0.0000000   0.0000000   0.0000000   0.0000000   0.0000000   0.0000000
 NMagM=    2.7928460   0.0000000   0.0000000   0.0000000   2.7928460   2.7928460   2.7928460   2.7928460   2.7928460   2.7928460
 AtZNuc=   1.0000000   6.0000000   6.0000000   6.0000000   1.0000000   1.0000000   1.0000000   1.0000000   1.0000000   1.0000000

  Atom        21          22          23
 IAtWgt=           1          32          16
 AtmWgt=   1.0078250  31.9720718  15.9949146
 NucSpn=           1           0           0
 AtZEff=   1.0000000  13.6000000   5.6000000
 NQMom=    0.0000000   0.0000000   0.0000000
 NMagM=    2.7928460   0.0000000   0.0000000
 AtZNuc=   1.0000000  16.0000000   8.0000000
 Leave Link  101 at Tue Aug 18 13:45:26 2026, MaxMem=  2684354560 cpu:               0.3 elap:               0.3
 (Enter /mnt/data/applications/G16/g16/l103.exe)

 GradGradGradGradGradGradGradGradGradGradGradGradGradGradGradGradGradGrad
 Berny optimization.
 Initialization pass.
                           ----------------------------
                           !    Initial Parameters    !
                           ! (Angstroms and Degrees)  !
 --------------------------                            --------------------------
 ! Name  Definition              Value          Derivative Info.                !
 --------------------------------------------------------------------------------
 ! R1    R(1,2)                  1.3931         calculate D2E/DX2 analytically  !
 ! R2    R(1,6)                  1.4081         calculate D2E/DX2 analytically  !
 ! R3    R(1,15)                 1.0899         calculate D2E/DX2 analytically  !
 ! R4    R(2,3)                  1.4051         calculate D2E/DX2 analytically  !
 ! R5    R(2,16)                 1.0918         calculate D2E/DX2 analytically  !
 ! R6    R(3,4)                  1.4341         calculate D2E/DX2 analytically  !
 ! R7    R(3,22)                 1.7498         calculate D2E/DX2 analytically  !
 ! R8    R(4,5)                  1.414          calculate D2E/DX2 analytically  !
 ! R9    R(4,7)                  1.4518         calculate D2E/DX2 analytically  !
 ! R10   R(5,6)                  1.3924         calculate D2E/DX2 analytically  !
 ! R11   R(5,17)                 1.0889         calculate D2E/DX2 analytically  !
 ! R12   R(6,18)                 1.0923         calculate D2E/DX2 analytically  !
 ! R13   R(7,8)                  1.4518         calculate D2E/DX2 analytically  !
 ! R14   R(7,23)                 1.29           calculate D2E/DX2 analytically  !
 ! R15   R(8,9)                  1.4342         calculate D2E/DX2 analytically  !
 ! R16   R(8,14)                 1.414          calculate D2E/DX2 analytically  !
 ! R17   R(9,10)                 1.405          calculate D2E/DX2 analytically  !
 ! R18   R(9,22)                 1.7497         calculate D2E/DX2 analytically  !
 ! R19   R(10,11)                1.0918         calculate D2E/DX2 analytically  !
 ! R20   R(10,12)                1.3931         calculate D2E/DX2 analytically  !
 ! R21   R(12,13)                1.4081         calculate D2E/DX2 analytically  !
 ! R22   R(12,19)                1.0899         calculate D2E/DX2 analytically  !
 ! R23   R(13,14)                1.3924         calculate D2E/DX2 analytically  !
 ! R24   R(13,20)                1.0923         calculate D2E/DX2 analytically  !
 ! R25   R(14,21)                1.0889         calculate D2E/DX2 analytically  !
 ! A1    A(2,1,6)              118.7967         calculate D2E/DX2 analytically  !
 ! A2    A(2,1,15)             120.3369         calculate D2E/DX2 analytically  !
 ! A3    A(6,1,15)             120.8665         calculate D2E/DX2 analytically  !
 ! A4    A(1,2,3)              119.9532         calculate D2E/DX2 analytically  !
 ! A5    A(1,2,16)             120.5803         calculate D2E/DX2 analytically  !
 ! A6    A(3,2,16)             119.4665         calculate D2E/DX2 analytically  !
 ! A7    A(2,3,4)              122.3321         calculate D2E/DX2 analytically  !
 ! A8    A(2,3,22)             115.6551         calculate D2E/DX2 analytically  !
 ! A9    A(4,3,22)             122.0128         calculate D2E/DX2 analytically  !
 ! A10   A(3,4,5)              115.8875         calculate D2E/DX2 analytically  !
 ! A11   A(3,4,7)              124.3745         calculate D2E/DX2 analytically  !
 ! A12   A(5,4,7)              119.738          calculate D2E/DX2 analytically  !
 ! A13   A(4,5,6)              121.6579         calculate D2E/DX2 analytically  !
 ! A14   A(4,5,17)             117.1745         calculate D2E/DX2 analytically  !
 ! A15   A(6,5,17)             121.1677         calculate D2E/DX2 analytically  !
 ! A16   A(1,6,5)              121.3727         calculate D2E/DX2 analytically  !
 ! A17   A(1,6,18)             119.465          calculate D2E/DX2 analytically  !
 ! A18   A(5,6,18)             119.1623         calculate D2E/DX2 analytically  !
 ! A19   A(4,7,8)              121.5057         calculate D2E/DX2 analytically  !
 ! A20   A(4,7,23)             119.238          calculate D2E/DX2 analytically  !
 ! A21   A(8,7,23)             119.2564         calculate D2E/DX2 analytically  !
 ! A22   A(7,8,9)              124.3699         calculate D2E/DX2 analytically  !
 ! A23   A(7,8,14)             119.753          calculate D2E/DX2 analytically  !
 ! A24   A(9,8,14)             115.8771         calculate D2E/DX2 analytically  !
 ! A25   A(8,9,10)             122.3405         calculate D2E/DX2 analytically  !
 ! A26   A(8,9,22)             122.0153         calculate D2E/DX2 analytically  !
 ! A27   A(10,9,22)            115.6443         calculate D2E/DX2 analytically  !
 ! A28   A(9,10,11)            119.4701         calculate D2E/DX2 analytically  !
 ! A29   A(9,10,12)            119.9513         calculate D2E/DX2 analytically  !
 ! A30   A(11,10,12)           120.5786         calculate D2E/DX2 analytically  !
 ! A31   A(10,12,13)           118.7931         calculate D2E/DX2 analytically  !
 ! A32   A(10,12,19)           120.3376         calculate D2E/DX2 analytically  !
 ! A33   A(13,12,19)           120.8693         calculate D2E/DX2 analytically  !
 ! A34   A(12,13,14)           121.3757         calculate D2E/DX2 analytically  !
 ! A35   A(12,13,20)           119.4711         calculate D2E/DX2 analytically  !
 ! A36   A(14,13,20)           119.1532         calculate D2E/DX2 analytically  !
 ! A37   A(8,14,13)            121.6623         calculate D2E/DX2 analytically  !
 ! A38   A(8,14,21)            117.1929         calculate D2E/DX2 analytically  !
 ! A39   A(13,14,21)           121.1448         calculate D2E/DX2 analytically  !
 ! A40   A(3,22,9)             105.7219         calculate D2E/DX2 analytically  !
 ! D1    D(6,1,2,3)             -0.0007         calculate D2E/DX2 analytically  !
 ! D2    D(6,1,2,16)           179.9998         calculate D2E/DX2 analytically  !
 ! D3    D(15,1,2,3)          -179.9995         calculate D2E/DX2 analytically  !
 ! D4    D(15,1,2,16)            0.001          calculate D2E/DX2 analytically  !
 ! D5    D(2,1,6,5)              0.0036         calculate D2E/DX2 analytically  !
 ! D6    D(2,1,6,18)          -179.9961         calculate D2E/DX2 analytically  !
 ! D7    D(15,1,6,5)          -179.9975         calculate D2E/DX2 analytically  !
 ! D8    D(15,1,6,18)            0.0028         calculate D2E/DX2 analytically  !
 ! D9    D(1,2,3,4)             -0.0028         calculate D2E/DX2 analytically  !
 ! D10   D(1,2,3,22)           179.9925         calculate D2E/DX2 analytically  !
 ! D11   D(16,2,3,4)           179.9967         calculate D2E/DX2 analytically  !
 ! D12   D(16,2,3,22)           -0.008          calculate D2E/DX2 analytically  !
 ! D13   D(2,3,4,5)              0.0032         calculate D2E/DX2 analytically  !
 ! D14   D(2,3,4,7)            179.9998         calculate D2E/DX2 analytically  !
 ! D15   D(22,3,4,5)          -179.9919         calculate D2E/DX2 analytically  !
 ! D16   D(22,3,4,7)             0.0048         calculate D2E/DX2 analytically  !
 ! D17   D(2,3,22,9)          -179.99           calculate D2E/DX2 analytically  !
 ! D18   D(4,3,22,9)             0.0053         calculate D2E/DX2 analytically  !
 ! D19   D(3,4,5,6)             -0.0002         calculate D2E/DX2 analytically  !
 ! D20   D(3,4,5,17)           179.9977         calculate D2E/DX2 analytically  !
 ! D21   D(7,4,5,6)           -179.997          calculate D2E/DX2 analytically  !
 ! D22   D(7,4,5,17)             0.0009         calculate D2E/DX2 analytically  !
 ! D23   D(3,4,7,8)             -0.027          calculate D2E/DX2 analytically  !
 ! D24   D(3,4,7,23)          -179.9967         calculate D2E/DX2 analytically  !
 ! D25   D(5,4,7,8)            179.9695         calculate D2E/DX2 analytically  !
 ! D26   D(5,4,7,23)            -0.0002         calculate D2E/DX2 analytically  !
 ! D27   D(4,5,6,1)             -0.0032         calculate D2E/DX2 analytically  !
 ! D28   D(4,5,6,18)           179.9965         calculate D2E/DX2 analytically  !
 ! D29   D(17,5,6,1)           179.999          calculate D2E/DX2 analytically  !
 ! D30   D(17,5,6,18)           -0.0013         calculate D2E/DX2 analytically  !
 ! D31   D(4,7,8,9)              0.0392         calculate D2E/DX2 analytically  !
 ! D32   D(4,7,8,14)          -179.9645         calculate D2E/DX2 analytically  !
 ! D33   D(23,7,8,9)          -179.9911         calculate D2E/DX2 analytically  !
 ! D34   D(23,7,8,14)            0.0052         calculate D2E/DX2 analytically  !
 ! D35   D(7,8,9,10)           179.9782         calculate D2E/DX2 analytically  !
 ! D36   D(7,8,9,22)            -0.0278         calculate D2E/DX2 analytically  !
 ! D37   D(14,8,9,10)           -0.0182         calculate D2E/DX2 analytically  !
 ! D38   D(14,8,9,22)          179.9759         calculate D2E/DX2 analytically  !
 ! D39   D(7,8,14,13)         -179.9817         calculate D2E/DX2 analytically  !
 ! D40   D(7,8,14,21)            0.0187         calculate D2E/DX2 analytically  !
 ! D41   D(9,8,14,13)            0.0148         calculate D2E/DX2 analytically  !
 ! D42   D(9,8,14,21)         -179.9847         calculate D2E/DX2 analytically  !
 ! D43   D(8,9,10,11)         -179.9923         calculate D2E/DX2 analytically  !
 ! D44   D(8,9,10,12)            0.0089         calculate D2E/DX2 analytically  !
 ! D45   D(22,9,10,11)           0.0133         calculate D2E/DX2 analytically  !
 ! D46   D(22,9,10,12)        -179.9855         calculate D2E/DX2 analytically  !
 ! D47   D(8,9,22,3)             0.0054         calculate D2E/DX2 analytically  !
 ! D48   D(10,9,22,3)          179.9999         calculate D2E/DX2 analytically  !
 ! D49   D(9,10,12,13)           0.0044         calculate D2E/DX2 analytically  !
 ! D50   D(9,10,12,19)        -179.9976         calculate D2E/DX2 analytically  !
 ! D51   D(11,10,12,13)       -179.9943         calculate D2E/DX2 analytically  !
 ! D52   D(11,10,12,19)          0.0036         calculate D2E/DX2 analytically  !
 ! D53   D(10,12,13,14)         -0.0077         calculate D2E/DX2 analytically  !
 ! D54   D(10,12,13,20)        179.9921         calculate D2E/DX2 analytically  !
 ! D55   D(19,12,13,14)        179.9943         calculate D2E/DX2 analytically  !
 ! D56   D(19,12,13,20)         -0.0058         calculate D2E/DX2 analytically  !
 ! D57   D(12,13,14,8)          -0.0024         calculate D2E/DX2 analytically  !
 ! D58   D(12,13,14,21)        179.9971         calculate D2E/DX2 analytically  !
 ! D59   D(20,13,14,8)         179.9977         calculate D2E/DX2 analytically  !
 ! D60   D(20,13,14,21)         -0.0028         calculate D2E/DX2 analytically  !
 --------------------------------------------------------------------------------
 Trust Radius=3.00D-01 FncErr=1.00D-07 GrdErr=1.00D-07 EigMax=2.50D+02 EigMin=1.00D-04
 Number of steps in this run=      2 maximum allowed number of steps=      2.
 GradGradGradGradGradGradGradGradGradGradGradGradGradGradGradGradGradGrad

 Leave Link  103 at Tue Aug 18 13:45:26 2026, MaxMem=  2684354560 cpu:               0.0 elap:               0.0
 (Enter /mnt/data/applications/G16/g16/l202.exe)
                          Input orientation:                          
 ---------------------------------------------------------------------
 Center     Atomic      Atomic             Coordinates (Angstroms)
 Number     Number       Type             X           Y           Z
 ---------------------------------------------------------------------
      1          6           0       -9.142056   -0.412361    0.008517
      2          6           0       -7.750261   -0.470429    0.020042
      3          6           0       -6.998514    0.716612    0.014503
      4          6           0       -7.611836    2.012796   -0.002902
      5          6           0       -9.025711    2.026663   -0.014163
      6          6           0       -9.768178    0.848712   -0.008577
      7          6           0       -6.879274    3.266244   -0.009232
      8          6           0       -5.427838    3.296797    0.002554
      9          6           0       -4.593596    2.130385    0.020259
     10          6           0       -3.190839    2.209674    0.030739
     11          1           0       -2.600982    1.290969    0.044019
     12          6           0       -2.564476    3.453990    0.024176
     13          6           0       -3.361720    4.614498    0.007105
     14          6           0       -4.752044    4.538833   -0.003375
     15          1           0       -9.731330   -1.329210    0.012734
     16          1           0       -7.234577   -1.432654    0.033386
     17          1           0       -9.513422    3.000198   -0.027410
     18          1           0      -10.858876    0.906971   -0.017667
     19          1           0       -1.476784    3.522831    0.032195
     20          1           0       -2.882180    5.595886    0.001945
     21          1           0       -5.364947    5.438757   -0.016523
     22         16           0       -5.260722    0.512864    0.030366
     23          8           0       -7.533138    4.378094   -0.025110
 ---------------------------------------------------------------------
                    Distance matrix (angstroms):
                    1          2          3          4          5
     1  C    0.000000
     2  C    1.393053   0.000000
     3  C    2.422681   1.405070   0.000000
     4  C    2.867593   2.487186   1.434071   0.000000
     5  C    2.441902   2.804178   2.413832   1.413988   0.000000
     6  C    1.408057   2.411004   2.772908   2.450497   1.392428
     7  C    4.318869   3.836952   2.552529   1.451833   2.478665
     8  C    5.249124   4.425602   3.020683   2.533483   3.815523
     9  C    5.210967   4.090082   2.789699   3.020619   4.433463
    10  C    6.503272   5.288799   4.089974   4.425506   5.837915
    11  H    6.759308   5.442258   4.434980   5.062795   6.466976
    12  C    7.629775   6.503342   5.210953   5.249154   6.617122
    13  C    7.660391   6.716840   5.331026   4.983216   6.227210
    14  C    6.617150   5.838028   4.433546   3.815662   4.957353
    15  H    1.089896   2.159211   3.413747   3.957461   3.429359
    16  H    2.163352   1.091780   2.162273   3.466232   3.895805
    17  H    3.432894   3.893102   3.397247   2.142800   1.088948
    18  H    2.165362   3.400315   3.865186   3.430209   2.148072
    19  H    8.616419   7.436584   6.193922   6.318251   7.695906
    20  H    8.676699   7.778092   6.383704   5.933650   7.105110
    21  H    6.964392   6.372562   4.996815   4.097061   5.004357
    22  S    3.990147   2.676710   1.749768   2.789021   4.058167
    23  O    5.053534   4.853592   3.700519   2.366711   2.785161
                    6          7          8          9         10
     6  C    0.000000
     7  C    3.766992   0.000000
     8  C    4.983151   1.451805   0.000000
     9  C    5.331024   2.552522   1.434152   0.000000
    10  C    6.716781   3.836990   2.487327   1.405035   0.000000
    11  H    7.181020   4.712571   3.466436   2.162335   1.091845
    12  C    7.660409   4.319010   2.867755   2.422658   1.393089
    13  C    7.431291   3.767126   2.450551   2.772816   2.411003
    14  C    6.227248   2.478836   1.413997   2.413771   2.804195
    15  H    2.178338   5.408595   6.318234   6.193962   7.436534
    16  H    3.409622   4.712504   5.062901   4.435110   5.442277
    17  H    2.166599   2.647611   4.096445   4.996352   6.372077
    18  H    1.092290   4.626388   5.933620   6.383722   7.778057
    19  H    8.712048   5.408738   3.957625   3.413731   2.159251
    20  H    8.363775   4.626458   3.430187   3.865097   3.400372
    21  H    6.360583   2.648217   2.142968   3.397302   3.893065
    22  S    4.520118   3.194116   2.789083   1.749724   2.676486
    23  O    4.177584   1.289962   2.366908   3.700697   4.853939
                   11         12         13         14         15
    11  H    0.000000
    12  C    2.163420   0.000000
    13  C    3.409681   1.408072   0.000000
    14  C    3.895887   2.441946   1.392421   0.000000
    15  H    7.596590   8.616434   8.712039   7.695939   0.000000
    16  H    5.374797   6.759380   7.181069   6.467069   2.498980
    17  H    7.120982   6.963938   6.360078   5.003868   4.335075
    18  H    8.267047   8.676758   8.363833   7.105211   2.504553
    19  H    2.499033   1.089897   2.178382   3.429410   9.574977
    20  H    4.314296   2.165444   1.092295   2.147971   9.740016
    21  H    4.984708   3.432724   2.166306   1.088892   8.054286
    22  S    2.771254   3.989988   4.519972   4.058118   4.835275
    23  O    5.819044   5.054107   4.178236   2.785820   6.116109
                   16         17         18         19         20
    16  H    0.000000
    17  H    4.984677   0.000000
    18  H    4.314162   2.488361   0.000000
    19  H    7.596644   8.053834   9.740064   0.000000
    20  H    8.267086   7.121223   9.252782   2.504718   0.000000
    21  H    7.121397   4.812123   7.121821   4.334854   2.487803
    22  S    2.771489   4.927030   5.612215   4.835089   5.612074
    23  O    5.818707   2.412493   4.807211   6.116713   4.807823
                   21         22         23
    21  H    0.000000
    22  S    4.927219   0.000000
    23  O    2.413738   4.484078   0.000000
 Symmetry turned off by external request.
 Stoichiometry    C13H8OS(3)
 Framework group  C1[X(C13H8OS)]
 Deg. of freedom    63
 Full point group                 C1      NOp   1
 Rotational constants (GHZ):           1.2153855           0.4223181           0.3134141
 Leave Link  202 at Tue Aug 18 13:45:26 2026, MaxMem=  2684354560 cpu:               0.0 elap:               0.0
 (Enter /mnt/data/applications/G16/g16/l301.exe)
 Basis read from chk: "TX_triplet.chk" (5D, 7F)
 Pseudo-potential data read from chk file.
   254 basis functions,   589 primitive gaussians,   269 cartesian basis functions
    56 alpha electrons       54 beta electrons
       nuclear repulsion energy       990.5043955828 Hartrees.
 IExCor=  402 DFT=T Ex+Corr=B3LYP ExCW=0 ScaHFX=  0.200000
 ScaDFX=  0.800000  0.720000  1.000000  0.810000 ScalE2=  1.000000  1.000000
 IRadAn=      5 IRanWt=     -1 IRanGd=            0 ICorTp=0 IEmpDi=141
 NAtoms=   23 NActive=   23 NUniq=   23 SFac= 1.00D+00 NAtFMM=   60 NAOKFM=F Big=F
 Integral buffers will be    131072 words long.
 Raffenetti 2 integral format.
 Two-electron integral symmetry is turned off.
 R6Disp:  Grimme-D3(BJ) Dispersion energy=       -0.0580984193 Hartrees.
 Nuclear repulsion after empirical dispersion term =      990.4462971635 Hartrees.
 No density basis found on file 20724.
 Force inversion solution in PCM.
 ------------------------------------------------------------------------------
 Polarizable Continuum Model (PCM)
 =================================
 Model                : PCM.
 Atomic radii         : UFF (Universal Force Field).
 Polarization charges : Total charges.
 Charge compensation  : None.
 Solution method      : Matrix inversion.
 Cavity type          : Scaled VdW (van der Waals Surface) (Alpha=1.100).
 Cavity algorithm     : GePol (No added spheres)
                        Default sphere list used, NSphG=   23.
                        Lebedev-Laikov grids with approx.  5.0 points / Ang**2.
                        Smoothing algorithm: York/Karplus (Gamma=1.0000).
                        Polarization charges: spherical gaussians, with
                                              point-specific exponents (IZeta= 3).
                        Self-potential: point-specific (ISelfS= 7).
                        Self-field    : sphere-specific E.n sum rule (ISelfD= 2).
 1st derivatives      : Analytical E(r).r(x)/FMM algorithm (CHGder, D1EAlg=3).
                        Cavity 1st derivative terms included.
 2nd derivatives      : Analytical E(r).r(xy)/FMM algorithm (CHGder, D2EAlg=3).
                        Cavity 2nd derivative terms included.
 Solvent              : Acetonitrile, Eps=  35.688000 Eps(inf)=   1.806874
 ------------------------------------------------------------------------------
 GePol: Number of generator spheres                  =      23
 GePol: Total number of spheres                      =      23
 GePol: Number of exposed spheres                    =      23 (100.00%)
 GePol: Number of points                             =    1988
 GePol: Average weight of points                     =       0.13
 GePol: Minimum weight of points                     =   0.12D-11
 GePol: Maximum weight of points                     =    0.20577
 GePol: Number of points with low weight             =      97
 GePol: Fraction of low-weight points (<1% of avg)   =       4.88%
 GePol: Cavity surface area                          =    256.571 Ang**2
 GePol: Cavity volume                                =    277.431 Ang**3
 Leave Link  301 at Tue Aug 18 13:45:26 2026, MaxMem=  2684354560 cpu:               0.1 elap:               0.1
 (Enter /mnt/data/applications/G16/g16/l302.exe)
 NPDir=0 NMtPBC=     1 NCelOv=     1 NCel=       1 NClECP=     1 NCelD=      1
         NCelK=      1 NCelE2=     1 NClLst=     1 CellRange=     0.0.
 One-electron integrals computed using PRISM.
   1 Symmetry operations used in ECPInt.
 ECPInt:  NShTT=    6786 NPrTT=   65756 LenC2=    6456 LenP2D=   34284.
 LDataN:  DoStor=T MaxTD1= 4 Len=   56
 NBasis=   254 RedAO= T EigKep=  2.46D-04  NBF=   254
 NBsUse=   254 1.00D-06 EigRej= -1.00D+00 NBFU=   254
 Precomputing XC quadrature grid using
 IXCGrd= 4 IRadAn=           5 IRanWt=          -1 IRanGd=           0 AccXCQ= 0.00D+00.
 Generated NRdTot=       0 NPtTot=           0 NUsed=           0 NTot=          32
 NSgBfM=   268   268   268   268   268 MxSgAt=    23 MxSgA2=    23.
 Leave Link  302 at Tue Aug 18 13:45:27 2026, MaxMem=  2684354560 cpu:               1.1 elap:               1.2
 (Enter /mnt/data/applications/G16/g16/l303.exe)
 DipDrv:  MaxL=1.
 Leave Link  303 at Tue Aug 18 13:45:27 2026, MaxMem=  2684354560 cpu:               0.1 elap:               0.1
 (Enter /mnt/data/applications/G16/g16/l401.exe)
 Initial guess from the checkpoint file:  "TX_triplet.chk"
 B after Tr=     0.000000    0.000000    0.000000
         Rot=    1.000000    0.000000    0.000000    0.000000 Ang=   0.00 deg.
 Guess basis will be translated and rotated to current coordinates.
 JPrj=2 DoOrth=T DoCkMO=T.
 Initial guess <Sx>= 0.0000 <Sy>= 0.0000 <Sz>= 1.0000 <S**2>= 2.0077 S= 1.0026
 Leave Link  401 at Tue Aug 18 13:45:28 2026, MaxMem=  2684354560 cpu:               0.3 elap:               0.3
 (Enter /mnt/data/applications/G16/g16/l502.exe)
 Keep R1 and R2 ints in memory in canonical form, NReq=1058662964.
 FoFCou: FMM=F IPFlag=           0 FMFlag=           0 FMFlg1=           0
         NFxFlg=           0 DoJE=F BraDBF=F KetDBF=F FulRan=T
         wScrn=  0.000000 ICntrl=       600 IOpCl=  0 I1Cent=           0 NGrid=           0
         NMat0=    1 NMatS0=  32385 NMatT0=    0 NMatD0=    1 NMtDS0=    0 NMtDT0=    0
 Symmetry not used in FoFCou.
 Two-electron integral symmetry not used.
 UHF open shell SCF:
 Using DIIS extrapolation, IDIIS=  1040.
 NGot=  2684354560 LenX=  1635385430 LenY=  1635312628
 Requested convergence on RMS density matrix=1.00D-08 within 128 cycles.
 Requested convergence on MAX density matrix=1.00D-06.
 Requested convergence on             energy=1.00D-06.
 No special actions if energy rises.

 Cycle   1  Pass 1  IDiag  1:
 Inv3:  Mode=1 IEnd=    11856432.
 Iteration    1 A*A^-1 deviation from unit magnitude is 1.78D-15 for     81.
 Iteration    1 A*A^-1 deviation from orthogonality  is 1.23D-15 for   1264    163.
 Iteration    1 A^-1*A deviation from unit magnitude is 1.55D-15 for     81.
 Iteration    1 A^-1*A deviation from orthogonality  is 1.23D-15 for   1405    544.
 E= -973.652788974330    
 DIIS: error= 6.46D-09 at cycle   1 NSaved=   1.
 NSaved= 1 IEnMin= 1 EnMin= -973.652788974330     IErMin= 1 ErrMin= 6.46D-09
 ErrMax= 6.46D-09  0.00D+00 EMaxC= 1.00D-01 BMatC= 1.24D-14 BMatP= 1.24D-14
 IDIUse=1 WtCom= 1.00D+00 WtEn= 0.00D+00
 Coeff-Com:  0.100D+01
 Coeff:      0.100D+01
 Gap=     0.083 Goal=   None    Shift=    0.000
 Gap=     0.063 Goal=   None    Shift=    0.000
 RMSDP=9.01D-10 MaxDP=3.24D-08              OVMax= 1.44D-07

 Error on total polarization charges =  0.01277
 SCF Done:  E(UB3LYP) =  -973.652788974     A.U. after    1 cycles
            NFock=  1  Conv=0.90D-09     -V/T= 2.0049
 <Sx>= 0.0000 <Sy>= 0.0000 <Sz>= 1.0000 <S**2>= 2.0077 S= 1.0026
 <L.S>= 0.000000000000E+00
 KE= 9.688936165912D+02 PE=-4.264403516264D+03 EE= 1.331410813535D+03
 Annihilation of the first spin contaminant:
 S**2 before annihilation     2.0077,   after     2.0000
 Leave Link  502 at Tue Aug 18 13:47:16 2026, MaxMem=  2684354560 cpu:             108.6 elap:             108.7
 (Enter /mnt/data/applications/G16/g16/l801.exe)
 DoSCS=F DFT=T ScalE2(SS,OS)=  1.000000  1.000000
 Range of M.O.s used for correlation:     1   254
 NBasis=   254 NAE=    56 NBE=    54 NFC=     0 NFV=     0
 NROrb=    254 NOA=    56 NOB=    54 NVA=   198 NVB=   200

 **** Warning!!: The largest alpha MO coefficient is  0.13890034D+02


 **** Warning!!: The smallest alpha delta epsilon is  0.83451209D-01


 **** Warning!!: The largest beta MO coefficient is  0.14060433D+02


 **** Warning!!: The smallest beta delta epsilon is  0.62607341D-01

 Leave Link  801 at Tue Aug 18 13:47:17 2026, MaxMem=  2684354560 cpu:               0.0 elap:               0.0
 (Enter /mnt/data/applications/G16/g16/l1101.exe)
 Using compressed storage, NAtomX=    23.
 Will process     24 centers per pass.
   1 Symmetry operations used in ECPInt.
 ECPInt:  NShTT=    6786 NPrTT=   65756 LenC2=    6456 LenP2D=   34284.
 LDataN:  DoStor=T MaxTD1= 5 Len=  102
 R6Disp: Adding Grimme-D3(BJ) dispersion energy 1st derivatives to the gradient.
 Leave Link 1101 at Tue Aug 18 13:47:18 2026, MaxMem=  2684354560 cpu:               0.4 elap:               0.4
 (Enter /mnt/data/applications/G16/g16/l1102.exe)
 Symmetrizing basis deriv contribution to polar:
 IMax=3 JMax=2 DiffMx= 0.00D+00
 Leave Link 1102 at Tue Aug 18 13:47:18 2026, MaxMem=  2684354560 cpu:               0.1 elap:               0.1
 (Enter /mnt/data/applications/G16/g16/l1110.exe)
 Forming Gx(P) for the SCF density, NAtomX=    23.
 Integral derivatives from FoFJK, PRISM(SPDF).
 Do as many integral derivatives as possible in FoFJK.
 G2DrvN: MDV=    2684352814.
 G2DrvN: will do    24 centers at a time, making    1 passes.
 Calling FoFCou, ICntrl=  3107 FMM=F I1Cent=   0 AccDes= 0.00D+00.
 FoFJK:  IHMeth= 1 ICntrl=    3107 DoSepK=F KAlg= 0 I1Cent=           0 FoldK=F
 IRaf=         0 NMat=       1 IRICut=       1 DoRegI=T DoRafI=F ISym2E= 0 IDoP0=0 IntGTp=1.
 FoFCou: FMM=F IPFlag=           0 FMFlag=      100000 FMFlg1=           0
         NFxFlg=           0 DoJE=F BraDBF=F KetDBF=F FulRan=T
         wScrn=  0.000000 ICntrl=      3107 IOpCl=  1 I1Cent=           0 NGrid=           0
         NMat0=    1 NMatS0=      1 NMatT0=    0 NMatD0=    1 NMtDS0=    0 NMtDT0=    0
 Symmetry not used in FoFCou.
 NEqPCM:  Using equilibrium solvation (IEInf=0, Eps=  35.6880, EpsInf=   1.8069)
 G2PCM: DoFxE=T DoFxN=T DoGrad=T DoDP/DQ/DG/TGxP=FFFF NFrqRd=   0 IEInf=0 SqF1=F DoCFld=F IF1Alg=4.
 GePol: Maximum number of non-zero 1st derivatives   =     242
 End of G2Drv F.D. properties file   721 does not exist.
 End of G2Drv F.D. properties file   722 does not exist.
 End of G2Drv F.D. properties file   788 does not exist.
 Leave Link 1110 at Tue Aug 18 14:19:34 2026, MaxMem=  2684354560 cpu:            1932.7 elap:            1935.5
 (Enter /mnt/data/applications/G16/g16/l1002.exe)
 Minotr:  UHF open shell wavefunction.
          IDoAtm=11111111111111111111111
 NEqPCM:  Using equilibrium solvation (IEInf=0, Eps=  35.6880, EpsInf=   1.8069)
          Direct CPHF calculation.
          Differentiating once with respect to electric field.
                with respect to dipole field.
          Differentiating once with respect to nuclear coordinates.
          Requested convergence is 1.0D-08 RMS, and 1.0D-07 maximum.
          Secondary convergence is 1.0D-12 RMS, and 1.0D-12 maximum.
          NewPWx=T KeepS1=F KeepF1=F KeepIn=T MapXYZ=F SortEE=F KeepMc=T.
         6911 words used for storage of precomputed grid.
 Keep R1 and R2 ints in memory in canonical form, NReq=1059320040.
 FoFCou: FMM=F IPFlag=           0 FMFlag=           0 FMFlg1=           0
         NFxFlg=           0 DoJE=F BraDBF=F KetDBF=F FulRan=T
         wScrn=  0.000000 ICntrl=       600 IOpCl=  0 I1Cent=           0 NGrid=           0
         NMat0=    1 NMatS0=  32385 NMatT0=    0 NMatD0=    1 NMtDS0=    0 NMtDT0=    0
 Symmetry not used in FoFCou.
 Two-electron integral symmetry not used.
          MDV=    2684354560 using IRadAn=       1.
          Solving linear equations simultaneously, MaxMat=       0.
          There are    72 degrees of freedom in the 1st order CPHF.  IDoFFX=6 NUNeed=     3.
     69 vectors produced by pass  0 Test12= 3.04D-14 1.39D-09 XBig12= 2.46D+03 2.26D+01.
 AX will form    69 AO Fock derivatives at one time.
     69 vectors produced by pass  1 Test12= 3.04D-14 1.39D-09 XBig12= 3.07D+02 3.12D+00.
     69 vectors produced by pass  2 Test12= 3.04D-14 1.39D-09 XBig12= 1.13D+01 5.17D-01.
     69 vectors produced by pass  3 Test12= 3.04D-14 1.39D-09 XBig12= 1.62D-01 5.50D-02.
     69 vectors produced by pass  4 Test12= 3.04D-14 1.39D-09 XBig12= 7.65D-04 3.09D-03.
     69 vectors produced by pass  5 Test12= 3.04D-14 1.39D-09 XBig12= 4.03D-06 1.90D-04.
     59 vectors produced by pass  6 Test12= 3.04D-14 1.39D-09 XBig12= 1.56D-08 1.08D-05.
     28 vectors produced by pass  7 Test12= 3.04D-14 1.39D-09 XBig12= 5.57D-11 6.97D-07.
      3 vectors produced by pass  8 Test12= 3.04D-14 1.39D-09 XBig12= 1.86D-13 3.76D-08.
      2 vectors produced by pass  9 Test12= 3.04D-14 1.39D-09 XBig12= 6.97D-16 2.12D-09.
 InvSVY:  IOpt=1 It=  1 EMax= 7.11D-15
 Solved reduced A of dimension   506 with    72 vectors.
 FullF1:  Do perturbations      1 to       3.
 Isotropic polarizability for W=    0.000000      325.93 Bohr**3.
 End of Minotr F.D. properties file   721 does not exist.
 End of Minotr F.D. properties file   722 does not exist.
 End of Minotr F.D. properties file   788 does not exist.
 Leave Link 1002 at Tue Aug 18 14:58:09 2026, MaxMem=  2684354560 cpu:            2312.1 elap:            2315.4
 (Enter /mnt/data/applications/G16/g16/l601.exe)
 Copying SCF densities to generalized density rwf, IOpCl= 1 IROHF=0.

 **********************************************************************

            Population analysis using the SCF density.

 **********************************************************************

 Alpha  occ. eigenvalues --  -88.95599 -19.11219 -10.25003 -10.25002 -10.23435
 Alpha  occ. eigenvalues --  -10.22085 -10.22083 -10.21658 -10.21657 -10.21315
 Alpha  occ. eigenvalues --  -10.21315 -10.20153 -10.20153 -10.19723 -10.19723
 Alpha  occ. eigenvalues --   -8.01743  -5.97959  -5.97823  -5.97527  -1.00265
 Alpha  occ. eigenvalues --   -0.90706  -0.87605  -0.83259  -0.78635  -0.77384
 Alpha  occ. eigenvalues --   -0.76532  -0.72807  -0.66535  -0.63761  -0.61204
 Alpha  occ. eigenvalues --   -0.60258  -0.56162  -0.54563  -0.49935  -0.47890
 Alpha  occ. eigenvalues --   -0.47807  -0.47603  -0.44739  -0.44052  -0.44004
 Alpha  occ. eigenvalues --   -0.43016  -0.41435  -0.40124  -0.39299  -0.38502
 Alpha  occ. eigenvalues --   -0.38373  -0.36688  -0.35549  -0.34466  -0.34347
 Alpha  occ. eigenvalues --   -0.28743  -0.27940  -0.27496  -0.25397  -0.24719
 Alpha  occ. eigenvalues --   -0.13284
 Alpha virt. eigenvalues --   -0.04939  -0.02739  -0.02666   0.01246   0.04064
 Alpha virt. eigenvalues --    0.05091   0.07989   0.08324   0.10161   0.10584
 Alpha virt. eigenvalues --    0.12018   0.12757   0.14429   0.14769   0.15208
 Alpha virt. eigenvalues --    0.16442   0.19618   0.22825   0.23978   0.25147
 Alpha virt. eigenvalues --    0.27925   0.28168   0.28684   0.31200   0.31386
 Alpha virt. eigenvalues --    0.33255   0.38662   0.39372   0.40082   0.40648
 Alpha virt. eigenvalues --    0.41995   0.42939   0.43894   0.44323   0.45898
 Alpha virt. eigenvalues --    0.46075   0.46788   0.47425   0.47779   0.47851
 Alpha virt. eigenvalues --    0.48024   0.48975   0.49754   0.49763   0.50511
 Alpha virt. eigenvalues --    0.50711   0.51115   0.51936   0.51949   0.55344
 Alpha virt. eigenvalues --    0.55441   0.55770   0.57270   0.58212   0.60110
 Alpha virt. eigenvalues --    0.61379   0.61638   0.62541   0.63209   0.63241
 Alpha virt. eigenvalues --    0.63798   0.65628   0.65672   0.66287   0.68704
 Alpha virt. eigenvalues --    0.70136   0.70570   0.72161   0.73954   0.75217
 Alpha virt. eigenvalues --    0.75227   0.79020   0.82503   0.82890   0.85069
 Alpha virt. eigenvalues --    0.86872   0.87043   0.87271   0.89255   0.89310
 Alpha virt. eigenvalues --    0.90760   0.91006   0.91921   0.93011   0.95830
 Alpha virt. eigenvalues --    0.96453   0.96562   0.97752   0.98674   0.99714
 Alpha virt. eigenvalues --    1.01158   1.01430   1.02193   1.03476   1.03492
 Alpha virt. eigenvalues --    1.04744   1.04777   1.06860   1.07700   1.12475
 Alpha virt. eigenvalues --    1.14011   1.15673   1.16337   1.18804   1.19662
 Alpha virt. eigenvalues --    1.19870   1.27285   1.29847   1.31543   1.33940
 Alpha virt. eigenvalues --    1.35063   1.36663   1.39325   1.43159   1.45328
 Alpha virt. eigenvalues --    1.46094   1.46356   1.47015   1.47282   1.48907
 Alpha virt. eigenvalues --    1.49334   1.50109   1.50288   1.51371   1.53350
 Alpha virt. eigenvalues --    1.58090   1.60168   1.60569   1.60635   1.62813
 Alpha virt. eigenvalues --    1.62932   1.63886   1.64546   1.65810   1.66933
 Alpha virt. eigenvalues --    1.67014   1.69392   1.69435   1.72068   1.72455
 Alpha virt. eigenvalues --    1.74697   1.75487   1.76784   1.77302   1.77800
 Alpha virt. eigenvalues --    1.77913   1.78715   1.79724   1.82233   1.82603
 Alpha virt. eigenvalues --    1.83382   1.85109   1.85110   1.86419   1.90367
 Alpha virt. eigenvalues --    1.90820   1.92987   1.94646   1.95666   1.96152
 Alpha virt. eigenvalues --    1.99124   1.99615   2.01505   2.06912   2.07769
 Alpha virt. eigenvalues --    2.13031   2.15392   2.15639   2.17707   2.19002
 Alpha virt. eigenvalues --    2.20768   2.22821   2.27889   2.35652   2.35675
 Alpha virt. eigenvalues --    2.37034   2.38365   2.42062   2.43411   2.45684
 Alpha virt. eigenvalues --    2.53782   2.55913   2.63494   2.64366   2.68742
 Alpha virt. eigenvalues --    2.69423   2.71407   2.73826   2.75595   2.76209
 Alpha virt. eigenvalues --    2.81139   2.81946   2.95943   3.01926   3.31804
 Alpha virt. eigenvalues --    3.41726   3.43890   3.54066
  Beta  occ. eigenvalues --  -88.95333 -19.10076 -10.24801 -10.24800 -10.23103
  Beta  occ. eigenvalues --  -10.22000 -10.21998 -10.21625 -10.21624 -10.21211
  Beta  occ. eigenvalues --  -10.21211 -10.19977 -10.19977 -10.19608 -10.19608
  Beta  occ. eigenvalues --   -8.01471  -5.97795  -5.97374  -5.96942  -0.98042
  Beta  occ. eigenvalues --   -0.89904  -0.87135  -0.82543  -0.77855  -0.76943
  Beta  occ. eigenvalues --   -0.76040  -0.71949  -0.65746  -0.63387  -0.60881
  Beta  occ. eigenvalues --   -0.59613  -0.55625  -0.54323  -0.49485  -0.47603
  Beta  occ. eigenvalues --   -0.47573  -0.47412  -0.44525  -0.43857  -0.42773
  Beta  occ. eigenvalues --   -0.41910  -0.40524  -0.39739  -0.37996  -0.37937
  Beta  occ. eigenvalues --   -0.36511  -0.35343  -0.34387  -0.33935  -0.32136
  Beta  occ. eigenvalues --   -0.27049  -0.26117  -0.24606  -0.24311
  Beta virt. eigenvalues --   -0.18050  -0.05957  -0.03525  -0.01232  -0.01120
  Beta virt. eigenvalues --    0.01615   0.05639   0.06629   0.08079   0.08859
  Beta virt. eigenvalues --    0.10217   0.10658   0.12937   0.13292   0.14590
  Beta virt. eigenvalues --    0.14907   0.15330   0.18487   0.19851   0.23226
  Beta virt. eigenvalues --    0.24389   0.25438   0.28078   0.28556   0.28871
  Beta virt. eigenvalues --    0.31657   0.31686   0.33741   0.39000   0.39561
  Beta virt. eigenvalues --    0.40630   0.40975   0.43045   0.43633   0.45134
  Beta virt. eigenvalues --    0.45384   0.46231   0.46418   0.47922   0.48125
  Beta virt. eigenvalues --    0.48127   0.48345   0.48369   0.49369   0.50017
  Beta virt. eigenvalues --    0.50848   0.50892   0.51135   0.51527   0.52290
  Beta virt. eigenvalues --    0.52663   0.55600   0.56192   0.56556   0.57442
  Beta virt. eigenvalues --    0.59167   0.60693   0.62456   0.62648   0.63105
  Beta virt. eigenvalues --    0.63291   0.63501   0.64084   0.65767   0.66456
  Beta virt. eigenvalues --    0.66607   0.69063   0.70324   0.70727   0.72693
  Beta virt. eigenvalues --    0.74613   0.75374   0.75542   0.79920   0.82955
  Beta virt. eigenvalues --    0.83118   0.85226   0.87492   0.87652   0.87905
  Beta virt. eigenvalues --    0.89502   0.90003   0.90975   0.91628   0.92142
  Beta virt. eigenvalues --    0.93276   0.96012   0.96959   0.97260   0.98067
  Beta virt. eigenvalues --    0.99086   1.01149   1.01469   1.01838   1.02740
  Beta virt. eigenvalues --    1.04019   1.04136   1.04956   1.06724   1.07037
  Beta virt. eigenvalues --    1.07978   1.14300   1.14430   1.16437   1.16550
  Beta virt. eigenvalues --    1.19561   1.20045   1.20713   1.27549   1.30106
  Beta virt. eigenvalues --    1.31965   1.34322   1.35450   1.37095   1.40398
  Beta virt. eigenvalues --    1.44029   1.45873   1.46504   1.46517   1.47297
  Beta virt. eigenvalues --    1.47634   1.49285   1.49548   1.50339   1.50946
  Beta virt. eigenvalues --    1.51849   1.53583   1.58262   1.60636   1.60750
  Beta virt. eigenvalues --    1.60774   1.63107   1.63163   1.64102   1.64775
  Beta virt. eigenvalues --    1.66109   1.67129   1.67411   1.69696   1.69769
  Beta virt. eigenvalues --    1.72752   1.72859   1.75006   1.76024   1.77340
  Beta virt. eigenvalues --    1.77529   1.78167   1.78591   1.78990   1.80010
  Beta virt. eigenvalues --    1.82438   1.82773   1.83963   1.85253   1.85263
  Beta virt. eigenvalues --    1.86577   1.90588   1.91204   1.93324   1.95080
  Beta virt. eigenvalues --    1.96288   1.96433   1.99386   1.99968   2.01715
  Beta virt. eigenvalues --    2.07282   2.07969   2.13855   2.15943   2.16232
  Beta virt. eigenvalues --    2.18583   2.19642   2.21103   2.23524   2.28077
  Beta virt. eigenvalues --    2.35905   2.35936   2.37170   2.38461   2.42274
  Beta virt. eigenvalues --    2.44106   2.45929   2.54000   2.56157   2.63743
  Beta virt. eigenvalues --    2.64650   2.69619   2.71529   2.72160   2.74929
  Beta virt. eigenvalues --    2.75794   2.78013   2.81262   2.82188   2.97143
  Beta virt. eigenvalues --    3.05244   3.32206   3.41926   3.45189   3.54339
          Condensed to atoms (all electrons):
               1          2          3          4          5          6
     1  C    4.787668   0.491779   0.005656  -0.074669   0.010909   0.439757
     2  C    0.491779   4.743386   0.449005   0.006325  -0.077314   0.014983
     3  C    0.005656   0.449005   5.469373   0.287009  -0.051606  -0.084369
     4  C   -0.074669   0.006325   0.287009   5.425100   0.344654   0.015367
     5  C    0.010909  -0.077314  -0.051606   0.344654   5.004251   0.413832
     6  C    0.439757   0.014983  -0.084369   0.015367   0.413832   4.818791
     7  C   -0.000676   0.007589  -0.058899   0.156521  -0.081411   0.015074
     8  C    0.000067  -0.000547  -0.058637  -0.003103   0.025935  -0.000593
     9  C   -0.000149   0.001835  -0.003687  -0.058641  -0.000023   0.000089
    10  C    0.000001  -0.000241   0.001836  -0.000548   0.000047   0.000001
    11  H   -0.000000  -0.000009   0.000435   0.000026  -0.000002   0.000000
    12  C    0.000000   0.000001  -0.000149   0.000067   0.000001  -0.000000
    13  C   -0.000000   0.000001   0.000089  -0.000592  -0.000007   0.000000
    14  C    0.000001   0.000047  -0.000024   0.025944  -0.001095  -0.000007
    15  H    0.397144  -0.044098   0.010660   0.000042   0.009220  -0.049654
    16  H   -0.043898   0.392613  -0.050157   0.011617  -0.000554   0.009673
    17  H    0.010679  -0.001175   0.015421  -0.053028   0.393405  -0.057214
    18  H   -0.051916   0.009602   0.000440   0.009580  -0.041208   0.393243
    19  H    0.000000  -0.000000   0.000002   0.000001   0.000000  -0.000000
    20  H    0.000000   0.000000  -0.000000   0.000001  -0.000000  -0.000000
    21  H    0.000000   0.000002  -0.000186   0.003592  -0.000151  -0.000003
    22  S    0.005345  -0.086441   0.303366  -0.062098   0.007353  -0.000356
    23  O   -0.000004  -0.000051   0.005299  -0.131378   0.016982   0.001407
               7          8          9         10         11         12
     1  C   -0.000676   0.000067  -0.000149   0.000001  -0.000000   0.000000
     2  C    0.007589  -0.000547   0.001835  -0.000241  -0.000009   0.000001
     3  C   -0.058899  -0.058637  -0.003687   0.001836   0.000435  -0.000149
     4  C    0.156521  -0.003103  -0.058641  -0.000548   0.000026   0.000067
     5  C   -0.081411   0.025935  -0.000023   0.000047  -0.000002   0.000001
     6  C    0.015074  -0.000593   0.000089   0.000001   0.000000  -0.000000
     7  C    5.329038   0.156718  -0.058883   0.007591  -0.000122  -0.000675
     8  C    0.156718   5.424955   0.286949   0.006312   0.011615  -0.074659
     9  C   -0.058883   0.286949   5.469226   0.449011  -0.050159   0.005634
    10  C    0.007591   0.006312   0.449011   4.743411   0.392624   0.491787
    11  H   -0.000122   0.011615  -0.050159   0.392624   0.703565  -0.043881
    12  C   -0.000675  -0.074659   0.005634   0.491787  -0.043881   4.787827
    13  C    0.015061   0.015357  -0.084354   0.014968   0.009671   0.439697
    14  C   -0.081488   0.344490  -0.051517  -0.077295  -0.000555   0.010887
    15  H    0.000030   0.000001   0.000002  -0.000000  -0.000000   0.000000
    16  H   -0.000122   0.000026   0.000435  -0.000009   0.000011  -0.000000
    17  H   -0.032011   0.003598  -0.000187   0.000002  -0.000000   0.000000
    18  H   -0.000367   0.000001  -0.000000   0.000000   0.000000   0.000000
    19  H    0.000030   0.000043   0.010659  -0.044073  -0.013926   0.397134
    20  H   -0.000367   0.009582   0.000439   0.009601  -0.000256  -0.051953
    21  H   -0.031964  -0.053086   0.015412  -0.001173   0.000048   0.010684
    22  S   -0.026622  -0.062076   0.303489  -0.086488  -0.007874   0.005346
    23  O    0.687741  -0.131311   0.005295  -0.000051   0.000001  -0.000004
              13         14         15         16         17         18
     1  C   -0.000000   0.000001   0.397144  -0.043898   0.010679  -0.051916
     2  C    0.000001   0.000047  -0.044098   0.392613  -0.001175   0.009602
     3  C    0.000089  -0.000024   0.010660  -0.050157   0.015421   0.000440
     4  C   -0.000592   0.025944   0.000042   0.011617  -0.053028   0.009580
     5  C   -0.000007  -0.001095   0.009220  -0.000554   0.393405  -0.041208
     6  C    0.000000  -0.000007  -0.049654   0.009673  -0.057214   0.393243
     7  C    0.015061  -0.081488   0.000030  -0.000122  -0.032011  -0.000367
     8  C    0.015357   0.344490   0.000001   0.000026   0.003598   0.000001
     9  C   -0.084354  -0.051517   0.000002   0.000435  -0.000187  -0.000000
    10  C    0.014968  -0.077295  -0.000000  -0.000009   0.000002   0.000000
    11  H    0.009671  -0.000555  -0.000000   0.000011  -0.000000   0.000000
    12  C    0.439697   0.010887   0.000000  -0.000000   0.000000   0.000000
    13  C    4.818679   0.414054  -0.000000   0.000000  -0.000003  -0.000000
    14  C    0.414054   5.004090   0.000000  -0.000002  -0.000151  -0.000000
    15  H   -0.000000   0.000000   0.713107  -0.013931  -0.000185  -0.013976
    16  H    0.000000  -0.000002  -0.013931   0.703663   0.000048  -0.000256
    17  H   -0.000003  -0.000151  -0.000185   0.000048   0.746312  -0.015060
    18  H   -0.000000  -0.000000  -0.013976  -0.000256  -0.015060   0.710940
    19  H   -0.049669   0.009217  -0.000000  -0.000000   0.000000   0.000000
    20  H    0.393224  -0.041149   0.000000   0.000000  -0.000000  -0.000000
    21  H   -0.057164   0.393465   0.000000  -0.000000  -0.000074  -0.000000
    22  S   -0.000355   0.007354  -0.000246  -0.007869  -0.000149   0.000032
    23  O    0.001403   0.016997   0.000000   0.000001   0.031776  -0.000017
              19         20         21         22         23
     1  C    0.000000   0.000000   0.000000   0.005345  -0.000004
     2  C   -0.000000   0.000000   0.000002  -0.086441  -0.000051
     3  C    0.000002  -0.000000  -0.000186   0.303366   0.005299
     4  C    0.000001   0.000001   0.003592  -0.062098  -0.131378
     5  C    0.000000  -0.000000  -0.000151   0.007353   0.016982
     6  C   -0.000000  -0.000000  -0.000003  -0.000356   0.001407
     7  C    0.000030  -0.000367  -0.031964  -0.026622   0.687741
     8  C    0.000043   0.009582  -0.053086  -0.062076  -0.131311
     9  C    0.010659   0.000439   0.015412   0.303489   0.005295
    10  C   -0.044073   0.009601  -0.001173  -0.086488  -0.000051
    11  H   -0.013926  -0.000256   0.000048  -0.007874   0.000001
    12  C    0.397134  -0.051953   0.010684   0.005346  -0.000004
    13  C   -0.049669   0.393224  -0.057164  -0.000355   0.001403
    14  C    0.009217  -0.041149   0.393465   0.007354   0.016997
    15  H   -0.000000   0.000000   0.000000  -0.000246   0.000000
    16  H   -0.000000   0.000000  -0.000000  -0.007869   0.000001
    17  H    0.000000  -0.000000  -0.000074  -0.000149   0.031776
    18  H    0.000000  -0.000000  -0.000000   0.000032  -0.000017
    19  H    0.713100  -0.013970  -0.000185  -0.000246   0.000000
    20  H   -0.013970   0.710947  -0.015075   0.000032  -0.000017
    21  H   -0.000185  -0.015075   0.746273  -0.000149   0.031692
    22  S   -0.000246   0.000032  -0.000149  15.416953  -0.000192
    23  O    0.000000  -0.000017   0.031692  -0.000192   7.787979
          Atomic-Atomic Spin Densities.
               1          2          3          4          5          6
     1  C    0.150013  -0.022673  -0.010376   0.002939  -0.011728   0.009700
     2  C   -0.022673   0.010659   0.040049  -0.002392   0.003821  -0.004405
     3  C   -0.010376   0.040049   0.153105  -0.002557   0.007413  -0.001738
     4  C    0.002939  -0.002392  -0.002557   0.063097  -0.023572  -0.004645
     5  C   -0.011728   0.003821   0.007413  -0.023572   0.110974   0.011370
     6  C    0.009700  -0.004405  -0.001738  -0.004645   0.011370   0.062870
     7  C    0.000328  -0.000916  -0.010630   0.051362  -0.011304  -0.000183
     8  C    0.000010  -0.000038  -0.000105   0.005429  -0.001353  -0.000018
     9  C   -0.000021   0.000446   0.008742  -0.000103   0.000088  -0.000006
    10  C   -0.000000   0.000013   0.000446  -0.000038  -0.000002  -0.000000
    11  H   -0.000000  -0.000001  -0.000005   0.000003   0.000000  -0.000000
    12  C    0.000000  -0.000000  -0.000021   0.000010  -0.000000   0.000000
    13  C    0.000000  -0.000000  -0.000006  -0.000018   0.000000   0.000000
    14  C   -0.000000  -0.000002   0.000088  -0.001353   0.000104   0.000000
    15  H    0.002391  -0.000168  -0.000062  -0.000048  -0.000029  -0.000049
    16  H    0.000109   0.000767   0.000326  -0.000036   0.000007  -0.000058
    17  H   -0.000124   0.000027  -0.000139   0.002747   0.002333  -0.000531
    18  H   -0.000070  -0.000020  -0.000030  -0.000025  -0.000248   0.001588
    19  H    0.000000   0.000000  -0.000000  -0.000000   0.000000   0.000000
    20  H    0.000000   0.000000  -0.000000   0.000000   0.000000   0.000000
    21  H   -0.000000  -0.000000  -0.000003  -0.000130   0.000012   0.000000
    22  S    0.000674  -0.010335  -0.072284  -0.002544  -0.000548   0.000270
    23  O   -0.000006   0.000003   0.000147  -0.007393   0.003874  -0.000014
               7          8          9         10         11         12
     1  C    0.000328   0.000010  -0.000021  -0.000000  -0.000000   0.000000
     2  C   -0.000916  -0.000038   0.000446   0.000013  -0.000001  -0.000000
     3  C   -0.010630  -0.000105   0.008742   0.000446  -0.000005  -0.000021
     4  C    0.051362   0.005429  -0.000103  -0.000038   0.000003   0.000010
     5  C   -0.011304  -0.001353   0.000088  -0.000002   0.000000  -0.000000
     6  C   -0.000183  -0.000018  -0.000006  -0.000000  -0.000000   0.000000
     7  C    0.210531   0.051389  -0.010639  -0.000917  -0.000009   0.000328
     8  C    0.051389   0.063171  -0.002581  -0.002393  -0.000036   0.002944
     9  C   -0.010639  -0.002581   0.153299   0.040068   0.000326  -0.010389
    10  C   -0.000917  -0.002393   0.040068   0.010644   0.000768  -0.022682
    11  H   -0.000009  -0.000036   0.000326   0.000768  -0.002585   0.000109
    12  C    0.000328   0.002944  -0.010389  -0.022682   0.000109   0.150207
    13  C   -0.000183  -0.004651  -0.001737  -0.004407  -0.000058   0.009684
    14  C   -0.011302  -0.023602   0.007418   0.003822   0.000007  -0.011737
    15  H   -0.000000  -0.000000  -0.000000   0.000000   0.000000   0.000000
    16  H   -0.000009   0.000003  -0.000005  -0.000001  -0.000001  -0.000000
    17  H   -0.000044  -0.000130  -0.000003  -0.000000   0.000000  -0.000000
    18  H    0.000004   0.000000  -0.000000   0.000000  -0.000000   0.000000
    19  H   -0.000000  -0.000048  -0.000062  -0.000168   0.000172   0.002394
    20  H    0.000004  -0.000025  -0.000030  -0.000020   0.000003  -0.000069
    21  H   -0.000044   0.002747  -0.000139   0.000027  -0.000002  -0.000124
    22  S    0.006222  -0.002540  -0.072318  -0.010342  -0.000471   0.000675
    23  O   -0.088428  -0.007394   0.000147   0.000003  -0.000000  -0.000006
              13         14         15         16         17         18
     1  C    0.000000  -0.000000   0.002391   0.000109  -0.000124  -0.000070
     2  C   -0.000000  -0.000002  -0.000168   0.000767   0.000027  -0.000020
     3  C   -0.000006   0.000088  -0.000062   0.000326  -0.000139  -0.000030
     4  C   -0.000018  -0.001353  -0.000048  -0.000036   0.002747  -0.000025
     5  C    0.000000   0.000104  -0.000029   0.000007   0.002333  -0.000248
     6  C    0.000000   0.000000  -0.000049  -0.000058  -0.000531   0.001588
     7  C   -0.000183  -0.011302  -0.000000  -0.000009  -0.000044   0.000004
     8  C   -0.004651  -0.023602  -0.000000   0.000003  -0.000130   0.000000
     9  C   -0.001737   0.007418  -0.000000  -0.000005  -0.000003  -0.000000
    10  C   -0.004407   0.003822   0.000000  -0.000001  -0.000000   0.000000
    11  H   -0.000058   0.000007   0.000000  -0.000001   0.000000  -0.000000
    12  C    0.009684  -0.011737   0.000000  -0.000000  -0.000000   0.000000
    13  C    0.062904   0.011397   0.000000  -0.000000   0.000000   0.000000
    14  C    0.011397   0.111057   0.000000   0.000000   0.000012   0.000000
    15  H    0.000000   0.000000  -0.008624   0.000172   0.000001   0.000169
    16  H   -0.000000   0.000000   0.000172  -0.002585  -0.000002   0.000003
    17  H    0.000000   0.000012   0.000001  -0.000002  -0.008754   0.000174
    18  H    0.000000   0.000000   0.000169   0.000003   0.000174  -0.005042
    19  H   -0.000048  -0.000029  -0.000000   0.000000   0.000000   0.000000
    20  H    0.001589  -0.000249   0.000000  -0.000000   0.000000  -0.000000
    21  H   -0.000531   0.002331   0.000000   0.000000   0.000007   0.000000
    22  S    0.000271  -0.000548   0.000000  -0.000470  -0.000004   0.000001
    23  O   -0.000014   0.003869  -0.000000  -0.000000  -0.001237   0.000000
              19         20         21         22         23
     1  C    0.000000   0.000000  -0.000000   0.000674  -0.000006
     2  C    0.000000   0.000000  -0.000000  -0.010335   0.000003
     3  C   -0.000000  -0.000000  -0.000003  -0.072284   0.000147
     4  C   -0.000000   0.000000  -0.000130  -0.002544  -0.007393
     5  C    0.000000   0.000000   0.000012  -0.000548   0.003874
     6  C    0.000000   0.000000   0.000000   0.000270  -0.000014
     7  C   -0.000000   0.000004  -0.000044   0.006222  -0.088428
     8  C   -0.000048  -0.000025   0.002747  -0.002540  -0.007394
     9  C   -0.000062  -0.000030  -0.000139  -0.072318   0.000147
    10  C   -0.000168  -0.000020   0.000027  -0.010342   0.000003
    11  H    0.000172   0.000003  -0.000002  -0.000471  -0.000000
    12  C    0.002394  -0.000069  -0.000124   0.000675  -0.000006
    13  C   -0.000048   0.001589  -0.000531   0.000271  -0.000014
    14  C   -0.000029  -0.000249   0.002331  -0.000548   0.003869
    15  H   -0.000000   0.000000   0.000000   0.000000  -0.000000
    16  H    0.000000  -0.000000   0.000000  -0.000470  -0.000000
    17  H    0.000000   0.000000   0.000007  -0.000004  -0.001237
    18  H    0.000000  -0.000000   0.000000   0.000001   0.000000
    19  H   -0.008634   0.000169   0.000001   0.000000  -0.000000
    20  H    0.000169  -0.005045   0.000175   0.000001   0.000000
    21  H    0.000001   0.000175  -0.008756  -0.000004  -0.001234
    22  S    0.000000   0.000001  -0.000004   0.588348   0.000015
    23  O   -0.000000   0.000000  -0.001234   0.000015   0.533060
 Mulliken charges and spin densities:
               1          2
     1  C    0.022304   0.121167
     2  C    0.092709   0.014835
     3  C   -0.240877   0.112361
     4  C    0.098212   0.080734
     5  C    0.026782   0.091213
     6  C    0.069980   0.074152
     7  C   -0.001784   0.185560
     8  C    0.098363   0.080779
     9  C   -0.240876   0.112502
    10  C    0.092686   0.014821
    11  H   -0.001211  -0.001781
    12  C    0.022256   0.121320
    13  C    0.069941   0.074191
    14  C    0.026739   0.091285
    15  H   -0.008117  -0.006246
    16  H   -0.001289  -0.001780
    17  H   -0.042004  -0.005666
    18  H   -0.001038  -0.003495
    19  H   -0.008119  -0.006254
    20  H   -0.001039  -0.003497
    21  H   -0.041959  -0.005667
    22  S    0.291891   0.424068
    23  O   -0.323549   0.435396
 Sum of Mulliken charges =  -0.00000   2.00000
 Mulliken charges and spin densities with hydrogens summed into heavy atoms:
               1          2
     1  C    0.014186   0.114921
     2  C    0.091419   0.013055
     3  C   -0.240877   0.112361
     4  C    0.098212   0.080734
     5  C   -0.015221   0.085547
     6  C    0.068942   0.070658
     7  C   -0.001784   0.185560
     8  C    0.098363   0.080779
     9  C   -0.240876   0.112502
    10  C    0.091475   0.013041
    12  C    0.014137   0.115067
    13  C    0.068902   0.070694
    14  C   -0.015220   0.085617
    22  S    0.291891   0.424068
    23  O   -0.323549   0.435396
 APT charges:
               1
     1  C   -0.721941
     2  C    0.696669
     3  C   -0.672800
     4  C    0.936996
     5  C   -0.732388
     6  C    0.601097
     7  C   -1.090618
     8  C    0.937167
     9  C   -0.671990
    10  C    0.695262
    11  H    0.070849
    12  C   -0.720880
    13  C    0.601517
    14  C   -0.733953
    15  H    0.028744
    16  H    0.069568
    17  H    0.072691
    18  H    0.023128
    19  H    0.028830
    20  H    0.022923
    21  H    0.074631
    22  S    0.735196
    23  O   -0.250698
 Sum of APT charges =   0.00000
 APT charges with hydrogens summed into heavy atoms:
               1
     1  C   -0.693197
     2  C    0.766237
     3  C   -0.672800
     4  C    0.936996
     5  C   -0.659697
     6  C    0.624224
     7  C   -1.090618
     8  C    0.937167
     9  C   -0.671990
    10  C    0.766110
    12  C   -0.692050
    13  C    0.624440
    14  C   -0.659322
    22  S    0.735196
    23  O   -0.250698
 Electronic spatial extent (au):  <R**2>=          20122.9138
 Charge=             -0.0000 electrons
 Dipole moment (field-independent basis, Debye):
    X=              3.2232    Y=             -5.4816    Z=              0.0797  Tot=              6.3595
 Quadrupole moment (field-independent basis, Debye-Ang):
   XX=           -115.3571   YY=           -111.0944   ZZ=            -96.6465
   XY=             52.0820   XZ=             -0.4093   YZ=              0.1378
 Traceless Quadrupole moment (field-independent basis, Debye-Ang):
   XX=             -7.6577   YY=             -3.3951   ZZ=             11.0528
   XY=             52.0820   XZ=             -0.4093   YZ=              0.1378
 Octapole moment (field-independent basis, Debye-Ang**2):
  XXX=           1778.2037  YYY=           -655.5367  ZZZ=             -2.3849  XYY=            766.6269
  XXY=           -603.0355  XXZ=              1.5888  XZZ=            597.2378  YZZ=           -200.6377
  YYZ=             -0.0019  XYZ=             -0.8482
 Hexadecapole moment (field-independent basis, Debye-Ang**3):
 XXXX=         -22939.1493 YYYY=          -4355.8237 ZZZZ=           -105.7340 XXXY=           6162.9296
 XXXZ=             -4.3006 YYYX=           4000.6889 YYYZ=              1.8726 ZZZX=              8.1683
 ZZZY=             -1.1493 XXYY=          -6275.7094 XXZZ=          -4215.7714 YYZZ=           -738.2818
 XXYZ=              5.6428 YYXZ=             -3.1829 ZZXY=           1057.2435
 N-N= 9.904462971635D+02 E-N=-4.264403516167D+03  KE= 9.688936165912D+02
  Exact polarizability: 535.356 144.543 374.476   2.374  -1.766  67.959
 Approx polarizability: 648.853 155.059 476.159   2.979  -2.408  93.458
                          Isotropic Fermi Contact Couplings
        Atom                 a.u.       MegaHertz       Gauss      10(-4) cm-1
     1  C(13)              0.01263       7.09984       2.53340       2.36825
     2  C(13)             -0.00295      -1.65577      -0.59082      -0.55231
     3  C(13)              0.01028       5.77752       2.06156       1.92717
     4  C(13)             -0.00398      -2.23454      -0.79734      -0.74536
     5  C(13)              0.00687       3.86135       1.37783       1.28801
     6  C(13)              0.00434       2.43755       0.86978       0.81308
     7  C(13)              0.01346       7.56423       2.69910       2.52315
     8  C(13)             -0.00397      -2.23421      -0.79722      -0.74525
     9  C(13)              0.01030       5.78853       2.06549       1.93085
    10  C(13)             -0.00295      -1.65938      -0.59211      -0.55351
    11  H(1)              -0.00056      -1.24288      -0.44349      -0.41458
    12  C(13)              0.01265       7.11009       2.53706       2.37167
    13  C(13)              0.00434       2.43763       0.86981       0.81311
    14  C(13)              0.00688       3.86614       1.37953       1.28960
    15  H(1)              -0.00206      -4.59830      -1.64079      -1.53383
    16  H(1)              -0.00056      -1.24264      -0.44340      -0.41450
    17  H(1)              -0.00153      -3.42193      -1.22103      -1.14143
    18  H(1)              -0.00119      -2.66021      -0.94923      -0.88735
    19  H(1)              -0.00206      -4.60369      -1.64271      -1.53563
    20  H(1)              -0.00119      -2.66164      -0.94974      -0.88783
    21  H(1)              -0.00153      -3.42452      -1.22195      -1.14230
    22  S(33)              0.08218      14.11392       5.03620       4.70790
    23  O(17)              0.09134     -27.68479      -9.87862      -9.23465
 --------------------------------------------------------
       Center         ----  Spin Dipole Couplings  ----
                      3XX-RR        3YY-RR        3ZZ-RR
 --------------------------------------------------------
     1   Atom       -0.070538     -0.068333      0.138871
     2   Atom       -0.017143     -0.017754      0.034898
     3   Atom       -0.088633     -0.084217      0.172850
     4   Atom       -0.050633     -0.039588      0.090222
     5   Atom       -0.044972     -0.046638      0.091610
     6   Atom       -0.045947     -0.043739      0.089687
     7   Atom       -0.151368     -0.130357      0.281725
     8   Atom       -0.037793     -0.052492      0.090285
     9   Atom       -0.084975     -0.088058      0.173033
    10   Atom       -0.013330     -0.021572      0.034902
    11   Atom        0.006597     -0.000372     -0.006225
    12   Atom       -0.066613     -0.072431      0.139044
    13   Atom       -0.042710     -0.047027      0.089737
    14   Atom       -0.041822     -0.049873      0.091695
    15   Atom       -0.004877      0.007437     -0.002560
    16   Atom       -0.001812      0.008034     -0.006222
    17   Atom        0.002784      0.004591     -0.007376
    18   Atom        0.010750     -0.006603     -0.004147
    19   Atom        0.013598     -0.011039     -0.002559
    20   Atom       -0.002441      0.006591     -0.004150
    21   Atom        0.003767      0.003604     -0.007371
    22   Atom       -0.981439     -1.000474      1.981913
    23   Atom       -0.853339     -0.863031      1.716370
 --------------------------------------------------------
                        XY            XZ            YZ
 --------------------------------------------------------
     1   Atom        0.002726     -0.001669      0.002023
     2   Atom        0.005032     -0.000453      0.000552
     3   Atom        0.000433     -0.002082      0.002486
     4   Atom        0.005209     -0.001149      0.001320
     5   Atom        0.005247     -0.001105      0.001373
     6   Atom        0.001847     -0.001072      0.001311
     7   Atom       -0.018926     -0.003412      0.003831
     8   Atom       -0.001950     -0.001066      0.001288
     9   Atom       -0.001655     -0.002023      0.002479
    10   Atom        0.002912     -0.000426      0.000551
    11   Atom       -0.003633      0.000136     -0.000084
    12   Atom        0.000495     -0.001644      0.001961
    13   Atom        0.000029     -0.001061      0.001254
    14   Atom        0.003469     -0.001105      0.001304
    15   Atom        0.010663     -0.000121     -0.000012
    16   Atom        0.001050      0.000025     -0.000128
    17   Atom       -0.000450      0.000085     -0.000118
    18   Atom        0.000069      0.000116      0.000025
    19   Atom        0.000384      0.000125      0.000081
    20   Atom        0.007415     -0.000054     -0.000040
    21   Atom       -0.001019      0.000101     -0.000106
    22   Atom        0.016923     -0.023923      0.028802
    23   Atom        0.008563     -0.021034      0.024731
 --------------------------------------------------------


 ---------------------------------------------------------------------------------
              Anisotropic Spin Dipole Couplings in Principal Axis System
 ---------------------------------------------------------------------------------

       Atom             a.u.   MegaHertz   Gauss  10(-4) cm-1        Axes

              Baa    -0.0724    -9.716    -3.467    -3.241  0.8282 -0.5603  0.0119
     1 C(13)  Bbb    -0.0665    -8.923    -3.184    -2.977  0.5604  0.8282 -0.0036
              Bcc     0.1389    18.640     6.651     6.217 -0.0078  0.0097  0.9999
 
              Baa    -0.0225    -3.019    -1.077    -1.007 -0.6852  0.7282 -0.0124
     2 C(13)  Bbb    -0.0124    -1.665    -0.594    -0.555  0.7283  0.6853 -0.0010
              Bcc     0.0349     4.684     1.671     1.562 -0.0078  0.0097  0.9999
 
              Baa    -0.0887   -11.902    -4.247    -3.970  0.9948 -0.1010  0.0089
     3 C(13)  Bbb    -0.0842   -11.298    -4.031    -3.769  0.1011  0.9948 -0.0088
              Bcc     0.1729    23.200     8.278     7.739 -0.0079  0.0097  0.9999
 
              Baa    -0.0527    -7.074    -2.524    -2.360  0.9291 -0.3697  0.0109
     4 C(13)  Bbb    -0.0375    -5.035    -1.797    -1.680  0.3698  0.9291 -0.0063
              Bcc     0.0902    12.110     4.321     4.039 -0.0078  0.0099  0.9999
 
              Baa    -0.0511    -6.862    -2.449    -2.289 -0.6492  0.7605 -0.0123
     5 C(13)  Bbb    -0.0405    -5.434    -1.939    -1.812  0.7605  0.6493 -0.0004
              Bcc     0.0916    12.296     4.388     4.102 -0.0077  0.0096  0.9999
 
              Baa    -0.0470    -6.309    -2.251    -2.104  0.8689 -0.4948  0.0116
     6 C(13)  Bbb    -0.0427    -5.729    -2.044    -1.911  0.4949  0.8689 -0.0046
              Bcc     0.0897    12.038     4.295     4.015 -0.0078  0.0097  0.9999
 
              Baa    -0.1625   -21.807    -7.781    -7.274  0.8619  0.5071  0.0022
     7 C(13)  Bbb    -0.1193   -16.006    -5.711    -5.339 -0.5070  0.8619 -0.0125
              Bcc     0.2818    37.814    13.493    12.613 -0.0083  0.0097  0.9999
 
              Baa    -0.0528    -7.079    -2.526    -2.361  0.1287  0.9917 -0.0080
     8 C(13)  Bbb    -0.0376    -5.039    -1.798    -1.681  0.9917 -0.1286  0.0096
              Bcc     0.0903    12.118     4.324     4.042 -0.0085  0.0091  0.9999
 
              Baa    -0.0888   -11.914    -4.251    -3.974  0.3957  0.9183 -0.0056
     9 C(13)  Bbb    -0.0843   -11.310    -4.036    -3.773  0.9183 -0.3957  0.0110
              Bcc     0.1731    23.225     8.287     7.747 -0.0079  0.0095  0.9999
 
              Baa    -0.0225    -3.020    -1.078    -1.007 -0.3030  0.9529 -0.0114
    10 C(13)  Bbb    -0.0124    -1.665    -0.594    -0.555  0.9530  0.3031  0.0051
              Bcc     0.0349     4.685     1.672     1.563 -0.0083  0.0093  0.9999
 
              Baa    -0.0062    -3.322    -1.185    -1.108 -0.0079  0.0094  0.9999
    11 H(1)   Bbb    -0.0019    -1.025    -0.366    -0.342  0.3924  0.9198 -0.0055
              Bcc     0.0081     4.347     1.551     1.450  0.9198 -0.3923  0.0110
 
              Baa    -0.0725    -9.728    -3.471    -3.245 -0.0866  0.9962 -0.0099
    12 C(13)  Bbb    -0.0666    -8.935    -3.188    -2.980  0.9962  0.0867  0.0071
              Bcc     0.1391    18.663     6.659     6.225 -0.0080  0.0093  0.9999
 
              Baa    -0.0470    -6.312    -2.252    -2.105 -0.0089  0.9999 -0.0092
    13 C(13)  Bbb    -0.0427    -5.732    -2.045    -1.912  0.9999  0.0090  0.0079
              Bcc     0.0898    12.045     4.298     4.018 -0.0080  0.0092  0.9999
 
              Baa    -0.0512    -6.868    -2.451    -2.291 -0.3487  0.9372 -0.0113
    14 C(13)  Bbb    -0.0405    -5.440    -1.941    -1.814  0.9372  0.3488  0.0044
              Bcc     0.0917    12.307     4.392     4.105 -0.0080  0.0090  0.9999
 
              Baa    -0.0110    -5.887    -2.101    -1.964  0.8660 -0.4999  0.0116
    15 H(1)   Bbb    -0.0026    -1.365    -0.487    -0.455 -0.0078  0.0096  0.9999
              Bcc     0.0136     7.252     2.588     2.419  0.5000  0.8660 -0.0044
 
              Baa    -0.0062    -3.321    -1.185    -1.108 -0.0079  0.0096  0.9999
    16 H(1)   Bbb    -0.0019    -1.026    -0.366    -0.342  0.9945 -0.1047  0.0088
              Bcc     0.0081     4.346     1.551     1.450  0.1048  0.9945 -0.0087
 
              Baa    -0.0074    -3.936    -1.405    -1.313 -0.0080  0.0095  0.9999
    17 H(1)   Bbb     0.0027     1.429     0.510     0.477  0.9734  0.2292  0.0056
              Bcc     0.0047     2.507     0.895     0.836 -0.2291  0.9733 -0.0111
 
              Baa    -0.0066    -3.523    -1.257    -1.175 -0.0039  0.9999 -0.0098
    18 H(1)   Bbb    -0.0041    -2.213    -0.790    -0.738 -0.0078  0.0098  0.9999
              Bcc     0.0108     5.737     2.047     1.913  1.0000  0.0040  0.0078
 
              Baa    -0.0110    -5.894    -2.103    -1.966 -0.0155  0.9998 -0.0093
    19 H(1)   Bbb    -0.0026    -1.366    -0.487    -0.456 -0.0080  0.0092  0.9999
              Bcc     0.0136     7.259     2.590     2.421  0.9998  0.0156  0.0078
 
              Baa    -0.0066    -3.525    -1.258    -1.176  0.8718 -0.4897  0.0113
    20 H(1)   Bbb    -0.0042    -2.214    -0.790    -0.739 -0.0079  0.0091  0.9999
              Bcc     0.0108     5.740     2.048     1.915  0.4898  0.8718 -0.0041
 
              Baa    -0.0074    -3.934    -1.404    -1.312 -0.0082  0.0089  0.9999
    21 H(1)   Bbb     0.0027     1.421     0.507     0.474  0.6783  0.7348 -0.0010
              Bcc     0.0047     2.513     0.897     0.838  0.7347 -0.6783  0.0121
 
              Baa    -1.0108   -41.443   -14.788   -13.824 -0.5065  0.8622 -0.0123
    22 S(33)  Bbb    -0.9716   -39.833   -14.213   -13.287  0.8622  0.5066  0.0020
              Bcc     1.9824    81.276    29.001    27.111 -0.0080  0.0096  0.9999
 
              Baa    -0.8684    62.838    22.422    20.961 -0.5067  0.8620 -0.0124
    23 O(17)  Bbb    -0.8484    61.387    21.904    20.476  0.8621  0.5068  0.0022
              Bcc     1.7168  -124.225   -44.327   -41.437 -0.0082  0.0096  0.9999
 

 ---------------------------------------------------------------------------------

 No NMR shielding tensors so no spin-rotation constants.
 Leave Link  601 at Tue Aug 18 14:58:10 2026, MaxMem=  2684354560 cpu:               0.5 elap:               0.5
 (Enter /mnt/data/applications/G16/g16/l701.exe)
 ... and contract with generalized density number  0.
 Compute integral second derivatives.
 R6Disp: Adding Grimme-D3(BJ) dispersion energy 2nd derivatives to the Hessian.
   1 Symmetry operations used in ECPInt.
 ECPInt:  NShTT=    6786 NPrTT=   65756 LenC2=    6456 LenP2D=   34284.
 LDataN:  DoStor=T MaxTD1= 6 Len=  172
 D2PCM: PCM CHGder 2nd derivatives, FixD1E=F FixD2E=F DoIter=F DoCFld=F I1PDM=0
 GePol: Maximum number of non-zero 2nd derivatives   =     242
 Leave Link  701 at Tue Aug 18 14:59:21 2026, MaxMem=  2684354560 cpu:              71.2 elap:              71.3
 (Enter /mnt/data/applications/G16/g16/l702.exe)
 L702 exits ... SP integral derivatives will be done elsewhere.
 Leave Link  702 at Tue Aug 18 14:59:21 2026, MaxMem=  2684354560 cpu:               0.0 elap:               0.0
 (Enter /mnt/data/applications/G16/g16/l703.exe)
 Integral derivatives from FoFJK, PRISM(SPDF).
 Compute integral second derivatives, UseDBF=F ICtDFT=           0.
 Calling FoFJK, ICntrl=    100127 FMM=F ISym2X=0 I1Cent= 0 IOpClX= 1 NMat=1 NMatS=1 NMatT=0.
 FoFJK:  IHMeth= 1 ICntrl=  100127 DoSepK=F KAlg= 0 I1Cent=           0 FoldK=F
 IRaf=         0 NMat=       1 IRICut=       1 DoRegI=T DoRafI=F ISym2E= 0 IDoP0=0 IntGTp=1.
 FoFCou: FMM=F IPFlag=           0 FMFlag=      100000 FMFlg1=         800
         NFxFlg=           0 DoJE=F BraDBF=F KetDBF=F FulRan=T
         wScrn=  0.000000 ICntrl=    100127 IOpCl=  1 I1Cent=           0 NGrid=           0
         NMat0=    1 NMatS0=      1 NMatT0=    0 NMatD0=    1 NMtDS0=    0 NMtDT0=    0
 Symmetry not used in FoFCou.
 Leave Link  703 at Tue Aug 18 15:34:18 2026, MaxMem=  2684354560 cpu:            2093.7 elap:            2096.7
 (Enter /mnt/data/applications/G16/g16/l716.exe)
 Dipole        = 1.26810708D+00-2.15662102D+00 3.13617446D-02
 Polarizability= 5.35356206D+02 1.44543333D+02 3.74475633D+02
                 2.37397523D+00-1.76572118D+00 6.79588622D+01
 Full mass-weighted force constant matrix:
 Low frequencies ---  -12.5757   -9.8347   -1.7868    0.0012    0.0013    0.0022
 Low frequencies ---   38.6641   92.2374  140.0359
 Diagonal vibrational polarizability:
       55.1256570      33.4609391      55.7965763
 Harmonic frequencies (cm**-1), IR intensities (KM/Mole), Raman scattering
 activities (A**4/AMU), depolarization ratios for plane and unpolarized
 incident light, reduced masses (AMU), force constants (mDyne/A),
 and normal coordinates:
                      1                      2                      3
                      A                      A                      A
 Frequencies --     38.5312                92.2351               140.0261
 Red. masses --      7.9254                 3.8594                 5.5260
 Frc consts  --      0.0069                 0.0193                 0.0638
 IR Inten    --      2.2996                 0.0085                 4.3745
  Atom  AN      X      Y      Z        X      Y      Z        X      Y      Z
     1   6     0.00  -0.00  -0.26    -0.00   0.00   0.11    -0.00   0.00   0.12
     2   6     0.00  -0.00  -0.13    -0.00   0.00   0.19    -0.00   0.00   0.19
     3   6    -0.00   0.00   0.04    -0.00   0.00   0.08    -0.00   0.00   0.04
     4   6    -0.00   0.00   0.06     0.00  -0.00  -0.06     0.00  -0.00  -0.05
     5   6     0.00  -0.00  -0.05     0.00  -0.00  -0.21     0.00  -0.00  -0.21
     6   6     0.00  -0.00  -0.22     0.00  -0.00  -0.13     0.00  -0.00  -0.15
     7   6    -0.00   0.00   0.17     0.00  -0.00   0.00    -0.00   0.00   0.07
     8   6    -0.00   0.00   0.05    -0.00   0.00   0.07     0.00  -0.00  -0.04
     9   6    -0.00   0.00   0.04     0.00  -0.00  -0.08    -0.00   0.00   0.03
    10   6     0.00  -0.00  -0.11     0.00  -0.00  -0.22    -0.00   0.00   0.16
    11   1     0.00  -0.00  -0.11     0.00  -0.00  -0.36    -0.00   0.00   0.29
    12   6     0.00  -0.00  -0.25     0.00  -0.00  -0.13    -0.00   0.00   0.11
    13   6     0.00  -0.00  -0.23    -0.00   0.00   0.13     0.00  -0.00  -0.13
    14   6     0.00  -0.00  -0.08    -0.00   0.00   0.22     0.00  -0.00  -0.18
    15   1     0.00  -0.00  -0.40    -0.00   0.00   0.20    -0.00   0.00   0.24
    16   1     0.00  -0.00  -0.15    -0.00   0.00   0.33    -0.00   0.00   0.35
    17   1     0.00  -0.00  -0.02     0.00  -0.00  -0.35     0.00  -0.00  -0.35
    18   1     0.00  -0.00  -0.31     0.00  -0.00  -0.25     0.00  -0.00  -0.29
    19   1     0.00  -0.00  -0.37     0.00  -0.00  -0.24    -0.00   0.00   0.21
    20   1     0.00  -0.00  -0.34    -0.00   0.00   0.25     0.00  -0.00  -0.25
    21   1     0.00  -0.00  -0.07    -0.00   0.00   0.39     0.00  -0.00  -0.31
    22  16    -0.00   0.00   0.28    -0.00   0.00   0.01     0.00  -0.00  -0.14
    23   8    -0.00   0.00   0.27     0.00  -0.00  -0.01    -0.00   0.00   0.32
                      4                      5                      6
                      A                      A                      A
 Frequencies --    184.0050               220.8066               228.6682
 Red. masses --      6.9305                 5.1181                 4.9927
 Frc consts  --      0.1383                 0.1470                 0.1538
 IR Inten    --      0.6342                13.1132                 0.0004
  Atom  AN      X      Y      Z        X      Y      Z        X      Y      Z
     1   6    -0.00   0.00   0.14    -0.14   0.15  -0.00     0.00  -0.00  -0.16
     2   6     0.00  -0.00  -0.10    -0.14  -0.02  -0.00    -0.00   0.00   0.14
     3   6     0.00  -0.00  -0.24     0.01  -0.11   0.00    -0.00   0.00   0.24
     4   6     0.00  -0.00  -0.24     0.07  -0.08   0.00    -0.00   0.00   0.20
     5   6     0.00  -0.00  -0.09     0.07   0.10  -0.00    -0.00   0.00   0.16
     6   6    -0.00   0.00   0.16    -0.05   0.20  -0.00     0.00  -0.00  -0.13
     7   6     0.00  -0.00  -0.13     0.08  -0.13   0.00     0.00  -0.00   0.00
     8   6     0.00  -0.00  -0.24     0.04  -0.10   0.00     0.00  -0.00  -0.19
     9   6     0.00  -0.00  -0.24     0.09  -0.06   0.00     0.00  -0.00  -0.24
    10   6     0.00  -0.00  -0.11     0.08   0.11   0.00     0.00  -0.00  -0.14
    11   1     0.00  -0.00  -0.10     0.21   0.19   0.00     0.00  -0.00  -0.17
    12   6    -0.00   0.00   0.14    -0.06   0.19  -0.00    -0.00   0.00   0.16
    13   6    -0.00   0.00   0.17    -0.15   0.14  -0.00    -0.00   0.00   0.14
    14   6     0.00  -0.00  -0.09    -0.12  -0.02  -0.00     0.00  -0.00  -0.15
    15   1    -0.00   0.00   0.32    -0.22   0.20  -0.00     0.00  -0.00  -0.38
    16   1     0.00  -0.00  -0.09    -0.27  -0.09  -0.00    -0.00   0.00   0.17
    17   1     0.00  -0.00  -0.04     0.21   0.17  -0.00    -0.00   0.00   0.16
    18   1    -0.00   0.00   0.39    -0.04   0.29  -0.00     0.00  -0.00  -0.35
    19   1    -0.00   0.00   0.32    -0.07   0.29  -0.00    -0.00   0.00   0.38
    20   1    -0.00   0.00   0.40    -0.23   0.18  -0.01    -0.00   0.00   0.35
    21   1     0.00  -0.00  -0.04    -0.25  -0.11  -0.00     0.00  -0.00  -0.16
    22  16    -0.00   0.00   0.18     0.07  -0.11   0.00     0.00  -0.00  -0.00
    23   8    -0.00   0.00   0.23     0.07  -0.12   0.00     0.00  -0.00  -0.00
                      7                      8                      9
                      A                      A                      A
 Frequencies --    315.3625               342.8354               374.7517
 Red. masses --      6.9295                 8.4176                 3.9689
 Frc consts  --      0.4060                 0.5829                 0.3284
 IR Inten    --      2.1106                 4.5110                 0.2152
  Atom  AN      X      Y      Z        X      Y      Z        X      Y      Z
     1   6     0.07  -0.09   0.00    -0.21  -0.14  -0.00    -0.00   0.00   0.14
     2   6     0.07   0.08  -0.00    -0.19  -0.12  -0.00     0.00  -0.00  -0.16
     3   6    -0.06   0.14  -0.00    -0.17  -0.09  -0.00     0.00  -0.00  -0.00
     4   6    -0.13   0.12  -0.00    -0.11  -0.09   0.00    -0.00   0.00   0.15
     5   6    -0.15  -0.04  -0.00    -0.15  -0.12  -0.00     0.00  -0.00  -0.16
     6   6    -0.03  -0.15   0.00    -0.18  -0.12  -0.00    -0.00   0.00   0.02
     7   6     0.02   0.01  -0.00     0.07  -0.13   0.00    -0.00   0.00   0.26
     8   6     0.03  -0.17   0.00     0.13   0.05   0.00    -0.00   0.00   0.15
     9   6     0.09  -0.12   0.00     0.17   0.10   0.00    -0.00  -0.00  -0.00
    10   6     0.10   0.02   0.00     0.20   0.10   0.00     0.00  -0.00  -0.16
    11   1     0.21   0.09   0.00     0.20   0.10   0.00     0.00  -0.00  -0.39
    12   6    -0.05   0.10  -0.00     0.22   0.12   0.00    -0.00   0.00   0.14
    13   6    -0.15   0.04  -0.00     0.19   0.10   0.00    -0.00   0.00   0.02
    14   6    -0.11  -0.12   0.00     0.17   0.07   0.00     0.00  -0.00  -0.16
    15   1     0.17  -0.15   0.00    -0.21  -0.14   0.00    -0.00   0.00   0.27
    16   1     0.19   0.14   0.00    -0.18  -0.12  -0.00     0.00  -0.00  -0.39
    17   1    -0.30  -0.11  -0.00    -0.18  -0.13  -0.00     0.00  -0.00  -0.38
    18   1    -0.04  -0.25   0.00    -0.18  -0.09  -0.00    -0.00   0.00   0.01
    19   1    -0.06   0.21  -0.00     0.22   0.12   0.00    -0.00   0.00   0.26
    20   1    -0.24   0.08  -0.00     0.16   0.12  -0.00    -0.00   0.00   0.02
    21   1    -0.25  -0.22   0.00     0.20   0.09   0.00     0.00  -0.00  -0.38
    22  16    -0.07  -0.04  -0.00    -0.10   0.17  -0.00    -0.00  -0.00   0.00
    23   8     0.38   0.23   0.00     0.09  -0.13   0.00     0.00  -0.00  -0.10
                     10                     11                     12
                      A                      A                      A
 Frequencies --    406.5415               444.7389               447.4907
 Red. masses --      9.1876                 3.3450                12.0237
 Frc consts  --      0.8947                 0.3898                 1.4186
 IR Inten    --     67.6395                 0.0072                11.5866
  Atom  AN      X      Y      Z        X      Y      Z        X      Y      Z
     1   6     0.05   0.16  -0.00    -0.00  -0.00  -0.03     0.18   0.09   0.00
     2   6     0.07   0.23  -0.00    -0.00   0.00   0.13     0.15  -0.06   0.00
     3   6     0.05   0.19  -0.00     0.00  -0.00  -0.20    -0.03   0.00  -0.00
     4   6    -0.19   0.02  -0.00     0.00  -0.00  -0.12     0.05  -0.07  -0.00
     5   6    -0.22   0.06  -0.00    -0.00   0.00   0.15     0.11   0.14   0.00
     6   6    -0.17   0.03  -0.00    -0.00  -0.00  -0.08     0.20   0.12  -0.00
     7   6    -0.14  -0.08  -0.00    -0.00   0.00  -0.01     0.15  -0.26   0.00
     8   6    -0.08  -0.18   0.00    -0.00   0.00   0.12     0.04  -0.08   0.00
     9   6     0.19  -0.04   0.00    -0.00   0.00   0.22     0.01   0.02   0.00
    10   6     0.24  -0.05   0.00     0.00  -0.00  -0.14    -0.02  -0.16  -0.00
    11   1     0.21  -0.06   0.00     0.00  -0.00  -0.44    -0.05  -0.17  -0.00
    12   6     0.17  -0.04   0.00     0.00   0.00   0.02    -0.16  -0.11   0.00
    13   6    -0.06  -0.17   0.00    -0.00   0.00   0.10    -0.20  -0.12   0.00
    14   6    -0.06  -0.22   0.00     0.00  -0.00  -0.15    -0.17  -0.03  -0.00
    15   1     0.19   0.07   0.00    -0.00  -0.00   0.03     0.08   0.15   0.00
    16   1     0.05   0.22  -0.00    -0.00   0.00   0.43     0.18  -0.04   0.01
    17   1    -0.19   0.07  -0.00    -0.00   0.00   0.41     0.17   0.17   0.01
    18   1    -0.18  -0.12  -0.00     0.00  -0.00  -0.13     0.20   0.05  -0.00
    19   1     0.16   0.13   0.00     0.00  -0.00  -0.05    -0.17   0.01  -0.00
    20   1    -0.19  -0.10  -0.00    -0.00   0.00   0.16    -0.14  -0.15   0.00
    21   1    -0.03  -0.20   0.00     0.00  -0.00  -0.43    -0.23  -0.07  -0.01
    22  16     0.18   0.10   0.00     0.00  -0.00  -0.00    -0.20   0.34  -0.00
    23   8    -0.24  -0.14  -0.00    -0.00   0.00   0.00     0.17  -0.29   0.00
                     13                     14                     15
                      A                      A                      A
 Frequencies --    461.8716               469.5978               495.5539
 Red. masses --      4.3059                10.9396                 3.4757
 Frc consts  --      0.5412                 1.4214                 0.5029
 IR Inten    --      3.0538                21.4502                 0.0001
  Atom  AN      X      Y      Z        X      Y      Z        X      Y      Z
     1   6     0.00  -0.00  -0.10    -0.20  -0.00  -0.00     0.00  -0.00  -0.18
     2   6     0.00  -0.00  -0.06    -0.14  -0.07  -0.00    -0.00   0.00   0.10
     3   6    -0.00   0.00   0.28     0.07  -0.15   0.00    -0.00   0.00   0.10
     4   6     0.00  -0.00  -0.05     0.00  -0.14   0.00     0.00  -0.00  -0.18
     5   6     0.00  -0.00  -0.15    -0.01  -0.12  -0.00     0.00  -0.00  -0.06
     6   6    -0.00   0.00   0.17    -0.19  -0.02  -0.00    -0.00   0.00   0.15
     7   6     0.00  -0.00  -0.13    -0.04  -0.03  -0.00    -0.00  -0.00   0.00
     8   6     0.00  -0.00  -0.06    -0.12   0.07  -0.00    -0.00   0.00   0.18
     9   6    -0.00   0.00   0.26    -0.10   0.14  -0.00     0.00  -0.00  -0.10
    10   6     0.00  -0.00  -0.04    -0.13  -0.09   0.00     0.00  -0.00  -0.10
    11   1     0.00  -0.00  -0.19    -0.27  -0.19   0.00     0.00  -0.00  -0.22
    12   6     0.00  -0.00  -0.10    -0.10  -0.18  -0.00    -0.00   0.00   0.18
    13   6    -0.00   0.00   0.17    -0.11  -0.16   0.00     0.00  -0.00  -0.15
    14   6     0.00  -0.00  -0.13    -0.11   0.05  -0.00    -0.00   0.00   0.06
    15   1     0.00  -0.00  -0.26    -0.19  -0.01  -0.00     0.00  -0.00  -0.32
    16   1     0.00  -0.00  -0.23    -0.29  -0.15  -0.00    -0.00   0.00   0.22
    17   1     0.00  -0.00  -0.30     0.09  -0.06  -0.00    -0.00   0.00   0.08
    18   1    -0.00   0.00   0.41    -0.18   0.09  -0.00    -0.00   0.00   0.48
    19   1     0.00  -0.00  -0.26    -0.11  -0.16  -0.00    -0.00   0.00   0.32
    20   1    -0.00   0.00   0.39    -0.02  -0.21   0.00     0.00  -0.00  -0.49
    21   1     0.00  -0.00  -0.27    -0.01   0.11  -0.00     0.00  -0.00  -0.08
    22  16    -0.00  -0.00  -0.03     0.32   0.20   0.00     0.00   0.00   0.00
    23   8    -0.00   0.00   0.07     0.31   0.18   0.00     0.00   0.00  -0.00
                     16                     17                     18
                      A                      A                      A
 Frequencies --    582.7863               601.0744               614.4710
 Red. masses --      6.8164                 3.8452                 7.0629
 Frc consts  --      1.3640                 0.8185                 1.5712
 IR Inten    --     11.9187                20.8990                 9.3273
  Atom  AN      X      Y      Z        X      Y      Z        X      Y      Z
     1   6    -0.11  -0.11   0.00     0.00  -0.00  -0.15    -0.15  -0.09  -0.00
     2   6    -0.10  -0.15   0.00    -0.00   0.00   0.13    -0.12   0.25  -0.00
     3   6    -0.05  -0.09   0.00     0.00  -0.00  -0.10     0.01   0.17  -0.00
     4   6     0.14   0.02   0.00     0.00  -0.00  -0.05     0.14   0.07   0.00
     5   6     0.24  -0.04   0.00     0.00  -0.00  -0.10     0.16  -0.21   0.00
     6   6     0.17   0.02   0.00    -0.00   0.00   0.10    -0.08  -0.12   0.00
     7   6    -0.11   0.19  -0.00    -0.00   0.00   0.33     0.15   0.09   0.00
     8   6    -0.08  -0.11   0.00     0.00  -0.00  -0.05     0.13   0.09   0.00
     9   6     0.10   0.00   0.00     0.00  -0.00  -0.10     0.15  -0.07   0.00
    10   6     0.18   0.02   0.00    -0.00   0.00   0.13     0.17  -0.23   0.00
    11   1     0.17   0.01   0.00    -0.00   0.00   0.39     0.26  -0.17   0.00
    12   6     0.15   0.05   0.00     0.00  -0.00  -0.15    -0.15  -0.09  -0.00
    13   6    -0.10  -0.13   0.00    -0.00   0.00   0.10    -0.15  -0.01  -0.00
    14   6    -0.09  -0.23   0.00     0.00  -0.00  -0.10    -0.11   0.24  -0.00
    15   1    -0.27  -0.00  -0.00     0.00  -0.00  -0.11     0.04  -0.21   0.00
    16   1    -0.09  -0.15   0.00    -0.00   0.00   0.39    -0.02   0.31  -0.00
    17   1     0.24  -0.03   0.00    -0.00   0.00   0.08     0.10  -0.24   0.00
    18   1     0.18   0.25  -0.00    -0.00   0.00   0.45    -0.06   0.12  -0.00
    19   1     0.14   0.23  -0.00     0.00  -0.00  -0.11    -0.16   0.14  -0.00
    20   1    -0.30  -0.03  -0.00    -0.00   0.00   0.45     0.08  -0.12   0.00
    21   1    -0.09  -0.23   0.00    -0.00   0.00   0.09    -0.16   0.20  -0.00
    22  16    -0.06   0.10  -0.00     0.00  -0.00  -0.01    -0.01  -0.01  -0.00
    23   8    -0.13   0.22  -0.00     0.00  -0.00  -0.08    -0.10  -0.05  -0.00
                     19                     20                     21
                      A                      A                      A
 Frequencies --    667.2266               710.3946               740.2797
 Red. masses --      6.3513                 4.3123                 6.8124
 Frc consts  --      1.6659                 1.2822                 2.1996
 IR Inten    --     10.0433                 0.0123                74.3589
  Atom  AN      X      Y      Z        X      Y      Z        X      Y      Z
     1   6    -0.09  -0.01  -0.00    -0.00   0.00   0.13    -0.11  -0.21   0.00
     2   6    -0.06   0.28  -0.00     0.00  -0.00  -0.09    -0.10  -0.08  -0.00
     3   6     0.10   0.13  -0.00    -0.00   0.00   0.20    -0.14   0.04  -0.00
     4   6     0.14  -0.02   0.00     0.00  -0.00  -0.25    -0.02   0.22  -0.00
     5   6     0.18  -0.21   0.00    -0.00   0.00   0.10    -0.08   0.16  -0.00
     6   6    -0.08  -0.06  -0.00     0.00  -0.00  -0.09     0.16  -0.01   0.00
     7   6     0.03  -0.05   0.00    -0.00  -0.00  -0.00     0.10   0.06   0.00
     8   6    -0.05  -0.13   0.00    -0.00   0.00   0.26     0.19  -0.13   0.00
     9   6    -0.16  -0.03  -0.00     0.00  -0.00  -0.20    -0.03  -0.14   0.00
    10   6    -0.22   0.19  -0.00    -0.00   0.00   0.09    -0.11  -0.05  -0.00
    11   1    -0.25   0.17  -0.00    -0.00   0.00   0.38     0.05   0.06  -0.00
    12   6     0.05   0.07  -0.00     0.00  -0.00  -0.13    -0.24   0.00  -0.00
    13   6     0.09   0.04   0.00    -0.00   0.00   0.09     0.07   0.15  -0.00
    14   6     0.10  -0.26   0.00     0.00  -0.00  -0.10     0.10  -0.15   0.00
    15   1     0.14  -0.15   0.00     0.00  -0.00  -0.06    -0.28  -0.11  -0.00
    16   1    -0.03   0.30  -0.00     0.00  -0.00  -0.38     0.08   0.01   0.00
    17   1     0.25  -0.18   0.00    -0.00   0.00   0.35    -0.38   0.02  -0.00
    18   1    -0.07   0.18  -0.00     0.00  -0.00  -0.27     0.16   0.03   0.00
    19   1     0.06  -0.19   0.00    -0.00   0.00   0.04    -0.23  -0.19  -0.00
    20   1    -0.12   0.15  -0.00    -0.00   0.00   0.26     0.11   0.13  -0.00
    21   1     0.04  -0.30   0.00     0.00  -0.00  -0.37    -0.17  -0.34   0.00
    22  16    -0.04   0.06  -0.00    -0.00  -0.00   0.00     0.15   0.09   0.00
    23   8     0.05  -0.09   0.00     0.00  -0.00  -0.00    -0.10  -0.06  -0.00
                     22                     23                     24
                      A                      A                      A
 Frequencies --    744.6555               754.7806               764.0712
 Red. masses --      1.6109                 1.2449                 2.3021
 Frc consts  --      0.5263                 0.4179                 0.7919
 IR Inten    --     66.7043                 0.3583                42.6649
  Atom  AN      X      Y      Z        X      Y      Z        X      Y      Z
     1   6     0.00  -0.00  -0.00     0.00  -0.00  -0.04     0.00  -0.00  -0.09
     2   6     0.00  -0.00  -0.07     0.00  -0.00  -0.06     0.00  -0.00  -0.01
     3   6    -0.00   0.00   0.09    -0.00   0.00   0.05     0.00  -0.00  -0.06
     4   6     0.00  -0.00  -0.07    -0.00   0.00   0.02    -0.00   0.00   0.17
     5   6    -0.00   0.00   0.02     0.00  -0.00  -0.01     0.00  -0.00  -0.03
     6   6     0.00  -0.00  -0.07     0.00  -0.00  -0.06    -0.00   0.00   0.02
     7   6    -0.00   0.00   0.06    -0.00  -0.00  -0.00     0.00  -0.00  -0.17
     8   6     0.00  -0.00  -0.07     0.00  -0.00  -0.01    -0.00   0.00   0.17
     9   6    -0.00   0.00   0.09     0.00  -0.00  -0.05     0.00  -0.00  -0.06
    10   6     0.00  -0.00  -0.08    -0.00   0.00   0.06     0.00  -0.00  -0.02
    11   1    -0.00   0.00   0.19     0.00  -0.00  -0.25    -0.00   0.00   0.41
    12   6     0.00  -0.00  -0.01    -0.00   0.00   0.04     0.00  -0.00  -0.09
    13   6     0.00  -0.00  -0.08    -0.00   0.00   0.05    -0.00   0.00   0.01
    14   6    -0.00   0.00   0.01    -0.00   0.00   0.01     0.00  -0.00  -0.03
    15   1    -0.00   0.00   0.48    -0.00   0.01   0.57    -0.00   0.00   0.41
    16   1    -0.00   0.00   0.16    -0.00   0.00   0.29    -0.00   0.00   0.38
    17   1    -0.00   0.00   0.34    -0.00   0.00   0.22     0.00  -0.00  -0.21
    18   1    -0.00   0.00   0.23    -0.00   0.00   0.30    -0.00   0.00   0.21
    19   1    -0.00   0.00   0.53     0.00  -0.00  -0.50    -0.00   0.00   0.47
    20   1    -0.00   0.00   0.26     0.00  -0.00  -0.27    -0.00   0.00   0.24
    21   1    -0.00   0.00   0.37     0.00  -0.00  -0.20     0.00  -0.00  -0.19
    22  16     0.00  -0.00  -0.01    -0.00   0.00  -0.00     0.00  -0.00   0.00
    23   8     0.00  -0.00  -0.01     0.00   0.00  -0.00    -0.00   0.00   0.03
                     25                     26                     27
                      A                      A                      A
 Frequencies --    787.4173               877.1191               888.2423
 Red. masses --      6.5995                 1.3585                 1.4777
 Frc consts  --      2.4109                 0.6158                 0.6869
 IR Inten    --      2.6021                 0.0610                 6.7210
  Atom  AN      X      Y      Z        X      Y      Z        X      Y      Z
     1   6    -0.10  -0.20   0.00     0.00  -0.00  -0.03    -0.00   0.00   0.03
     2   6    -0.11   0.10  -0.00     0.00  -0.00  -0.05    -0.00   0.00   0.06
     3   6    -0.14   0.13  -0.00    -0.00   0.00   0.02     0.00  -0.00  -0.03
     4   6    -0.03   0.15  -0.00     0.00  -0.00  -0.04    -0.00   0.00   0.07
     5   6     0.01   0.13  -0.00    -0.00   0.00   0.06     0.00  -0.00  -0.09
     6   6     0.24  -0.03   0.00    -0.00   0.00   0.05     0.00  -0.00  -0.06
     7   6     0.05  -0.09   0.00     0.00  -0.00  -0.01     0.00  -0.00  -0.07
     8   6    -0.11   0.10  -0.00    -0.00   0.00   0.05    -0.00   0.00   0.06
     9   6    -0.05   0.19  -0.00     0.00  -0.00  -0.02     0.00  -0.00  -0.02
    10   6    -0.03   0.14  -0.00    -0.00   0.00   0.06    -0.00   0.00   0.05
    11   1    -0.28  -0.02  -0.00     0.00  -0.00  -0.35     0.00  -0.00  -0.28
    12   6     0.22  -0.01   0.00    -0.00   0.00   0.04    -0.00   0.00   0.03
    13   6    -0.09  -0.22   0.00     0.00  -0.00  -0.06     0.00  -0.00  -0.05
    14   6    -0.12   0.06  -0.00     0.00  -0.00  -0.08     0.00  -0.00  -0.07
    15   1    -0.19  -0.14  -0.00    -0.00   0.00   0.15     0.00  -0.00  -0.17
    16   1     0.15   0.23  -0.00    -0.00   0.00   0.30     0.00  -0.00  -0.35
    17   1    -0.25   0.00  -0.00     0.00  -0.00  -0.44    -0.00   0.01   0.52
    18   1     0.25   0.08   0.00     0.00  -0.00  -0.30    -0.00   0.00   0.40
    19   1     0.21   0.10   0.00     0.00  -0.00  -0.19     0.00  -0.00  -0.14
    20   1    -0.19  -0.17  -0.00    -0.00   0.00   0.36    -0.00   0.00   0.31
    21   1     0.12   0.22  -0.00    -0.00   0.00   0.53    -0.00   0.00   0.42
    22  16     0.06  -0.09   0.00     0.00  -0.00   0.00    -0.00   0.00   0.00
    23   8     0.10  -0.16   0.00     0.00   0.00   0.00    -0.00   0.00   0.01
                     28                     29                     30
                      A                      A                      A
 Frequencies --    928.9532               947.6985               948.0096
 Red. masses --      6.5512                 1.3422                 1.3387
 Frc consts  --      3.3309                 0.7103                 0.7088
 IR Inten    --      0.5920                 3.4918                 0.0068
  Atom  AN      X      Y      Z        X      Y      Z        X      Y      Z
     1   6     0.04   0.00   0.00    -0.00   0.00   0.07    -0.00   0.00   0.07
     2   6     0.06  -0.15   0.00     0.00  -0.00  -0.08     0.00  -0.00  -0.09
     3   6     0.13  -0.07   0.00     0.00   0.00   0.01    -0.00   0.00   0.01
     4   6     0.15   0.19  -0.00    -0.00   0.00   0.02    -0.00   0.00   0.02
     5   6    -0.12   0.02  -0.00     0.00  -0.00  -0.04     0.00  -0.00  -0.04
     6   6    -0.27   0.00  -0.00    -0.00   0.00   0.01     0.00   0.00   0.01
     7   6     0.28   0.16   0.00     0.00  -0.00  -0.01    -0.00  -0.00  -0.00
     8   6     0.24   0.04   0.00    -0.00   0.00   0.02     0.00  -0.00  -0.02
     9   6     0.00   0.15  -0.00    -0.00   0.00   0.01     0.00  -0.00  -0.01
    10   6    -0.10   0.12  -0.00     0.00  -0.00  -0.09    -0.00   0.00   0.08
    11   1    -0.26   0.03  -0.00    -0.00   0.00   0.55     0.00  -0.00  -0.52
    12   6     0.02   0.04  -0.00    -0.00   0.00   0.07     0.00  -0.00  -0.07
    13   6    -0.13  -0.24   0.00    -0.00   0.00   0.01     0.00  -0.00  -0.01
    14   6    -0.04  -0.11   0.00     0.00  -0.00  -0.04    -0.00   0.00   0.04
    15   1     0.17  -0.09   0.00     0.00  -0.00  -0.39     0.00  -0.00  -0.42
    16   1    -0.10  -0.24   0.00    -0.00   0.00   0.51    -0.00   0.01   0.55
    17   1    -0.20  -0.02  -0.00    -0.00   0.00   0.19    -0.00   0.00   0.21
    18   1    -0.29  -0.14  -0.00     0.00  -0.00  -0.02     0.00  -0.00  -0.02
    19   1     0.01   0.19  -0.00     0.00  -0.00  -0.42    -0.00   0.00   0.38
    20   1    -0.26  -0.19   0.00     0.00  -0.00  -0.03    -0.00   0.00   0.03
    21   1    -0.12  -0.17   0.00    -0.00   0.00   0.20     0.00  -0.00  -0.19
    22  16    -0.03  -0.02  -0.00     0.00  -0.00  -0.00    -0.00  -0.00   0.00
    23   8    -0.07  -0.04  -0.00    -0.00   0.00   0.00     0.00   0.00  -0.00
                     31                     32                     33
                      A                      A                      A
 Frequencies --    957.9523              1009.8825              1011.9111
 Red. masses --      7.1289                 1.3681                 1.3610
 Frc consts  --      3.8544                 0.8221                 0.8211
 IR Inten    --     54.6509                 0.3280                 1.1236
  Atom  AN      X      Y      Z        X      Y      Z        X      Y      Z
     1   6    -0.06  -0.19   0.00     0.00  -0.00  -0.02    -0.00   0.00   0.05
     2   6    -0.06   0.10  -0.00    -0.00   0.00   0.00     0.00  -0.00  -0.01
     3   6     0.36  -0.07   0.00     0.00   0.00   0.00     0.00  -0.00  -0.00
     4   6     0.05   0.07  -0.00    -0.00   0.00   0.00     0.00  -0.00  -0.02
     5   6    -0.08   0.07  -0.00     0.00  -0.00  -0.03    -0.00   0.00   0.10
     6   6     0.04   0.08  -0.00    -0.00   0.00   0.03     0.00  -0.00  -0.13
     7   6    -0.28  -0.16  -0.00    -0.00   0.00   0.01    -0.00   0.00   0.01
     8   6     0.08   0.00   0.00     0.00  -0.00  -0.02     0.00  -0.00  -0.01
     9   6     0.12   0.35  -0.00     0.00  -0.00  -0.00     0.00   0.00  -0.00
    10   6     0.06  -0.10   0.00     0.00  -0.00  -0.01     0.00  -0.00  -0.00
    11   1    -0.01  -0.14   0.00    -0.00   0.00   0.07    -0.00   0.00   0.01
    12   6    -0.19   0.04  -0.00    -0.00   0.00   0.06    -0.00   0.00   0.01
    13   6     0.09  -0.00   0.00     0.00  -0.00  -0.13     0.00  -0.00  -0.03
    14   6     0.02  -0.11   0.00    -0.00   0.00   0.10    -0.00   0.00   0.03
    15   1     0.06  -0.26   0.00    -0.00   0.00   0.08     0.00  -0.00  -0.27
    16   1    -0.13   0.06  -0.00     0.00  -0.00  -0.02    -0.00   0.00   0.06
    17   1    -0.19   0.02  -0.00    -0.00   0.00   0.15     0.00  -0.01  -0.56
    18   1     0.05   0.31  -0.00     0.00  -0.00  -0.18    -0.01   0.01   0.71
    19   1    -0.20   0.18  -0.00     0.00  -0.00  -0.29     0.00  -0.00  -0.07
    20   1     0.29  -0.11   0.00    -0.01   0.01   0.72    -0.00   0.00   0.19
    21   1    -0.08  -0.18   0.00     0.00  -0.00  -0.55     0.00  -0.00  -0.14
    22  16    -0.07  -0.04  -0.00    -0.00   0.00  -0.00    -0.00  -0.00  -0.00
    23   8     0.03   0.02   0.00     0.00   0.00  -0.00     0.00   0.00  -0.00
                     34                     35                     36
                      A                      A                      A
 Frequencies --   1044.2273              1050.8085              1085.9937
 Red. masses --      2.3150                 1.8284                 4.6150
 Frc consts  --      1.4873                 1.1895                 3.2069
 IR Inten    --      0.2401                24.2405                 1.2409
  Atom  AN      X      Y      Z        X      Y      Z        X      Y      Z
     1   6    -0.04  -0.14   0.00    -0.03  -0.11   0.00     0.05   0.07  -0.00
     2   6     0.07  -0.03   0.00     0.07  -0.02   0.00     0.09  -0.11   0.00
     3   6     0.04   0.01   0.00    -0.04   0.03  -0.00    -0.27   0.09  -0.00
     4   6     0.02  -0.01   0.00     0.00  -0.04   0.00    -0.00   0.09  -0.00
     5   6     0.01   0.11  -0.00     0.03   0.07  -0.00     0.10  -0.14   0.00
     6   6    -0.12   0.04  -0.00    -0.10   0.04  -0.00    -0.10   0.05  -0.00
     7   6    -0.01   0.02  -0.00    -0.01  -0.01  -0.00    -0.01   0.01  -0.00
     8   6    -0.00  -0.02   0.00    -0.04   0.02  -0.00    -0.07   0.05  -0.00
     9   6    -0.03  -0.03  -0.00     0.01  -0.05   0.00     0.06   0.28  -0.00
    10   6    -0.01  -0.08   0.00     0.02   0.06  -0.00     0.05  -0.13   0.00
    11   1    -0.24  -0.24  -0.00     0.28   0.24   0.00    -0.27  -0.33   0.00
    12   6     0.15  -0.04   0.00    -0.10   0.03  -0.00    -0.09  -0.01  -0.00
    13   6     0.03   0.13  -0.00    -0.01  -0.10   0.00     0.01   0.11  -0.00
    14   6    -0.10   0.05  -0.00     0.07  -0.01   0.00     0.07  -0.15   0.00
    15   1     0.10  -0.25   0.00     0.09  -0.20   0.00    -0.06   0.14  -0.00
    16   1     0.31   0.09   0.00     0.36   0.14   0.00     0.43   0.08   0.00
    17   1     0.34   0.29   0.00     0.42   0.28   0.00     0.16  -0.11   0.00
    18   1    -0.12   0.15  -0.00    -0.10   0.16  -0.00    -0.09   0.29  -0.00
    19   1     0.18  -0.22   0.00    -0.12   0.17  -0.00    -0.10   0.11  -0.00
    20   1    -0.07   0.19  -0.00     0.08  -0.15   0.00    -0.20   0.21  -0.00
    21   1    -0.45  -0.18  -0.00     0.43   0.23   0.00     0.01  -0.20   0.00
    22  16    -0.00   0.00  -0.00     0.00   0.00   0.00     0.03  -0.05   0.00
    23   8     0.00  -0.01   0.00     0.01   0.00   0.00     0.03  -0.06   0.00
                     37                     38                     39
                      A                      A                      A
 Frequencies --   1103.4474              1130.0486              1153.1720
 Red. masses --      1.9016                 1.8508                 1.3409
 Frc consts  --      1.3642                 1.3925                 1.0506
 IR Inten    --    140.4732                23.5741                 6.8896
  Atom  AN      X      Y      Z        X      Y      Z        X      Y      Z
     1   6    -0.01   0.02  -0.00    -0.07  -0.01  -0.00     0.07  -0.01   0.00
     2   6     0.07  -0.07   0.00     0.07  -0.06   0.00    -0.04   0.02  -0.00
     3   6    -0.02   0.04  -0.00     0.13   0.02   0.00    -0.08  -0.03  -0.00
     4   6    -0.01   0.07  -0.00     0.01   0.07  -0.00     0.01   0.01   0.00
     5   6     0.02  -0.11   0.00    -0.02  -0.03   0.00     0.00  -0.01   0.00
     6   6    -0.02   0.07  -0.00    -0.01   0.03  -0.00    -0.00   0.04  -0.00
     7   6    -0.08  -0.05  -0.00    -0.01   0.02  -0.00    -0.02  -0.01  -0.00
     8   6     0.06  -0.05   0.00    -0.06   0.03  -0.00     0.01   0.01   0.00
     9   6     0.02  -0.04   0.00    -0.08  -0.10   0.00    -0.06  -0.05  -0.00
    10   6    -0.03   0.10  -0.00     0.02  -0.09   0.00    -0.00  -0.05   0.00
    11   1     0.11   0.20  -0.00    -0.02  -0.13   0.00    -0.15  -0.15   0.00
    12   6     0.01  -0.02   0.00     0.04   0.05  -0.00     0.03   0.06  -0.00
    13   6     0.05  -0.06   0.00    -0.02   0.03  -0.00     0.03  -0.02   0.00
    14   6    -0.08   0.08  -0.00     0.03   0.00   0.00    -0.00   0.01  -0.00
    15   1    -0.17   0.11  -0.00    -0.33   0.15  -0.00     0.54  -0.31   0.01
    16   1     0.22   0.00   0.00     0.12  -0.05   0.00    -0.22  -0.07  -0.00
    17   1    -0.20  -0.23   0.00    -0.40  -0.22  -0.00    -0.10  -0.06  -0.00
    18   1     0.00   0.52  -0.00     0.00   0.34  -0.00     0.01   0.29  -0.00
    19   1     0.02  -0.20   0.00     0.03   0.33  -0.00    -0.00   0.57  -0.01
    20   1     0.46  -0.26   0.01    -0.30   0.17  -0.00     0.21  -0.10   0.00
    21   1    -0.31  -0.07  -0.00     0.39   0.24   0.00    -0.07  -0.04  -0.00
    22  16     0.00   0.00   0.00    -0.01   0.01  -0.00     0.02   0.01   0.00
    23   8     0.00   0.00   0.00     0.03  -0.05   0.00     0.00   0.00   0.00
                     40                     41                     42
                      A                      A                      A
 Frequencies --   1156.2305              1189.2605              1229.6557
 Red. masses --      1.1489                 2.3969                 1.6712
 Frc consts  --      0.9049                 1.9974                 1.4888
 IR Inten    --     78.9723                21.3063               373.5916
  Atom  AN      X      Y      Z        X      Y      Z        X      Y      Z
     1   6    -0.03   0.02  -0.00    -0.01  -0.02   0.00    -0.01   0.01  -0.00
     2   6     0.01  -0.00   0.00     0.02   0.07  -0.00     0.01   0.06  -0.00
     3   6     0.02   0.02  -0.00    -0.02  -0.03   0.00    -0.04  -0.09   0.00
     4   6     0.00   0.00  -0.00    -0.08  -0.16   0.00     0.09  -0.07   0.00
     5   6     0.01   0.01  -0.00    -0.05  -0.05   0.00    -0.04   0.03  -0.00
     6   6    -0.00  -0.04   0.00     0.06   0.04   0.00    -0.00   0.02  -0.00
     7   6    -0.02   0.03  -0.00     0.04  -0.07   0.00     0.02   0.01   0.00
     8   6    -0.00   0.00  -0.00     0.18  -0.01   0.00    -0.02   0.11  -0.00
     9   6    -0.03  -0.01  -0.00     0.03   0.00   0.00    -0.10   0.01  -0.00
    10   6    -0.00  -0.02   0.00    -0.07   0.02  -0.00     0.06  -0.02   0.00
    11   1    -0.13  -0.10  -0.00    -0.48  -0.24  -0.00     0.48   0.24   0.00
    12   6     0.00   0.05  -0.00     0.02   0.01   0.00     0.01  -0.02   0.00
    13   6     0.04  -0.02   0.00    -0.07  -0.03  -0.00     0.01  -0.01   0.00
    14   6    -0.01  -0.00  -0.00     0.06   0.02   0.00     0.01  -0.05   0.00
    15   1    -0.37   0.24  -0.01    -0.23   0.13  -0.00     0.01   0.00   0.00
    16   1     0.13   0.06   0.00     0.44   0.30   0.00     0.43   0.29   0.00
    17   1     0.21   0.11   0.00     0.01  -0.02   0.00    -0.41  -0.16  -0.00
    18   1    -0.02  -0.41   0.00     0.08   0.27  -0.00    -0.01  -0.04   0.00
    19   1    -0.03   0.51  -0.00     0.00   0.28  -0.00     0.01   0.00   0.00
    20   1     0.39  -0.19   0.01    -0.27   0.06  -0.00    -0.05   0.01  -0.00
    21   1    -0.21  -0.14  -0.00     0.01  -0.03   0.00    -0.33  -0.28  -0.00
    22  16     0.00  -0.00   0.00     0.00  -0.00   0.00    -0.00  -0.00  -0.00
    23   8     0.01  -0.02   0.00    -0.06   0.11  -0.00     0.01   0.00   0.00
                     43                     44                     45
                      A                      A                      A
 Frequencies --   1261.2218              1266.3826              1326.9221
 Red. masses --      3.0411                 1.7650                 5.0318
 Frc consts  --      2.8501                 1.6677                 5.2199
 IR Inten    --    620.5379                41.9121               121.4649
  Atom  AN      X      Y      Z        X      Y      Z        X      Y      Z
     1   6    -0.06  -0.02  -0.00    -0.00   0.01  -0.00    -0.09   0.09  -0.00
     2   6     0.05   0.00   0.00    -0.02   0.01  -0.00     0.04   0.07  -0.00
     3   6     0.09   0.03   0.00    -0.03  -0.06   0.00    -0.02  -0.20   0.00
     4   6    -0.13  -0.15   0.00     0.15   0.00   0.00    -0.12  -0.04  -0.00
     5   6    -0.02   0.04  -0.00     0.00   0.05  -0.00     0.07   0.04   0.00
     6   6     0.03  -0.04   0.00    -0.04   0.02  -0.00     0.03  -0.06   0.00
     7   6     0.23   0.14   0.00     0.03  -0.04   0.00    -0.19   0.32  -0.00
     8   6    -0.19  -0.03  -0.00    -0.08  -0.13   0.00     0.09   0.08  -0.00
     9   6     0.06   0.06  -0.00     0.07   0.01   0.00     0.18  -0.07   0.00
    10   6     0.03   0.04  -0.00     0.00   0.03  -0.00    -0.08  -0.00  -0.00
    11   1    -0.10  -0.04  -0.00    -0.34  -0.20  -0.00    -0.38  -0.18  -0.00
    12   6    -0.04  -0.04   0.00    -0.01   0.00  -0.00    -0.03   0.12  -0.00
    13   6    -0.02   0.04  -0.00     0.00   0.05  -0.00     0.03  -0.05   0.00
    14   6     0.04  -0.04   0.00    -0.04   0.02  -0.00    -0.07  -0.04  -0.00
    15   1     0.03  -0.08   0.00     0.07  -0.03   0.00     0.31  -0.16   0.00
    16   1    -0.12  -0.09  -0.00     0.34   0.21   0.00     0.34   0.24   0.00
    17   1    -0.23  -0.06  -0.00    -0.43  -0.17  -0.00    -0.15  -0.07  -0.00
    18   1     0.07   0.57  -0.00    -0.06  -0.29   0.00     0.04   0.05  -0.00
    19   1    -0.06   0.07  -0.00    -0.00  -0.07   0.00    -0.01  -0.34   0.00
    20   1     0.50  -0.21   0.01     0.32  -0.10   0.00    -0.06  -0.01  -0.00
    21   1    -0.20  -0.20  -0.00     0.34   0.28   0.00     0.13   0.10   0.00
    22  16    -0.02  -0.01  -0.00    -0.00   0.01  -0.00    -0.00   0.00  -0.00
    23   8    -0.01  -0.01   0.00    -0.02   0.04  -0.00     0.10  -0.18   0.00
                     46                     47                     48
                      A                      A                      A
 Frequencies --   1357.5707              1396.1433              1416.6404
 Red. masses --      7.0677                 2.3130                10.2406
 Frc consts  --      7.6746                 2.6563                12.1086
 IR Inten    --      1.0954                47.5524                45.7841
  Atom  AN      X      Y      Z        X      Y      Z        X      Y      Z
     1   6     0.18  -0.13   0.00     0.08   0.00   0.00     0.20  -0.12   0.00
     2   6    -0.14  -0.05  -0.00    -0.06   0.06  -0.00    -0.16  -0.04  -0.00
     3   6    -0.02   0.24  -0.00     0.01  -0.13   0.00    -0.01   0.17  -0.00
     4   6     0.18  -0.20   0.00    -0.05   0.06  -0.00     0.18  -0.23   0.00
     5   6    -0.20  -0.08  -0.00    -0.10  -0.08   0.00    -0.19  -0.07  -0.00
     6   6     0.01   0.16  -0.00     0.04  -0.01   0.00     0.02   0.19  -0.00
     7   6     0.05   0.03   0.00     0.09   0.05   0.00    -0.23   0.40  -0.01
     8   6    -0.09   0.26  -0.00     0.03  -0.07   0.00     0.11  -0.27   0.00
     9   6     0.20  -0.13   0.00    -0.11   0.07  -0.00    -0.14   0.09  -0.00
    10   6    -0.11  -0.10  -0.00     0.02  -0.08   0.00     0.11   0.13  -0.00
    11   1    -0.16  -0.13  -0.00     0.26   0.06   0.00    -0.01   0.05  -0.00
    12   6    -0.02   0.22  -0.00     0.04   0.07  -0.00     0.01  -0.24   0.00
    13   6     0.14  -0.06   0.00     0.01   0.04  -0.00    -0.17   0.08  -0.00
    14   6    -0.17  -0.14  -0.00    -0.12  -0.05  -0.00     0.16   0.13   0.00
    15   1    -0.36   0.22  -0.00    -0.13   0.15  -0.00    -0.23   0.16  -0.00
    16   1    -0.19  -0.07  -0.00     0.18   0.20  -0.00    -0.04   0.04  -0.00
    17   1     0.01   0.03  -0.00     0.44   0.19   0.00    -0.07  -0.00  -0.00
    18   1     0.01   0.06  -0.00     0.06   0.31  -0.00     0.00   0.00  -0.00
    19   1     0.02  -0.42   0.00     0.07  -0.18   0.00    -0.03   0.28  -0.00
    20   1     0.06  -0.02   0.00     0.30  -0.09   0.00    -0.01  -0.00  -0.00
    21   1     0.03  -0.01   0.00     0.38   0.29   0.00     0.03   0.06  -0.00
    22  16     0.00   0.00   0.00     0.00   0.00   0.00     0.00  -0.00   0.00
    23   8     0.02   0.01   0.00    -0.01  -0.01  -0.00     0.11  -0.19   0.00
                     49                     50                     51
                      A                      A                      A
 Frequencies --   1440.0509              1461.2010              1485.0686
 Red. masses --      2.2232                 2.3620                 2.7412
 Frc consts  --      2.7164                 2.9713                 3.5619
 IR Inten    --    476.0425                 0.3140               140.9594
  Atom  AN      X      Y      Z        X      Y      Z        X      Y      Z
     1   6     0.02  -0.03   0.00     0.07  -0.03   0.00    -0.06  -0.04  -0.00
     2   6     0.11   0.09  -0.00     0.06   0.10  -0.00     0.12   0.03   0.00
     3   6    -0.08  -0.04  -0.00    -0.08  -0.08   0.00    -0.06   0.10  -0.00
     4   6     0.09  -0.00   0.00     0.08  -0.01   0.00    -0.05  -0.14   0.00
     5   6    -0.02   0.06  -0.00    -0.01   0.07  -0.00     0.12   0.05   0.00
     6   6    -0.04  -0.10   0.00    -0.05  -0.12   0.00    -0.03   0.05  -0.00
     7   6    -0.06  -0.03  -0.00    -0.01   0.02  -0.00    -0.01   0.02  -0.00
     8   6     0.04   0.08  -0.00    -0.03  -0.08   0.00     0.15  -0.03   0.00
     9   6    -0.07  -0.05  -0.00     0.11   0.03   0.00    -0.05   0.10  -0.00
    10   6     0.13   0.05   0.00    -0.12  -0.01  -0.00    -0.08  -0.09   0.00
    11   1    -0.35  -0.27  -0.00     0.20   0.22  -0.00     0.36   0.18   0.00
    12   6    -0.02   0.03  -0.00    -0.01  -0.08   0.00     0.07   0.03   0.00
    13   6    -0.10   0.02  -0.00     0.13  -0.01   0.00    -0.03   0.05  -0.00
    14   6     0.04  -0.05   0.00    -0.06   0.05  -0.00    -0.10  -0.08  -0.00
    15   1    -0.33   0.19  -0.00    -0.36   0.25  -0.01    -0.06  -0.06   0.00
    16   1    -0.41  -0.18  -0.00    -0.28  -0.07  -0.00    -0.33  -0.22  -0.00
    17   1    -0.01   0.08  -0.00    -0.04   0.07  -0.00    -0.36  -0.20  -0.00
    18   1    -0.02   0.32  -0.00    -0.03   0.39  -0.00    -0.06  -0.29   0.00
    19   1     0.01  -0.37   0.00    -0.04   0.44  -0.00     0.08   0.02   0.00
    20   1     0.26  -0.17   0.00    -0.33   0.22  -0.00     0.28  -0.09   0.00
    21   1     0.06  -0.05   0.00    -0.05   0.07  -0.00     0.35   0.22   0.00
    22  16     0.00   0.00  -0.00    -0.00   0.00  -0.00     0.01  -0.01   0.00
    23   8     0.01   0.00   0.00     0.00  -0.00   0.00    -0.01   0.02  -0.00
                     52                     53                     54
                      A                      A                      A
 Frequencies --   1534.0524              1556.3105              1571.3637
 Red. masses --      3.8757                 5.5042                 4.3968
 Frc consts  --      5.3738                 7.8549                 6.3965
 IR Inten    --    592.7808               246.7329              1046.8287
  Atom  AN      X      Y      Z        X      Y      Z        X      Y      Z
     1   6     0.13  -0.15   0.00    -0.16   0.17  -0.00    -0.16  -0.03  -0.00
     2   6    -0.00   0.10  -0.00     0.04  -0.10   0.00     0.20   0.07   0.00
     3   6    -0.02  -0.08   0.00    -0.02   0.18  -0.00    -0.05  -0.05   0.00
     4   6    -0.14   0.01  -0.00     0.14  -0.14   0.00     0.02  -0.01   0.00
     5   6     0.15  -0.01   0.00    -0.10   0.07  -0.00    -0.12  -0.13   0.00
     6   6    -0.09   0.15  -0.00     0.07  -0.21   0.00     0.10   0.18  -0.00
     7   6     0.07   0.04   0.00    -0.01   0.02  -0.00     0.06   0.04   0.00
     8   6    -0.06  -0.13   0.00     0.05  -0.19   0.00     0.01   0.02  -0.00
     9   6    -0.08   0.03  -0.00    -0.14   0.11  -0.00    -0.07  -0.02  -0.00
    10   6     0.08  -0.05   0.00     0.07  -0.08   0.00     0.16   0.14   0.00
    11   1    -0.10  -0.18   0.00    -0.00  -0.15   0.00    -0.30  -0.15  -0.00
    12   6    -0.07   0.19  -0.00    -0.07   0.22  -0.00    -0.11  -0.13   0.00
    13   6     0.09  -0.15   0.00     0.15  -0.16   0.00     0.20  -0.00   0.00
    14   6     0.07   0.13  -0.00    -0.01   0.12  -0.00    -0.18  -0.04  -0.00
    15   1    -0.34   0.14  -0.00     0.32  -0.13   0.00     0.11  -0.22   0.00
    16   1    -0.20  -0.00  -0.00     0.13  -0.07   0.00    -0.28  -0.19  -0.00
    17   1    -0.23  -0.21   0.00     0.03   0.15  -0.00     0.18   0.01   0.00
    18   1    -0.12  -0.30   0.00     0.11   0.35  -0.00     0.07  -0.36   0.00
    19   1    -0.04  -0.37   0.00    -0.05  -0.35   0.00    -0.14   0.20  -0.00
    20   1    -0.32   0.04  -0.00    -0.35   0.07  -0.00    -0.28   0.24  -0.00
    21   1    -0.29  -0.10  -0.00    -0.14   0.05  -0.00     0.09   0.16  -0.00
    22  16     0.01   0.00   0.00     0.01  -0.01   0.00    -0.01  -0.00  -0.00
    23   8    -0.01  -0.00  -0.00    -0.01   0.02  -0.00    -0.00  -0.00  -0.00
                     55                     56                     57
                      A                      A                      A
 Frequencies --   1617.8926              3184.8093              3185.3965
 Red. masses --      5.5936                 1.0874                 1.0877
 Frc consts  --      8.6266                 6.4982                 6.5023
 IR Inten    --     36.4437                49.6055                 5.3913
  Atom  AN      X      Y      Z        X      Y      Z        X      Y      Z
     1   6    -0.16  -0.02  -0.00     0.01   0.01  -0.00     0.01   0.02  -0.00
     2   6     0.21   0.09   0.00     0.01  -0.02   0.00     0.02  -0.04   0.00
     3   6    -0.09  -0.09   0.00     0.00   0.00   0.00     0.00   0.00  -0.00
     4   6     0.13   0.07   0.00     0.00   0.00  -0.00     0.00   0.00  -0.00
     5   6    -0.19  -0.14  -0.00     0.00  -0.00   0.00     0.01  -0.01   0.00
     6   6     0.10   0.15  -0.00    -0.03   0.00  -0.00    -0.05   0.00  -0.00
     7   6    -0.01   0.01  -0.00    -0.00  -0.00  -0.00    -0.00  -0.00  -0.00
     8   6    -0.12  -0.08  -0.00     0.00  -0.00   0.00     0.00   0.00   0.00
     9   6     0.13   0.03   0.00     0.00   0.00   0.00    -0.00  -0.00  -0.00
    10   6    -0.18  -0.14  -0.00    -0.02   0.04  -0.00     0.01  -0.02   0.00
    11   1     0.28   0.15   0.00     0.29  -0.45   0.01    -0.16   0.25  -0.00
    12   6     0.10   0.13  -0.00     0.02   0.00   0.00    -0.01  -0.00  -0.00
    13   6    -0.18  -0.02  -0.00    -0.02  -0.05   0.00     0.01   0.03  -0.00
    14   6     0.22   0.10   0.00    -0.00   0.01  -0.00     0.00  -0.00   0.00
    15   1     0.08  -0.20   0.00    -0.09  -0.14   0.00    -0.16  -0.25   0.00
    16   1    -0.26  -0.17  -0.00    -0.13   0.24  -0.00    -0.24   0.44  -0.01
    17   1     0.28   0.09   0.00    -0.03   0.06  -0.00    -0.06   0.11  -0.00
    18   1     0.09  -0.23   0.00     0.35  -0.02   0.00     0.63  -0.03   0.01
    19   1     0.13  -0.17   0.00    -0.30  -0.02  -0.00     0.17   0.01   0.00
    20   1     0.16  -0.20   0.00     0.27   0.55  -0.00    -0.15  -0.30   0.00
    21   1    -0.21  -0.20   0.00     0.06  -0.10   0.00    -0.03   0.05  -0.00
    22  16    -0.00   0.00  -0.00    -0.00  -0.00  -0.00    -0.00  -0.00   0.00
    23   8     0.00  -0.01   0.00    -0.00  -0.00  -0.00     0.00  -0.00   0.00
                     58                     59                     60
                      A                      A                      A
 Frequencies --   3188.6656              3189.0976              3216.3530
 Red. masses --      1.0908                 1.0908                 1.0948
 Frc consts  --      6.5347                 6.5366                 6.6731
 IR Inten    --     16.8955                14.6216                33.8098
  Atom  AN      X      Y      Z        X      Y      Z        X      Y      Z
     1   6    -0.00   0.00  -0.00    -0.00   0.01  -0.00    -0.03  -0.04   0.00
     2   6     0.00  -0.00   0.00     0.03  -0.06   0.00     0.01  -0.01   0.00
     3   6     0.00   0.00  -0.00     0.00   0.00  -0.00     0.00   0.00  -0.00
     4   6    -0.00   0.00  -0.00    -0.00   0.00  -0.00    -0.00  -0.00   0.00
     5   6    -0.00   0.00  -0.00    -0.01   0.01  -0.00     0.01  -0.01   0.00
     6   6     0.00  -0.00   0.00     0.05  -0.00   0.00    -0.01   0.00  -0.00
     7   6    -0.00  -0.00   0.00     0.00   0.00   0.00     0.00   0.00  -0.00
     8   6    -0.00   0.00  -0.00    -0.00   0.00  -0.00    -0.00  -0.00  -0.00
     9   6    -0.00  -0.00  -0.00     0.00  -0.00   0.00     0.00  -0.00   0.00
    10   6     0.04  -0.05   0.00    -0.00   0.00  -0.00    -0.01   0.02  -0.00
    11   1    -0.40   0.63  -0.01     0.02  -0.04   0.00     0.10  -0.17   0.00
    12   6    -0.00   0.00  -0.00     0.00  -0.00   0.00    -0.07  -0.01  -0.00
    13   6    -0.03  -0.05   0.00     0.00   0.00  -0.00    -0.00  -0.02   0.00
    14   6    -0.00   0.01  -0.00     0.00  -0.00   0.00    -0.01   0.01  -0.00
    15   1    -0.00  -0.00   0.00    -0.02  -0.04   0.00     0.29   0.44  -0.00
    16   1    -0.02   0.03  -0.00    -0.36   0.68  -0.01    -0.07   0.12  -0.00
    17   1     0.00  -0.01   0.00     0.05  -0.10   0.00    -0.05   0.10  -0.00
    18   1    -0.04   0.00  -0.00    -0.61   0.03  -0.01     0.12  -0.01   0.00
    19   1     0.03  -0.00   0.00    -0.00   0.00  -0.00     0.75   0.05   0.01
    20   1     0.28   0.58  -0.00    -0.01  -0.03   0.00     0.07   0.15  -0.00
    21   1     0.06  -0.10   0.00    -0.00   0.00  -0.00     0.09  -0.14   0.00
    22  16     0.00  -0.00   0.00    -0.00  -0.00   0.00     0.00   0.00  -0.00
    23   8    -0.00  -0.00  -0.00     0.00   0.00  -0.00    -0.00  -0.00   0.00
                     61                     62                     63
                      A                      A                      A
 Frequencies --   3216.7642              3224.7756              3225.2650
 Red. masses --      1.0949                 1.0922                 1.0926
 Frc consts  --      6.6753                 6.6921                 6.6965
 IR Inten    --      5.8925                22.1915                 0.6086
  Atom  AN      X      Y      Z        X      Y      Z        X      Y      Z
     1   6    -0.04  -0.06   0.00     0.01   0.01  -0.00     0.01   0.01  -0.00
     2   6     0.01  -0.02   0.00    -0.00   0.00  -0.00    -0.00   0.00  -0.00
     3   6     0.00   0.00  -0.00    -0.00  -0.00   0.00    -0.00  -0.00  -0.00
     4   6    -0.00  -0.00  -0.00    -0.00   0.00  -0.00    -0.00  -0.00  -0.00
     5   6     0.01  -0.01   0.00     0.03  -0.05   0.00     0.03  -0.05   0.00
     6   6    -0.01   0.00  -0.00     0.02   0.00   0.00     0.02   0.00   0.00
     7   6     0.00  -0.00   0.00    -0.00  -0.00  -0.00     0.00  -0.00   0.00
     8   6    -0.00   0.00  -0.00    -0.00  -0.00   0.00     0.00   0.00  -0.00
     9   6    -0.00  -0.00  -0.00    -0.00   0.00  -0.00     0.00   0.00  -0.00
    10   6     0.01  -0.01   0.00     0.00  -0.00   0.00    -0.00   0.00  -0.00
    11   1    -0.07   0.12  -0.00    -0.02   0.03  -0.00     0.02  -0.03   0.00
    12   6     0.05   0.00   0.00     0.01  -0.00   0.00    -0.01   0.00  -0.00
    13   6     0.00   0.01  -0.00     0.01   0.01  -0.00    -0.01  -0.01   0.00
    14   6     0.01  -0.01   0.00    -0.03   0.05  -0.00     0.03  -0.05   0.00
    15   1     0.41   0.63  -0.00    -0.06  -0.10   0.00    -0.07  -0.11   0.00
    16   1    -0.10   0.18  -0.00     0.02  -0.03   0.00     0.02  -0.03   0.00
    17   1    -0.09   0.17  -0.00    -0.31   0.61  -0.01    -0.30   0.59  -0.01
    18   1     0.16  -0.01   0.00    -0.16   0.01  -0.00    -0.16   0.01  -0.00
    19   1    -0.52  -0.03  -0.00    -0.10  -0.01  -0.00     0.13   0.01   0.00
    20   1    -0.05  -0.10   0.00    -0.07  -0.13   0.00     0.07   0.14  -0.00
    21   1    -0.08   0.11  -0.00     0.37  -0.55   0.01    -0.38   0.57  -0.01
    22  16     0.00  -0.00   0.00    -0.00  -0.00  -0.00    -0.00   0.00  -0.00
    23   8    -0.00   0.00  -0.00    -0.00  -0.00  -0.00    -0.00   0.00  -0.00

 -------------------
 - Thermochemistry -
 -------------------
 Temperature   298.150 Kelvin.  Pressure   1.00000 Atm.
 Atom     1 has atomic number  6 and mass  12.00000
 Atom     2 has atomic number  6 and mass  12.00000
 Atom     3 has atomic number  6 and mass  12.00000
 Atom     4 has atomic number  6 and mass  12.00000
 Atom     5 has atomic number  6 and mass  12.00000
 Atom     6 has atomic number  6 and mass  12.00000
 Atom     7 has atomic number  6 and mass  12.00000
 Atom     8 has atomic number  6 and mass  12.00000
 Atom     9 has atomic number  6 and mass  12.00000
 Atom    10 has atomic number  6 and mass  12.00000
 Atom    11 has atomic number  1 and mass   1.00783
 Atom    12 has atomic number  6 and mass  12.00000
 Atom    13 has atomic number  6 and mass  12.00000
 Atom    14 has atomic number  6 and mass  12.00000
 Atom    15 has atomic number  1 and mass   1.00783
 Atom    16 has atomic number  1 and mass   1.00783
 Atom    17 has atomic number  1 and mass   1.00783
 Atom    18 has atomic number  1 and mass   1.00783
 Atom    19 has atomic number  1 and mass   1.00783
 Atom    20 has atomic number  1 and mass   1.00783
 Atom    21 has atomic number  1 and mass   1.00783
 Atom    22 has atomic number 16 and mass  31.97207
 Atom    23 has atomic number  8 and mass  15.99491
 Molecular mass:   212.02959 amu.
 Principal axes and moments of inertia in atomic units:
                           1         2         3
     Eigenvalues --  1484.912514273.416375758.32875
           X            0.86210  -0.50667  -0.00803
           Y            0.50673   0.86205   0.00955
           Z            0.00209  -0.01230   0.99992
 This molecule is an asymmetric top.
 Rotational symmetry number  1.
 Warning -- assumption of classical behavior for rotation
           may cause significant error
 Rotational temperatures (Kelvin)      0.05833     0.02027     0.01504
 Rotational constants (GHZ):           1.21539     0.42232     0.31341
 Zero-point vibrational energy     440613.0 (Joules/Mol)
                                  105.30902 (Kcal/Mol)
 Warning -- explicit consideration of  18 degrees of freedom as
           vibrations may cause significant error
 Vibrational temperatures:     55.44   132.71   201.47   264.74   317.69
          (Kelvin)            329.00   453.74   493.26   539.18   584.92
                              639.88   643.84   664.53   675.65   712.99
                              838.50   864.81   884.09   959.99  1022.10
                             1065.10  1071.39  1085.96  1099.33  1132.92
                             1261.98  1277.98  1336.56  1363.53  1363.97
                             1378.28  1453.00  1455.91  1502.41  1511.88
                             1562.50  1587.61  1625.89  1659.16  1663.56
                             1711.08  1769.20  1814.62  1822.04  1909.14
                             1953.24  2008.74  2038.23  2071.91  2102.34
                             2136.68  2207.16  2239.18  2260.84  2327.79
                             4582.23  4583.08  4587.78  4588.40  4627.61
                             4628.21  4639.73  4640.44
 
 Zero-point correction=                           0.167821 (Hartree/Particle)
 Thermal correction to Energy=                    0.179066
 Thermal correction to Enthalpy=                  0.180010
 Thermal correction to Gibbs Free Energy=         0.129074
 Sum of electronic and zero-point Energies=           -973.484968
 Sum of electronic and thermal Energies=              -973.473723
 Sum of electronic and thermal Enthalpies=            -973.472779
 Sum of electronic and thermal Free Energies=         -973.523715
 
                     E (Thermal)             CV                S
                      KCal/Mol        Cal/Mol-Kelvin    Cal/Mol-Kelvin
 Total                  112.366             45.743            107.204
 Electronic               0.000              0.000              2.183
 Translational            0.889              2.981             41.958
 Rotational               0.889              2.981             31.969
 Vibrational            110.588             39.782             31.094
 Vibration     1          0.594              1.981              5.333
 Vibration     2          0.602              1.955              3.612
 Vibration     3          0.615              1.913              2.804
 Vibration     4          0.631              1.862              2.287
 Vibration     5          0.648              1.809              1.952
 Vibration     6          0.651              1.797              1.889
 Vibration     7          0.703              1.644              1.334
 Vibration     8          0.722              1.590              1.199
 Vibration     9          0.746              1.524              1.060
 Vibration    10          0.771              1.456              0.939
 Vibration    11          0.804              1.372              0.812
 Vibration    12          0.807              1.366              0.803
 Vibration    13          0.820              1.335              0.761
 Vibration    14          0.827              1.317              0.739
 Vibration    15          0.851              1.260              0.669
 Vibration    16          0.940              1.069              0.480
 Vibration    17          0.959              1.030              0.448
 Vibration    18          0.974              1.001              0.425
                       Q            Log10(Q)             Ln(Q)
 Total Bot       0.426613D-59        -59.369966       -136.704398
 Total V=0       0.663878D+18         17.822089         41.036875
 Vib (Bot)       0.541543D-74        -74.266367       -171.004630
 Vib (Bot)    1  0.537036D+01          0.730003          1.680895
 Vib (Bot)    2  0.222826D+01          0.347966          0.801222
 Vib (Bot)    3  0.145212D+01          0.162001          0.373021
 Vib (Bot)    4  0.109003D+01          0.037437          0.086201
 Vib (Bot)    5  0.895519D+00         -0.047925         -0.110352
 Vib (Bot)    6  0.861828D+00         -0.064580         -0.148700
 Vib (Bot)    7  0.597726D+00         -0.223498         -0.514622
 Vib (Bot)    8  0.540642D+00         -0.267091         -0.614999
 Vib (Bot)    9  0.484230D+00         -0.314949         -0.725196
 Vib (Bot)   10  0.436311D+00         -0.360204         -0.829400
 Vib (Bot)   11  0.387232D+00         -0.412029         -0.948732
 Vib (Bot)   12  0.383999D+00         -0.415670         -0.957117
 Vib (Bot)   13  0.367687D+00         -0.434522         -1.000523
 Vib (Bot)   14  0.359310D+00         -0.444531         -1.023570
 Vib (Bot)   15  0.332961D+00         -0.477606         -1.099729
 Vib (Bot)   16  0.260741D+00         -0.583790         -1.344227
 Vib (Bot)   17  0.248146D+00         -0.605292         -1.393737
 Vib (Bot)   18  0.239382D+00         -0.620909         -1.429696
 Vib (V=0)       0.842727D+03          2.925687          6.736643
 Vib (V=0)    1  0.589359D+01          0.770380          1.773865
 Vib (V=0)    2  0.278367D+01          0.444618          1.023770
 Vib (V=0)    3  0.203579D+01          0.308732          0.710882
 Vib (V=0)    4  0.169923D+01          0.230253          0.530176
 Vib (V=0)    5  0.152565D+01          0.183454          0.422419
 Vib (V=0)    6  0.149637D+01          0.175038          0.403040
 Vib (V=0)    7  0.127928D+01          0.106965          0.246297
 Vib (V=0)    8  0.123641D+01          0.092161          0.212209
 Vib (V=0)    9  0.119604D+01          0.077747          0.179020
 Vib (V=0)   10  0.116360D+01          0.065804          0.151520
 Vib (V=0)   11  0.113241D+01          0.054006          0.124352
 Vib (V=0)   12  0.113044D+01          0.053248          0.122607
 Vib (V=0)   13  0.112064D+01          0.049466          0.113900
 Vib (V=0)   14  0.111571D+01          0.047553          0.109494
 Vib (V=0)   15  0.110072D+01          0.041676          0.095964
 Vib (V=0)   16  0.106390D+01          0.026902          0.061944
 Vib (V=0)   17  0.105819D+01          0.024564          0.056560
 Vib (V=0)   18  0.105435D+01          0.022985          0.052924
 Electronic      0.300000D+01          0.477121          1.098612
 Translational   0.121352D+09          8.084049         18.614210
 Rotational      0.216387D+07          6.335232         14.587410
 -------------------------------------------------------------------
 Center     Atomic                   Forces (Hartrees/Bohr)
 Number     Number              X              Y              Z
 -------------------------------------------------------------------
      1        6           0.000056408   -0.000058639    0.000000739
      2        6          -0.000048256   -0.000046438    0.000000711
      3        6           0.000056480    0.000095684   -0.000001086
      4        6           0.000113607   -0.000084007   -0.000009374
      5        6          -0.000116286   -0.000018624   -0.000001384
      6        6          -0.000018247    0.000084277   -0.000001790
      7        6           0.000024195   -0.000037631    0.000039047
      8        6           0.000018621   -0.000140756   -0.000009055
      9        6          -0.000112994   -0.000005418   -0.000001240
     10        6           0.000065397    0.000013856    0.000001697
     11        1           0.000010183    0.000007772    0.000002274
     12        6           0.000027042   -0.000082905    0.000001433
     13        6          -0.000060085    0.000050874   -0.000001163
     14        6           0.000076577    0.000089855   -0.000000481
     15        1          -0.000006594    0.000006136    0.000000066
     16        1          -0.000019525   -0.000003598    0.000001705
     17        1           0.000044472    0.000017086   -0.000000444
     18        1          -0.000002447   -0.000025545   -0.000000873
     19        1           0.000000115    0.000000765    0.000001064
     20        1           0.000029266   -0.000015970    0.000000192
     21        1          -0.000031284   -0.000033107   -0.000000358
     22       16          -0.000042944    0.000072473   -0.000001410
     23        8          -0.000063698    0.000113858   -0.000020271
 -------------------------------------------------------------------
 Cartesian Forces:  Max     0.000140756 RMS     0.000048885
 FormGI is forming the generalized inverse of G from B-inverse, IUseBI=4.
 Leave Link  716 at Tue Aug 18 15:34:18 2026, MaxMem=  2684354560 cpu:               0.1 elap:               0.1
 (Enter /mnt/data/applications/G16/g16/l103.exe)

 GradGradGradGradGradGradGradGradGradGradGradGradGradGradGradGradGradGrad
 Berny optimization.
 Red2BG is reusing G-inverse.
 Internal  Forces:  Max     0.000130675 RMS     0.000024889
 Search for a local minimum.
 Step number   1 out of a maximum of    2
 All quantities printed in internal units (Hartrees-Bohrs-Radians)
 Second derivative matrix not updated -- analytic derivatives used.
 ITU=  0
     Eigenvalues ---    0.00291   0.00796   0.00945   0.01590   0.01633
     Eigenvalues ---    0.01713   0.01722   0.02001   0.02072   0.02088
     Eigenvalues ---    0.02123   0.02275   0.02283   0.02299   0.02335
     Eigenvalues ---    0.02530   0.02545   0.02879   0.02902   0.02985
     Eigenvalues ---    0.10378   0.10473   0.10826   0.11032   0.12043
     Eigenvalues ---    0.12105   0.12111   0.12143   0.13657   0.15619
     Eigenvalues ---    0.16467   0.17460   0.17544   0.18993   0.19019
     Eigenvalues ---    0.19205   0.20550   0.22137   0.22504   0.23481
     Eigenvalues ---    0.25953   0.29222   0.29740   0.33348   0.35649
     Eigenvalues ---    0.35789   0.35924   0.35949   0.36270   0.36482
     Eigenvalues ---    0.36486   0.36840   0.38381   0.38487   0.41289
     Eigenvalues ---    0.41343   0.43080   0.43723   0.44299   0.45138
     Eigenvalues ---    0.49602   0.49651   0.54968
 Angle between quadratic step and forces=  38.86 degrees.
 Linear search not attempted -- first point.
 Iteration  1 RMS(Cart)=  0.00017756 RMS(Int)=  0.00000004
 Iteration  2 RMS(Cart)=  0.00000004 RMS(Int)=  0.00000001
 ITry= 1 IFail=0 DXMaxC= 8.61D-04 DCOld= 1.00D+10 DXMaxT= 3.00D-01 DXLimC= 3.00D+00 Rises=F
 Variable       Old X    -DE/DX   Delta X   Delta X   Delta X     New X
                                 (Linear)    (Quad)   (Total)
    R1        2.63249  -0.00003   0.00000  -0.00014  -0.00014   2.63235
    R2        2.66084   0.00006   0.00000   0.00021   0.00021   2.66105
    R3        2.05961  -0.00000   0.00000  -0.00000  -0.00000   2.05960
    R4        2.65520   0.00007   0.00000   0.00020   0.00020   2.65540
    R5        2.06317  -0.00000   0.00000  -0.00001  -0.00001   2.06315
    R6        2.71000  -0.00006   0.00000  -0.00022  -0.00022   2.70978
    R7        3.30658  -0.00006   0.00000  -0.00023  -0.00023   3.30635
    R8        2.67205   0.00007   0.00000   0.00024   0.00024   2.67229
    R9        2.74357   0.00003   0.00000   0.00006   0.00006   2.74362
   R10        2.63131  -0.00000   0.00000  -0.00011  -0.00011   2.63120
   R11        2.05781  -0.00001   0.00000  -0.00001  -0.00001   2.05780
   R12        2.06413  -0.00000   0.00000  -0.00000  -0.00000   2.06413
   R13        2.74351   0.00003   0.00000   0.00005   0.00005   2.74357
   R14        2.43767   0.00013   0.00000   0.00024   0.00024   2.43792
   R15        2.71015  -0.00006   0.00000  -0.00023  -0.00023   2.70993
   R16        2.67207   0.00007   0.00000   0.00024   0.00024   2.67231
   R17        2.65513   0.00007   0.00000   0.00021   0.00021   2.65534
   R18        3.30650  -0.00006   0.00000  -0.00024  -0.00024   3.30626
   R19        2.06329  -0.00000   0.00000  -0.00001  -0.00001   2.06328
   R20        2.63256  -0.00003   0.00000  -0.00014  -0.00014   2.63242
   R21        2.66087   0.00006   0.00000   0.00021   0.00021   2.66108
   R22        2.05961  -0.00000   0.00000  -0.00000  -0.00000   2.05961
   R23        2.63129  -0.00000   0.00000  -0.00011  -0.00011   2.63119
   R24        2.06414  -0.00000   0.00000  -0.00000  -0.00000   2.06414
   R25        2.05771  -0.00001   0.00000  -0.00002  -0.00002   2.05769
    A1        2.07339   0.00000   0.00000   0.00008   0.00008   2.07347
    A2        2.10027   0.00000   0.00000   0.00005   0.00005   2.10032
    A3        2.10952  -0.00001   0.00000  -0.00012  -0.00012   2.10939
    A4        2.09358   0.00000   0.00000  -0.00001  -0.00001   2.09356
    A5        2.10452  -0.00002   0.00000  -0.00009  -0.00009   2.10443
    A6        2.08508   0.00002   0.00000   0.00011   0.00011   2.08519
    A7        2.13510   0.00000   0.00000  -0.00004  -0.00004   2.13505
    A8        2.01856   0.00000   0.00000   0.00003   0.00003   2.01860
    A9        2.12952  -0.00000   0.00000   0.00001   0.00001   2.12953
   A10        2.02262   0.00001   0.00000   0.00009   0.00009   2.02271
   A11        2.17074   0.00001   0.00000   0.00005   0.00005   2.17079
   A12        2.08982  -0.00002   0.00000  -0.00014  -0.00014   2.08968
   A13        2.12333  -0.00000   0.00000  -0.00004  -0.00004   2.12329
   A14        2.04508  -0.00004   0.00000  -0.00045  -0.00045   2.04463
   A15        2.11477   0.00005   0.00000   0.00049   0.00049   2.11526
   A16        2.11835  -0.00001   0.00000  -0.00006  -0.00006   2.11829
   A17        2.08506  -0.00003   0.00000  -0.00027  -0.00027   2.08479
   A18        2.07977   0.00004   0.00000   0.00033   0.00033   2.08011
   A19        2.12067  -0.00004   0.00000  -0.00016  -0.00016   2.12052
   A20        2.08109   0.00002   0.00000   0.00008   0.00008   2.08118
   A21        2.08142   0.00002   0.00000   0.00008   0.00008   2.08149
   A22        2.17066   0.00001   0.00000   0.00005   0.00005   2.17072
   A23        2.09008  -0.00002   0.00000  -0.00014  -0.00014   2.08994
   A24        2.02244   0.00000   0.00000   0.00009   0.00009   2.02252
   A25        2.13524   0.00000   0.00000  -0.00004  -0.00004   2.13521
   A26        2.12957  -0.00000   0.00000   0.00001   0.00001   2.12958
   A27        2.01837  -0.00000   0.00000   0.00003   0.00003   2.01840
   A28        2.08515   0.00002   0.00000   0.00010   0.00010   2.08524
   A29        2.09354   0.00000   0.00000  -0.00002  -0.00002   2.09353
   A30        2.10449  -0.00002   0.00000  -0.00008  -0.00008   2.10441
   A31        2.07333   0.00000   0.00000   0.00007   0.00007   2.07340
   A32        2.10029   0.00000   0.00000   0.00005   0.00005   2.10034
   A33        2.10957  -0.00001   0.00000  -0.00012  -0.00012   2.10944
   A34        2.11841  -0.00001   0.00000  -0.00006  -0.00006   2.11834
   A35        2.08516  -0.00003   0.00000  -0.00027  -0.00027   2.08490
   A36        2.07962   0.00003   0.00000   0.00033   0.00033   2.07994
   A37        2.12341  -0.00000   0.00000  -0.00004  -0.00004   2.12337
   A38        2.04540  -0.00005   0.00000  -0.00046  -0.00046   2.04494
   A39        2.11438   0.00005   0.00000   0.00050   0.00050   2.11488
   A40        1.84520   0.00002   0.00000   0.00004   0.00004   1.84523
    D1       -0.00001  -0.00000   0.00000  -0.00000  -0.00000  -0.00002
    D2        3.14159   0.00000   0.00000   0.00000   0.00000   3.14159
    D3       -3.14158  -0.00000   0.00000  -0.00000  -0.00000  -3.14159
    D4        0.00002   0.00000   0.00000   0.00000   0.00000   0.00002
    D5        0.00006  -0.00000   0.00000   0.00000   0.00000   0.00007
    D6       -3.14152   0.00000   0.00000   0.00001   0.00001  -3.14152
    D7       -3.14155  -0.00000   0.00000  -0.00000  -0.00000  -3.14155
    D8        0.00005   0.00000   0.00000   0.00000   0.00000   0.00005
    D9       -0.00005   0.00000   0.00000   0.00000   0.00000  -0.00004
   D10        3.14146   0.00000   0.00000   0.00001   0.00001   3.14147
   D11        3.14154   0.00000   0.00000  -0.00000  -0.00000   3.14154
   D12       -0.00014   0.00000   0.00000   0.00000   0.00000  -0.00014
   D13        0.00006  -0.00000   0.00000  -0.00000  -0.00000   0.00005
   D14        3.14159  -0.00000   0.00000  -0.00001  -0.00001   3.14158
   D15       -3.14145  -0.00000   0.00000  -0.00000  -0.00000  -3.14146
   D16        0.00008  -0.00000   0.00000  -0.00001  -0.00001   0.00007
   D17       -3.14142  -0.00000   0.00000  -0.00012  -0.00012  -3.14153
   D18        0.00009  -0.00000   0.00000  -0.00011  -0.00011  -0.00002
   D19       -0.00000   0.00000   0.00000  -0.00000  -0.00000  -0.00000
   D20        3.14155  -0.00000   0.00000  -0.00001  -0.00001   3.14154
   D21       -3.14154   0.00000   0.00000   0.00001   0.00001  -3.14153
   D22        0.00002  -0.00000   0.00000  -0.00000  -0.00000   0.00001
   D23       -0.00047   0.00000   0.00000   0.00017   0.00017  -0.00030
   D24       -3.14154  -0.00001   0.00000  -0.00031  -0.00031   3.14134
   D25        3.14106   0.00000   0.00000   0.00016   0.00016   3.14122
   D26       -0.00000  -0.00001   0.00000  -0.00031  -0.00031  -0.00032
   D27       -0.00006   0.00000   0.00000   0.00000   0.00000  -0.00005
   D28        3.14153  -0.00000   0.00000  -0.00000  -0.00000   3.14153
   D29        3.14157   0.00000   0.00000   0.00001   0.00001   3.14159
   D30       -0.00002   0.00000   0.00000   0.00001   0.00001  -0.00002
   D31        0.00068  -0.00000   0.00000  -0.00017  -0.00017   0.00051
   D32       -3.14097  -0.00000   0.00000  -0.00017  -0.00017  -3.14114
   D33       -3.14144   0.00001   0.00000   0.00030   0.00030  -3.14113
   D34        0.00009   0.00001   0.00000   0.00031   0.00031   0.00040
   D35        3.14121   0.00000   0.00000   0.00001   0.00001   3.14123
   D36       -0.00048   0.00000   0.00000   0.00002   0.00002  -0.00047
   D37       -0.00032   0.00000   0.00000   0.00001   0.00001  -0.00031
   D38        3.14117   0.00000   0.00000   0.00001   0.00001   3.14118
   D39       -3.14127  -0.00000   0.00000  -0.00001  -0.00001  -3.14128
   D40        0.00033  -0.00000   0.00000   0.00000   0.00000   0.00033
   D41        0.00026  -0.00000   0.00000  -0.00000  -0.00000   0.00026
   D42       -3.14133   0.00000   0.00000   0.00001   0.00001  -3.14132
   D43       -3.14146  -0.00000   0.00000  -0.00000  -0.00000  -3.14146
   D44        0.00016  -0.00000   0.00000  -0.00001  -0.00001   0.00015
   D45        0.00023  -0.00000   0.00000  -0.00000  -0.00000   0.00023
   D46       -3.14134  -0.00000   0.00000  -0.00001  -0.00001  -3.14135
   D47        0.00010   0.00000   0.00000   0.00011   0.00011   0.00021
   D48        3.14159   0.00000   0.00000   0.00012   0.00012  -3.14148
   D49        0.00008   0.00000   0.00000   0.00000   0.00000   0.00008
   D50       -3.14155   0.00000   0.00000   0.00000   0.00000  -3.14155
   D51       -3.14149  -0.00000   0.00000  -0.00000  -0.00000  -3.14150
   D52        0.00006  -0.00000   0.00000  -0.00000  -0.00000   0.00006
   D53       -0.00013   0.00000   0.00000   0.00000   0.00000  -0.00013
   D54        3.14146  -0.00000   0.00000  -0.00000  -0.00000   3.14145
   D55        3.14149   0.00000   0.00000   0.00000   0.00000   3.14150
   D56       -0.00010  -0.00000   0.00000  -0.00000  -0.00000  -0.00011
   D57       -0.00004  -0.00000   0.00000  -0.00000  -0.00000  -0.00004
   D58        3.14154  -0.00000   0.00000  -0.00001  -0.00001   3.14153
   D59        3.14155   0.00000   0.00000   0.00000   0.00000   3.14156
   D60       -0.00005  -0.00000   0.00000  -0.00001  -0.00001  -0.00005
         Item               Value     Threshold  Converged?
 Maximum Force            0.000131     0.000450     YES
 RMS     Force            0.000025     0.000300     YES
 Maximum Displacement     0.000861     0.001800     YES
 RMS     Displacement     0.000178     0.001200     YES
 Predicted change in Energy=-1.759510D-07
 Optimization completed.
    -- Stationary point found.
                           ----------------------------
                           !   Optimized Parameters   !
                           ! (Angstroms and Degrees)  !
 --------------------------                            --------------------------
 ! Name  Definition              Value          Derivative Info.                !
 --------------------------------------------------------------------------------
 ! R1    R(1,2)                  1.3931         -DE/DX =    0.0                 !
 ! R2    R(1,6)                  1.4081         -DE/DX =    0.0001              !
 ! R3    R(1,15)                 1.0899         -DE/DX =    0.0                 !
 ! R4    R(2,3)                  1.4051         -DE/DX =    0.0001              !
 ! R5    R(2,16)                 1.0918         -DE/DX =    0.0                 !
 ! R6    R(3,4)                  1.4341         -DE/DX =   -0.0001              !
 ! R7    R(3,22)                 1.7498         -DE/DX =   -0.0001              !
 ! R8    R(4,5)                  1.414          -DE/DX =    0.0001              !
 ! R9    R(4,7)                  1.4518         -DE/DX =    0.0                 !
 ! R10   R(5,6)                  1.3924         -DE/DX =    0.0                 !
 ! R11   R(5,17)                 1.0889         -DE/DX =    0.0                 !
 ! R12   R(6,18)                 1.0923         -DE/DX =    0.0                 !
 ! R13   R(7,8)                  1.4518         -DE/DX =    0.0                 !
 ! R14   R(7,23)                 1.29           -DE/DX =    0.0001              !
 ! R15   R(8,9)                  1.4342         -DE/DX =   -0.0001              !
 ! R16   R(8,14)                 1.414          -DE/DX =    0.0001              !
 ! R17   R(9,10)                 1.405          -DE/DX =    0.0001              !
 ! R18   R(9,22)                 1.7497         -DE/DX =   -0.0001              !
 ! R19   R(10,11)                1.0918         -DE/DX =    0.0                 !
 ! R20   R(10,12)                1.3931         -DE/DX =    0.0                 !
 ! R21   R(12,13)                1.4081         -DE/DX =    0.0001              !
 ! R22   R(12,19)                1.0899         -DE/DX =    0.0                 !
 ! R23   R(13,14)                1.3924         -DE/DX =    0.0                 !
 ! R24   R(13,20)                1.0923         -DE/DX =    0.0                 !
 ! R25   R(14,21)                1.0889         -DE/DX =    0.0                 !
 ! A1    A(2,1,6)              118.7967         -DE/DX =    0.0                 !
 ! A2    A(2,1,15)             120.3369         -DE/DX =    0.0                 !
 ! A3    A(6,1,15)             120.8665         -DE/DX =    0.0                 !
 ! A4    A(1,2,3)              119.9532         -DE/DX =    0.0                 !
 ! A5    A(1,2,16)             120.5803         -DE/DX =    0.0                 !
 ! A6    A(3,2,16)             119.4665         -DE/DX =    0.0                 !
 ! A7    A(2,3,4)              122.3321         -DE/DX =    0.0                 !
 ! A8    A(2,3,22)             115.6551         -DE/DX =    0.0                 !
 ! A9    A(4,3,22)             122.0128         -DE/DX =    0.0                 !
 ! A10   A(3,4,5)              115.8875         -DE/DX =    0.0                 !
 ! A11   A(3,4,7)              124.3745         -DE/DX =    0.0                 !
 ! A12   A(5,4,7)              119.738          -DE/DX =    0.0                 !
 ! A13   A(4,5,6)              121.6579         -DE/DX =    0.0                 !
 ! A14   A(4,5,17)             117.1745         -DE/DX =    0.0                 !
 ! A15   A(6,5,17)             121.1677         -DE/DX =    0.0                 !
 ! A16   A(1,6,5)              121.3727         -DE/DX =    0.0                 !
 ! A17   A(1,6,18)             119.465          -DE/DX =    0.0                 !
 ! A18   A(5,6,18)             119.1623         -DE/DX =    0.0                 !
 ! A19   A(4,7,8)              121.5057         -DE/DX =    0.0                 !
 ! A20   A(4,7,23)             119.238          -DE/DX =    0.0                 !
 ! A21   A(8,7,23)             119.2564         -DE/DX =    0.0                 !
 ! A22   A(7,8,9)              124.3699         -DE/DX =    0.0                 !
 ! A23   A(7,8,14)             119.753          -DE/DX =    0.0                 !
 ! A24   A(9,8,14)             115.8771         -DE/DX =    0.0                 !
 ! A25   A(8,9,10)             122.3405         -DE/DX =    0.0                 !
 ! A26   A(8,9,22)             122.0153         -DE/DX =    0.0                 !
 ! A27   A(10,9,22)            115.6443         -DE/DX =    0.0                 !
 ! A28   A(9,10,11)            119.4701         -DE/DX =    0.0                 !
 ! A29   A(9,10,12)            119.9513         -DE/DX =    0.0                 !
 ! A30   A(11,10,12)           120.5786         -DE/DX =    0.0                 !
 ! A31   A(10,12,13)           118.7931         -DE/DX =    0.0                 !
 ! A32   A(10,12,19)           120.3376         -DE/DX =    0.0                 !
 ! A33   A(13,12,19)           120.8693         -DE/DX =    0.0                 !
 ! A34   A(12,13,14)           121.3757         -DE/DX =    0.0                 !
 ! A35   A(12,13,20)           119.4711         -DE/DX =    0.0                 !
 ! A36   A(14,13,20)           119.1532         -DE/DX =    0.0                 !
 ! A37   A(8,14,13)            121.6623         -DE/DX =    0.0                 !
 ! A38   A(8,14,21)            117.1929         -DE/DX =    0.0                 !
 ! A39   A(13,14,21)           121.1448         -DE/DX =    0.0                 !
 ! A40   A(3,22,9)             105.7219         -DE/DX =    0.0                 !
 ! D1    D(6,1,2,3)             -0.0007         -DE/DX =    0.0                 !
 ! D2    D(6,1,2,16)           179.9998         -DE/DX =    0.0                 !
 ! D3    D(15,1,2,3)          -179.9995         -DE/DX =    0.0                 !
 ! D4    D(15,1,2,16)            0.001          -DE/DX =    0.0                 !
 ! D5    D(2,1,6,5)              0.0036         -DE/DX =    0.0                 !
 ! D6    D(2,1,6,18)          -179.9961         -DE/DX =    0.0                 !
 ! D7    D(15,1,6,5)          -179.9975         -DE/DX =    0.0                 !
 ! D8    D(15,1,6,18)            0.0028         -DE/DX =    0.0                 !
 ! D9    D(1,2,3,4)             -0.0028         -DE/DX =    0.0                 !
 ! D10   D(1,2,3,22)           179.9925         -DE/DX =    0.0                 !
 ! D11   D(16,2,3,4)           179.9967         -DE/DX =    0.0                 !
 ! D12   D(16,2,3,22)           -0.008          -DE/DX =    0.0                 !
 ! D13   D(2,3,4,5)              0.0032         -DE/DX =    0.0                 !
 ! D14   D(2,3,4,7)            179.9998         -DE/DX =    0.0                 !
 ! D15   D(22,3,4,5)          -179.9919         -DE/DX =    0.0                 !
 ! D16   D(22,3,4,7)             0.0048         -DE/DX =    0.0                 !
 ! D17   D(2,3,22,9)          -179.99           -DE/DX =    0.0                 !
 ! D18   D(4,3,22,9)             0.0053         -DE/DX =    0.0                 !
 ! D19   D(3,4,5,6)             -0.0002         -DE/DX =    0.0                 !
 ! D20   D(3,4,5,17)           179.9977         -DE/DX =    0.0                 !
 ! D21   D(7,4,5,6)           -179.997          -DE/DX =    0.0                 !
 ! D22   D(7,4,5,17)             0.0009         -DE/DX =    0.0                 !
 ! D23   D(3,4,7,8)             -0.027          -DE/DX =    0.0                 !
 ! D24   D(3,4,7,23)           180.0033         -DE/DX =    0.0                 !
 ! D25   D(5,4,7,8)            179.9695         -DE/DX =    0.0                 !
 ! D26   D(5,4,7,23)            -0.0002         -DE/DX =    0.0                 !
 ! D27   D(4,5,6,1)             -0.0032         -DE/DX =    0.0                 !
 ! D28   D(4,5,6,18)           179.9965         -DE/DX =    0.0                 !
 ! D29   D(17,5,6,1)           179.999          -DE/DX =    0.0                 !
 ! D30   D(17,5,6,18)           -0.0013         -DE/DX =    0.0                 !
 ! D31   D(4,7,8,9)              0.0392         -DE/DX =    0.0                 !
 ! D32   D(4,7,8,14)          -179.9645         -DE/DX =    0.0                 !
 ! D33   D(23,7,8,9)          -179.9911         -DE/DX =    0.0                 !
 ! D34   D(23,7,8,14)            0.0052         -DE/DX =    0.0                 !
 ! D35   D(7,8,9,10)           179.9782         -DE/DX =    0.0                 !
 ! D36   D(7,8,9,22)            -0.0278         -DE/DX =    0.0                 !
 ! D37   D(14,8,9,10)           -0.0182         -DE/DX =    0.0                 !
 ! D38   D(14,8,9,22)          179.9759         -DE/DX =    0.0                 !
 ! D39   D(7,8,14,13)         -179.9817         -DE/DX =    0.0                 !
 ! D40   D(7,8,14,21)            0.0187         -DE/DX =    0.0                 !
 ! D41   D(9,8,14,13)            0.0148         -DE/DX =    0.0                 !
 ! D42   D(9,8,14,21)         -179.9847         -DE/DX =    0.0                 !
 ! D43   D(8,9,10,11)         -179.9923         -DE/DX =    0.0                 !
 ! D44   D(8,9,10,12)            0.0089         -DE/DX =    0.0                 !
 ! D45   D(22,9,10,11)           0.0133         -DE/DX =    0.0                 !
 ! D46   D(22,9,10,12)        -179.9855         -DE/DX =    0.0                 !
 ! D47   D(8,9,22,3)             0.0054         -DE/DX =    0.0                 !
 ! D48   D(10,9,22,3)         -180.0001         -DE/DX =    0.0                 !
 ! D49   D(9,10,12,13)           0.0044         -DE/DX =    0.0                 !
 ! D50   D(9,10,12,19)        -179.9976         -DE/DX =    0.0                 !
 ! D51   D(11,10,12,13)       -179.9943         -DE/DX =    0.0                 !
 ! D52   D(11,10,12,19)          0.0036         -DE/DX =    0.0                 !
 ! D53   D(10,12,13,14)         -0.0077         -DE/DX =    0.0                 !
 ! D54   D(10,12,13,20)        179.9921         -DE/DX =    0.0                 !
 ! D55   D(19,12,13,14)        179.9943         -DE/DX =    0.0                 !
 ! D56   D(19,12,13,20)         -0.0058         -DE/DX =    0.0                 !
 ! D57   D(12,13,14,8)          -0.0024         -DE/DX =    0.0                 !
 ! D58   D(12,13,14,21)        179.9971         -DE/DX =    0.0                 !
 ! D59   D(20,13,14,8)         179.9977         -DE/DX =    0.0                 !
 ! D60   D(20,13,14,21)         -0.0028         -DE/DX =    0.0                 !
 --------------------------------------------------------------------------------
 GradGradGradGradGradGradGradGradGradGradGradGradGradGradGradGradGradGrad

 Leave Link  103 at Tue Aug 18 15:34:18 2026, MaxMem=  2684354560 cpu:               0.0 elap:               0.0
 (Enter /mnt/data/applications/G16/g16/l9999.exe)

 ----------------------------------------------------------------------

 Electric dipole moment (input orientation):
 (Debye = 10**-18 statcoulomb cm , SI units = C m)
                  (au)            (Debye)         (10**-30 SI)
   Tot        0.250202D+01      0.635949D+01      0.212130D+02
   x          0.126811D+01      0.322321D+01      0.107515D+02
   y         -0.215662D+01     -0.548158D+01     -0.182846D+02
   z          0.313617D-01      0.797136D-01      0.265896D+00

 Dipole polarizability, Alpha (input orientation).
 (esu units = cm**3 , SI units = C**2 m**2 J**-1)
 Alpha(0;0):
               (au)            (10**-24 esu)      (10**-40 SI)
   iso        0.325930D+03      0.482979D+02      0.537386D+02
   aniso      0.481510D+03      0.713525D+02      0.793903D+02
   xx         0.535356D+03      0.793316D+02      0.882683D+02
   yx         0.144543D+03      0.214191D+02      0.238320D+02
   yy         0.374476D+03      0.554916D+02      0.617427D+02
   zx         0.237398D+01      0.351787D+00      0.391416D+00
   zy        -0.176572D+01     -0.261653D+00     -0.291128D+00
   zz         0.679589D+02      0.100705D+02      0.112049D+02

 ----------------------------------------------------------------------

 Dipole orientation:
     6        -13.23742846         -7.64746102         -8.08417302
     6        -11.33296175         -6.52311907         -6.65628560
     6         -9.29962659         -5.32199934         -7.86992818
     6         -9.09109637         -5.19829020        -10.56906132
     6        -11.06299632         -6.36244231        -11.94609303
     6        -13.07587623         -7.55134603        -10.73836709
     6         -7.02991557         -3.98069099        -11.90926473
     6         -4.96933005         -2.76271032        -10.56860109
     6         -4.76077561         -2.64051514         -7.86924755
     6         -2.72785460         -1.43983285         -6.65462181
     1         -2.65775304         -1.39947926         -4.59291923
     6         -0.82366941         -0.31379484         -8.08167069
     6         -0.98546715         -0.40776129        -10.73595508
     6         -2.99789750         -1.59648445        -11.94457744
     1        -14.82006465         -8.58232572         -7.15505239
     1        -11.40301178         -6.56503171         -4.59473586
     1        -10.94436614         -6.29187229        -13.99927221
     1        -14.55788248         -8.42612924        -11.87812306
     1          0.75875248          0.62073665         -7.15184590
     1          0.49593425          0.46856816        -11.87532342
     1         -3.11594114         -1.66486217        -13.99775823
    16         -7.03013153         -3.98177956         -5.87326008
     8         -7.03032039         -3.98028947        -14.34693866

 Electric dipole moment (dipole orientation):
 (Debye = 10**-18 statcoulomb cm , SI units = C m)
                  (au)            (Debye)         (10**-30 SI)
   Tot        0.250202D+01      0.635949D+01      0.212130D+02
   x          0.000000D+00      0.000000D+00      0.000000D+00
   y          0.000000D+00      0.000000D+00      0.000000D+00
   z          0.250202D+01      0.635949D+01      0.212130D+02

 Dipole polarizability, Alpha (dipole orientation).
 (esu units = cm**3 , SI units = C**2 m**2 J**-1)
 Alpha(0;0):
               (au)            (10**-24 esu)      (10**-40 SI)
   iso        0.325930D+03      0.482979D+02      0.537386D+02
   aniso      0.481510D+03      0.713525D+02      0.793903D+02
   xx         0.477403D+03      0.707439D+02      0.787132D+02
   yx         0.241927D+03      0.358499D+02      0.398883D+02
   yy         0.210857D+03      0.312457D+02      0.347656D+02
   zx         0.590861D-01      0.875565D-02      0.974198D-02
   zy        -0.257348D-01     -0.381351D-02     -0.424310D-02
   zz         0.289531D+03      0.429040D+02      0.477371D+02

 ----------------------------------------------------------------------
 1\1\GINC-KIMIK2194\Freq\UB3LYP\Gen\C13H8O1S1(3)\ASOLE\18-Aug-2026\0\\#
 P Geom=AllCheck Guess=TCheck SCRF=Check GenChk UB3LYP/ChkBas Freq\\Tit
 le Card Required\\0,3\C,-9.1420557223,-0.4123607375,0.0085166379\C,-7.
 7502608166,-0.4704293487,0.0200418778\C,-6.9985140222,0.7166116823,0.0
 145029811\C,-7.6118358951,2.0127957655,-0.0029023039\C,-9.0257114887,2
 .0266628781,-0.0141627335\C,-9.768177735,0.8487119386,-0.0085772482\C,
 -6.8792738391,3.266243827,-0.0092323006\C,-5.427838185,3.2967973063,0.
 0025535842\C,-4.5935957571,2.1303849933,0.0202594868\C,-3.1908390146,2
 .2096742056,0.0307388827\H,-2.6009820562,1.2909693145,0.0440189168\C,-
 2.5644758535,3.4539901449,0.0241764101\C,-3.3617200128,4.6144976751,0.
 007104928\C,-4.7520438669,4.5388334251,-0.0033754775\H,-9.7313296942,-
 1.3292098139,0.0127344025\H,-7.2345770428,-1.4326537771,0.0333864914\H
 ,-9.5134217343,3.0001984144,-0.0274098919\H,-10.8588755398,0.906970935
 1,-0.0176670951\H,-1.4767843834,3.5228305288,0.0321945468\H,-2.8821802
 79,5.5958856432,0.0019448195\H,-5.3649471683,5.4387570673,-0.016523210
 1\S,-5.2607218419,0.5128641884,0.0303660037\O,-7.5331380512,4.37809374
 39,-0.0251097088\\Version=AM64L-G16RevA.03\HF=-973.652789\S2=2.007674\
 S2-1=0.\S2A=2.000031\RMSD=9.011e-10\RMSF=4.888e-05\ZeroPoint=0.1678206
 \Thermal=0.1790662\Dipole=1.2681071,-2.156621,0.0313617\DipoleDeriv=-1
 .6227001,-0.0019245,-0.0116331,0.4309905,-0.3704394,0.0053829,-0.01589
 24,0.0017066,-0.1726832,1.5144987,0.359023,0.0093458,0.8838856,0.64620
 67,0.0001711,0.004329,-0.0040788,-0.0706995,-1.0701057,-0.610142,-0.00
 21829,-0.3715923,-0.8759096,0.0047046,-0.004549,0.0032492,-0.0723846,1
 .7675036,1.4430453,-0.0005694,0.5137241,0.9414095,-0.003986,0.0088557,
 0.0032898,0.1020763,-1.3062972,-1.6911451,0.0070421,-0.4659103,-0.7398
 229,0.0018654,-0.0050569,-0.0080775,-0.1510435,0.6169347,0.1977724,0.0
 033299,-0.2637425,1.2362849,-0.0145651,0.0080763,-0.010761,-0.0499298,
 -1.9057251,-0.5041067,-0.0102075,-0.5064525,-1.3434844,0.0086629,-0.01
 03023,0.0089381,-0.0226435,1.9691147,0.4026745,0.0112366,1.3318514,0.7
 412127,0.0047214,0.0031614,-0.0026711,0.1011742,-1.3373796,-0.222069,-
 0.0083156,-0.4601746,-0.6063463,0.0014954,-0.00637,0.002905,-0.0722433
 ,1.3741567,0.962261,0.0025442,0.4333931,0.7832007,-0.0045273,0.0073492
 ,-0.0002485,-0.0715717,0.0747,0.0229651,-0.0007085,0.1467169,0.0033043
 ,0.0023618,-0.0019529,0.001421,0.1345414,-0.480518,-0.2007925,-0.00058
 09,-0.6348341,-1.5090209,0.007611,0.003003,0.0105614,-0.1730999,1.0610
 648,-0.5124046,0.0139116,-0.0501823,0.7929926,-0.0083589,0.0099836,-0.
 0116429,-0.0495073,-1.7928595,-0.1959506,-0.011412,-1.4221843,-0.25745
 78,-0.0104314,0.0003609,-0.0004049,-0.1515409,0.0091223,-0.1083249,-0.
 0000293,-0.1203911,-0.0681597,0.001104,0.0000804,0.0011614,0.1452702,0
 .0924756,0.140002,-0.0017062,0.0141066,-0.0179809,0.0015772,-0.0004105
 ,0.0027359,0.1342092,0.087525,-0.0167376,-0.0000875,0.117828,0.0090237
 ,0.0020651,-0.0013616,0.0010124,0.121523,-0.1780958,-0.0247104,-0.0021
 37,0.0157145,0.1240223,0.0001129,-0.0024896,-0.000185,0.1234566,-0.145
 8328,-0.0334662,-0.0020079,-0.0240831,0.0869767,0.0003514,-0.002052,0.
 0002915,0.1453452,0.0476585,-0.1115996,0.0004259,-0.1505259,-0.1023731
 ,0.0008828,0.0006717,0.0011744,0.1234839,0.0719013,0.1204828,-0.001471
 5,-0.008018,0.0294616,0.0007763,-0.0002907,0.0008803,0.12253,1.3781786
 ,0.6655829,0.0032871,0.6725572,0.6306196,0.001162,0.0034272,0.0005623,
 0.19679,-0.225321,-0.0804352,0.0019264,-0.082677,-0.1337204,-0.0031392
 ,0.0014296,-0.0018196,-0.3930528\Polar=535.3562059,144.5433328,374.475
 633,2.3739752,-1.7657212,67.9588622\Quadrupole=-5.6933478,-2.5241717,8
 .2175194,38.7216943,-0.3042839,0.1024222\PG=C01 [X(C13H8O1S1)]\NImag=0
 \\0.67001688,0.06118253,0.68788110,0.00374123,-0.00505915,0.11690402,-
 0.33732701,-0.02891999,-0.00191207,0.68209019,0.03953246,-0.11872996,0
 .00091997,-0.04794189,0.69794505,-0.00257978,0.00038068,-0.05705138,0.
 00485601,-0.00590425,0.12673265,-0.04823892,-0.01095336,-0.00035294,-0
 .14193838,-0.10169836,0.00030822,0.47872083,-0.04751214,0.00381750,-0.
 00031658,-0.07273408,-0.27298636,0.00151513,0.03971986,0.60492923,-0.0
 0000382,-0.00002734,0.00978467,0.00003897,0.00129184,-0.05678306,0.002
 57350,-0.00456283,0.10413012,-0.03048483,0.03191453,-0.00050690,0.0393
 8475,0.00026503,0.00025660,-0.12361019,0.06503907,-0.00113982,0.628108
 19,0.00899110,0.02120662,-0.00018323,-0.00728310,-0.04639955,0.0004534
 1,0.03834938,-0.20167537,0.00164377,-0.01934254,0.57150911,-0.00028567
 ,-0.00000450,-0.00509281,0.00033094,0.00051282,0.00632594,-0.00089719,
 0.00186656,-0.05967616,0.00400029,-0.00423090,0.14733888,0.05981310,-0
 .03237137,0.00071242,-0.03415948,-0.01156852,-0.00012395,-0.02210295,0
 .02269971,-0.00045121,-0.28416972,0.03007063,-0.00199325,0.62984366,0.
 02012717,-0.06325581,0.00086005,-0.02596869,-0.00930623,-0.00015478,0.
 02634204,0.01094415,0.00017356,0.03726378,-0.10627962,0.00067460,-0.01
 318557,0.74069542,0.00020426,0.00044054,0.00908893,0.00001847,-0.00003
 879,-0.00425933,-0.00048502,0.00013498,0.00707483,-0.00205904,0.000629
 86,-0.06683179,0.00404780,-0.00605191,0.12813040,-0.16020854,0.1097794
 7,-0.00182243,-0.02706852,0.03233225,-0.00057466,0.00047130,0.00313317
 ,0.00002060,-0.03367694,-0.03550321,0.00004318,-0.18699725,-0.13284174
 ,0.00029912,0.73299757,0.02802187,-0.25977392,0.00214542,0.07914533,0.
 01462055,0.00054201,-0.01391615,-0.01291360,-0.00004568,-0.06942224,-0
 .01456651,-0.00035458,-0.05321619,-0.27784849,0.00168946,0.00496860,0.
 62648888,-0.00102606,0.00278541,-0.06203734,-0.00103582,0.00017549,0.0
 0649520,0.00018630,0.00009285,-0.00607630,0.00036663,-0.00009257,0.004
 66684,-0.00046784,0.00106137,-0.06099623,0.00456893,-0.00466049,0.1424
 9546,-0.00788562,-0.02851337,0.00022220,0.00651988,0.00918961,-0.00006
 337,0.03023808,-0.02734592,0.00047129,-0.11365953,-0.01447895,-0.00025
 097,-0.04989506,-0.03817254,-0.00012524,0.00036980,0.02349972,-0.00026
 000,0.52642988,0.01704166,-0.01495862,0.00026766,-0.00572504,0.0063426
 8,-0.00007612,0.00521411,-0.05324386,0.00060509,-0.04556655,-0.1406779
 0,0.00039463,-0.05901449,-0.01717942,-0.00019815,0.00939118,0.03809382
 ,-0.00025202,-0.02753447,0.55708317,-0.00021390,-0.00009242,-0.0012305
 5,0.00007504,0.00004079,0.00338840,0.00015715,0.00033095,0.00337550,0.
 00001667,0.00063298,-0.06311024,0.00009686,-0.00002125,0.01125843,-0.0
 0012341,-0.00013977,0.00450860,0.00345573,-0.00427119,0.13542516,-0.00
 841113,0.03486655,-0.00039897,0.00275487,0.00191726,-0.00000429,-0.026
 38646,0.04780746,-0.00065892,-0.06575766,-0.09480957,0.00034161,0.0390
 3227,0.00857303,0.00020996,-0.00638210,-0.03629533,0.00029654,-0.15996
 840,0.01125185,-0.00090313,0.56861161,0.00537309,-0.00441040,0.0000809
 5,-0.00727791,-0.00623050,0.00001020,0.01520980,0.00063897,0.00009947,
 -0.03751896,0.00791539,-0.00034779,0.00390618,-0.00239457,0.00007540,-
 0.00258654,0.00147749,-0.00002750,-0.01989440,-0.09464317,0.00013503,0
 .01398291,0.63113806,-0.00011580,0.00032221,-0.00047286,0.00008557,0.0
 0008341,0.00080652,-0.00034778,0.00036543,-0.00169208,-0.00020568,-0.0
 0080564,0.00389411,0.00026425,0.00011567,0.00208085,-0.00003289,-0.000
 30178,0.00078575,-0.00061333,0.00037860,-0.06306331,0.00331271,-0.0043
 9641,0.14745829,-0.00439283,-0.00776003,0.00003052,-0.00075032,0.00638
 226,-0.00008042,-0.01271612,-0.04152722,0.00032657,0.02096089,0.021386
 89,-0.00002148,-0.01065022,-0.00335798,-0.00005346,0.00299439,0.005221
 38,-0.00002660,-0.04287804,0.01336865,-0.00049947,-0.13927734,0.073749
 69,-0.00134531,0.60907181,-0.01654684,0.02324296,-0.00034558,0.0213857
 4,0.00903916,0.00009853,-0.03997123,0.03272672,-0.00067134,-0.01114722
 ,-0.04679889,0.00034678,0.01235944,0.00179740,0.00007862,-0.00056012,-
 0.02243170,0.00021432,0.04591053,0.01994456,0.00020896,0.04697260,-0.1
 8598032,0.00156415,-0.03266846,0.47481984,0.00011246,-0.00027397,0.001
 09686,-0.00022126,-0.00001772,0.00176273,0.00031936,-0.00069496,-0.004
 91116,0.00027724,0.00060421,-0.00160943,-0.00020699,-0.00004579,0.0000
 0674,0.00003002,0.00025677,-0.00002698,-0.00082592,-0.00003338,0.00338
 786,-0.00108582,0.00179604,-0.05971808,0.00442159,-0.00380643,0.103932
 68,0.01051298,-0.00677445,0.00015448,-0.01077416,-0.00651393,-0.000025
 97,0.01855330,-0.00433574,0.00017426,-0.00636844,0.00701309,-0.0001309
 8,0.00045158,0.00008245,0.00001357,-0.00128901,0.00752457,-0.00008345,
 0.00781066,0.00844539,-0.00003819,-0.02903753,0.03835203,-0.00063637,-
 0.31623760,-0.00474430,-0.00203266,0.65345855,0.00430657,-0.00421106,0
 .00006926,-0.00805589,-0.00266101,-0.00003638,0.01067353,-0.01022701,0
 .00019925,-0.00219042,0.00290673,-0.00003945,0.00100563,0.00101428,-0.
 00001083,-0.00057150,0.00260375,-0.00003077,-0.00648756,0.00500644,-0.
 00006783,0.03084027,0.02202040,0.00010683,0.02423379,-0.09883031,0.000
 58875,-0.03203054,0.72613749,0.00004682,-0.00001904,-0.00062409,-0.000
 01153,-0.00002339,0.00026583,0.00003306,0.00007945,0.00175458,-0.00003
 818,0.00003289,0.00080704,0.00000355,-0.00001896,-0.00108990,-0.000004
 56,0.00003330,-0.00006067,0.00009708,0.00005417,0.00338756,-0.00057623
 ,0.00016594,0.00631646,-0.00229697,0.00034602,-0.05684971,0.00450914,-
 0.00584184,0.12653743,0.00004352,0.00000033,-0.00000027,0.00021467,0.0
 0005357,0.00000115,-0.00043312,-0.00015577,0.00000249,0.00045670,0.000
 19257,0.00000351,-0.00032232,-0.00033597,-0.00000023,0.00003345,0.0002
 6308,-0.00000236,0.00073817,0.00088418,-0.00001433,-0.00491100,-0.0026
 2255,-0.00006280,-0.01286816,0.02537384,-0.00034878,-0.13978422,0.1279
 3524,-0.00202271,0.14619187,0.00027642,-0.00006185,0.00000349,-0.00028
 140,-0.00020301,-0.00000014,0.00040918,0.00008502,-0.00000318,-0.00037
 889,-0.00012920,-0.00000401,0.00026682,0.00008500,0.00000239,-0.000053
 96,0.00001984,-0.00000054,-0.00002242,0.00065503,0.00000798,-0.0014261
 8,0.00047383,0.00003979,-0.00401335,0.00506013,-0.00006998,0.12825991,
 -0.25679701,0.00306711,-0.13669070,0.26993190,-0.00000307,0.00000125,0
 .00007210,0.00000470,0.00000265,0.00000991,-0.00000335,-0.00000722,-0.
 00055366,0.00000929,0.00000135,-0.00021141,-0.00000626,-0.00000254,0.0
 0010744,0.00000074,0.00000210,0.00001310,-0.00000719,0.00001384,0.0015
 7563,-0.00007373,0.00002992,0.00597180,-0.00007832,0.00016735,0.001011
 67,-0.00201525,0.00306594,-0.03616553,0.00224873,-0.00335987,0.0244337
 5,0.00266416,-0.00888322,0.00010599,-0.00177426,0.00006920,-0.00000987
 ,0.00637992,-0.01376015,0.00017680,0.01174053,0.02365228,-0.00012796,-
 0.01044266,-0.00303024,-0.00005698,0.00162137,0.01001955,-0.00008504,-
 0.01813718,-0.02281726,0.00007869,0.02637062,0.00025133,0.00025717,-0.
 03334355,-0.01921734,-0.00017094,-0.16598620,-0.12431101,0.00028205,0.
 01158273,0.01766691,-0.00011241,0.73555608,-0.01240778,0.01451301,-0.0
 0023810,0.01116068,0.00808883,0.00000525,-0.02254663,0.01246893,-0.000
 28733,-0.00586423,-0.02458174,0.00018774,0.00776108,0.00205940,0.00004
 169,-0.00057817,-0.01531098,0.00014562,0.02277634,-0.00464156,0.000214
 70,-0.02266492,-0.03558701,0.00009343,-0.05578428,-0.01108262,-0.00025
 132,-0.05583037,-0.28999523,0.00173193,-0.01292487,-0.01678844,0.00009
 379,0.02454261,0.62205973,0.00013391,-0.00020377,0.00010381,-0.0001114
 3,-0.00007946,-0.00062496,0.00024965,-0.00021455,0.00109714,0.00015273
 ,0.00041152,-0.00047046,-0.00015855,-0.00004048,0.00034650,0.00001788,
 0.00022177,0.00006247,-0.00034620,-0.00015067,-0.00123357,0.00046120,0
 .00028844,-0.00508292,0.00017738,0.00003751,0.00977656,-0.00035332,0.0
 0118502,-0.05704661,0.00017394,0.00034366,0.00498802,0.00471111,-0.004
 49576,0.11686837,-0.00729238,0.01498562,-0.00020293,0.00464511,0.00422
 912,-0.00000384,-0.01443640,0.01492940,-0.00025808,-0.01692157,-0.0304
 5430,0.00014750,0.01309747,0.00371841,0.00006632,-0.00213298,-0.015871
 88,0.00013956,0.04316026,-0.00026570,0.00031771,-0.06369218,-0.0526923
 1,-0.00006857,-0.01431118,-0.00569528,-0.00001267,0.05213774,0.0350642
 5,0.00003853,-0.00086714,-0.00397051,-0.00002686,-0.17760380,0.0377180
 8,-0.00128079,0.65591682,0.00438661,-0.00639947,0.00009721,-0.00387771
 ,-0.00332764,0.00000100,0.00914416,-0.00500398,0.00012004,0.00328297,0
 .01201346,-0.00008220,-0.00414766,-0.00158457,-0.00001681,0.00054711,0
 .00640077,-0.00006014,-0.01443012,-0.00470819,-0.00003254,-0.01878052,
 0.01541653,-0.00025050,0.01136371,0.00191257,0.00001526,-0.01177667,-0
 .06458428,0.00056649,-0.00293025,-0.00337769,0.00007423,0.11950751,-0.
 24224033,0.00261842,0.04782705,0.70350511,-0.00009807,0.00018090,0.000
 06207,0.00007195,0.00006266,-0.00006048,-0.00019877,0.00016812,-0.0000
 2799,-0.00017745,-0.00035147,0.00078491,0.00014680,0.00004438,-0.00008
 054,-0.00002098,-0.00018978,-0.00023025,0.00044859,0.00008455,0.004512
 68,-0.00038628,-0.00052906,0.00465334,-0.00016996,-0.00011783,-0.00608
 542,0.00047366,0.00093596,0.00650956,-0.00003601,0.00006586,0.00704044
 ,-0.00202826,0.00196137,-0.06197221,0.00368088,-0.00476111,0.14248584,
 0.00109847,-0.00946388,0.00009671,0.00134854,-0.00040730,0.00002460,0.
 00266245,-0.01078342,0.00012504,0.01271868,0.02322610,-0.00013538,-0.0
 1168821,-0.00543011,-0.00004487,0.00170748,0.01004878,-0.00008296,-0.0
 6622134,-0.02917477,-0.00035965,-0.11976163,-0.05429134,0.00006494,0.0
 2393471,0.00070256,0.00012609,-0.03113909,-0.02764418,0.00004194,-0.00
 031494,-0.00039609,0.00000825,-0.03933567,0.07533291,-0.00108620,-0.33
 550599,-0.05020644,-0.00173026,0.70336887,0.00131891,-0.00949292,0.000
 10514,0.00051960,0.00013372,-0.00000717,0.00492824,-0.01153629,0.00015
 132,0.01856452,0.02392417,-0.00005670,-0.01111621,-0.00248409,-0.00005
 648,0.00219479,0.00980076,-0.00007863,-0.04990424,-0.00091052,-0.00028
 952,-0.06148654,-0.27066446,0.00138507,-0.00295390,-0.03512331,0.00035
 727,-0.01323291,-0.01231492,-0.00002982,-0.00042053,0.00033293,-0.0000
 1283,0.02283776,0.03586607,-0.00006838,0.02943911,-0.12942006,0.000862
 11,-0.05409583,0.66753805,-0.00000209,0.00001155,0.00034721,0.00001192
 ,-0.00001665,-0.00108947,-0.00001910,0.00001646,0.00000697,-0.00008740
 ,-0.00000641,0.00208587,-0.00000040,-0.00001562,0.00076879,-0.00000614
 ,-0.00000542,-0.00008143,-0.00016925,-0.00012775,0.01127468,0.00013084
 ,0.00142270,-0.06680737,0.00016263,0.00040530,0.00708876,-0.00009892,-
 0.00014951,-0.00426340,0.00000730,-0.00001293,-0.00073676,-0.00059882,
 0.00036190,0.00908472,-0.00247047,0.00021424,-0.06110664,0.00510534,-0
 .00537624,0.12822210,-0.14083430,-0.13113045,0.00040526,-0.01215190,-0
 .02679757,0.00014269,-0.00453657,0.00170659,-0.00010448,-0.00057948,0.
 00017028,-0.00000042,-0.00101220,0.00280423,-0.00007718,0.01084247,0.0
 1409625,-0.00006685,0.00065976,-0.00009722,0.00001145,-0.00058334,0.00
 021740,-0.00000668,-0.00044329,-0.00000660,-0.00000178,0.00019983,-0.0
 0014860,0.00000164,0.00001485,0.00000968,-0.00000005,0.00002837,-0.000
 41363,0.00000355,-0.00037701,0.00020040,-0.00000495,0.00022207,0.00014
 034,-0.00000039,0.14595787,-0.13173858,-0.26044919,0.00117321,0.004303
 66,0.00494010,0.00001179,0.00047996,0.00139892,0.00005387,0.00090726,-
 0.00026139,0.00000175,0.00364500,-0.00296031,0.00010911,-0.01709963,-0
 .01708873,0.00004961,0.00054074,-0.00039995,0.00000147,-0.00039212,0.0
 0022021,-0.00000547,0.00011450,-0.00038993,0.00000264,0.00020548,0.000
 13711,0.00000182,-0.00000812,0.00001088,-0.00000008,0.00006211,-0.0002
 6643,0.00000346,-0.00014561,0.00008816,-0.00000180,-0.00003702,0.00004
 729,0.00000052,0.14012160,0.27322837,0.00041164,0.00117808,-0.03151946
 ,-0.00015783,-0.00023285,0.00259902,-0.00009210,0.00006344,0.00658932,
 -0.00000640,-0.00000346,-0.00077538,-0.00008591,0.00010162,0.00535663,
 0.00023403,0.00029545,0.00202636,0.00000495,-0.00000363,-0.00067290,-0
 .00000006,-0.00000059,-0.00001822,-0.00000305,0.00000222,-0.00020501,-
 0.00000151,-0.00000087,0.00015814,0.00000012,0.00000007,0.00000955,-0.
 00000097,-0.00000020,0.00005668,-0.00000158,0.00000085,0.00001502,0.00
 000100,0.00000161,0.00012303,-0.00038283,-0.00131534,0.02287783,-0.008
 05327,0.02864320,-0.00038143,-0.12038880,0.11740065,-0.00180117,0.0098
 9748,-0.01669020,0.00023148,-0.00252847,-0.00276301,-0.00004018,-0.000
 15660,-0.00047116,0.00000895,-0.00571766,-0.00128368,-0.00008747,0.001
 04181,-0.00017911,-0.00000262,-0.00006909,-0.00008828,0.00000195,0.000
 06307,0.00013049,0.00000367,-0.00020542,-0.00005140,-0.00000111,-0.000
 01978,-0.00002149,0.00000007,0.00008303,0.00026333,-0.00000227,0.00011
 500,-0.00010052,0.00000166,-0.00004060,0.00011295,-0.00000226,0.001431
 56,-0.00029199,0.00004531,0.12423464,-0.00196981,0.00283303,0.00000520
 ,0.11714577,-0.27644047,0.00324139,0.01268218,-0.01769737,0.00028092,-
 0.00395585,-0.00190475,0.00004435,-0.00050609,0.00018369,-0.00001275,-
 0.00022235,0.00147987,0.00005172,0.00072266,0.00033797,0.00001756,0.00
 046914,0.00039304,-0.00000181,-0.00040571,-0.00041526,-0.00000486,0.00
 029223,0.00021335,0.00000038,-0.00000609,-0.00000285,-0.00000001,-0.00
 002288,-0.00011165,0.00000150,0.00021046,-0.00005308,0.00000238,-0.000
 48562,-0.00019851,-0.00000093,0.00015122,0.00066851,-0.00004553,-0.124
 59894,0.29188851,-0.00008354,0.00024930,0.00499263,-0.00179657,0.00323
 764,-0.03622283,-0.00005220,0.00005037,0.00101810,-0.00002913,0.000053
 79,0.00597259,0.00001000,-0.00001232,-0.00073690,-0.00009924,0.0000437
 2,0.00704082,-0.00001057,0.00001102,0.00157697,-0.00000399,-0.00000720
 ,-0.00020979,0.00000948,-0.00000007,-0.00056123,-0.00000513,-0.0000025
 7,0.00001018,-0.00000008,-0.00000017,-0.00000023,0.00000056,0.00000444
 ,0.00007196,-0.00000103,-0.00000036,0.00001320,0.00000372,0.00000409,0
 .00010707,0.00004204,-0.00004835,-0.00414327,0.00198622,-0.00356025,0.
 02435213,-0.00097475,-0.00327226,-0.00002676,-0.00071965,-0.00027341,0
 .00000068,-0.00497168,-0.00174815,-0.00006636,-0.01016595,0.02929970,-
 0.00040757,-0.11548166,0.11742927,-0.00174491,0.01059908,-0.01616170,0
 .00021318,-0.00013745,0.00037710,0.00002030,-0.00022878,0.00000471,0.0
 0000035,0.00059948,-0.00022520,0.00000686,0.00021235,0.00012096,0.0000
 0140,0.00003183,0.00001217,0.00000026,-0.00004991,-0.00060867,0.000005
 02,-0.00074370,0.00033017,-0.00000963,0.00075673,0.00039238,0.00000102
 ,0.00035501,-0.00080951,0.00000543,0.00011765,0.00005967,0.00000680,0.
 11901562,-0.00358734,-0.00167937,0.00005024,-0.00032304,0.00055274,-0.
 00001211,0.00037819,-0.00041976,0.00006124,0.00153918,0.00436047,0.000
 02604,0.11863418,-0.28408624,0.00331536,0.01270670,-0.01634724,0.00028
 960,-0.00027740,-0.00332626,0.00000219,0.00065850,-0.00005811,0.000001
 81,0.00014105,0.00019807,-0.00000014,-0.00005668,-0.00002318,-0.000001
 39,0.00002032,0.00001467,-0.00000016,-0.00017592,0.00005157,-0.0000014
 9,-0.00007717,0.00004800,-0.00000035,0.00024677,0.00000928,0.00000388,
 0.00058771,-0.00072610,0.00001795,0.00010874,-0.00004543,-0.00000660,-
 0.12708250,0.30103255,-0.00002375,0.00005473,0.00648271,0.00000189,-0.
 00001174,-0.00046651,-0.00008748,0.00004439,0.00560807,-0.00014204,0.0
 0024325,0.00572898,-0.00174528,0.00331516,-0.03799162,-0.00006689,0.00
 006299,0.00330741,0.00002469,0.00000846,-0.00289094,-0.00000806,-0.000
 00221,-0.00029007,0.00000341,-0.00000408,0.00003020,0.00000301,0.00000
 016,-0.00011105,0.00000022,-0.00000033,-0.00002382,0.00000161,-0.00000
 535,0.00002435,-0.00000626,0.00000297,0.00007614,0.00000229,0.00000535
 ,0.00019770,-0.00000813,0.00000713,0.00065217,0.00000630,-0.00000694,-
 0.00081861,0.00196493,-0.00366076,0.02604749,-0.00986151,-0.00266106,-
 0.00010024,0.00114247,0.00296654,-0.00006596,0.00063633,-0.00041476,0.
 00001392,0.00097342,-0.00253604,-0.00002204,-0.01260073,0.00353446,-0.
 00018371,-0.33815524,0.01541289,-0.00247008,-0.00143780,0.00075590,-0.
 00001673,0.00073060,-0.00017526,0.00000648,-0.00037335,0.00010542,-0.0
 0000338,0.00023558,0.00006342,-0.00000199,-0.00000428,0.00001749,0.000
 00022,-0.00021522,-0.00004501,0.00000012,0.00025362,-0.00009241,0.0000
 0307,-0.00044757,-0.00025441,0.00000260,0.00081631,-0.00003471,0.00003
 342,-0.00056034,-0.00017164,-0.00000072,0.00100875,0.00016230,0.000040
 38,0.35754430,0.02772660,0.00366278,0.00023886,0.00231368,-0.00484201,
 0.00012215,-0.00026413,-0.00048940,-0.00000359,-0.00296484,-0.00502641
 ,0.00009212,-0.02655140,0.00541319,-0.00019804,0.01564547,-0.06001296,
 0.00029902,-0.00060773,0.00158957,-0.00002347,-0.00069649,-0.00042412,
 0.00000016,0.00017814,-0.00037566,0.00000414,0.00008200,0.00007044,0.0
 0000396,0.00000121,-0.00000032,-0.00000052,0.00016867,-0.00018804,0.00
 000122,-0.00019056,0.00002147,-0.00000191,-0.00001423,0.00020195,-0.00
 000656,-0.00062140,0.00124745,-0.00004773,0.00141838,0.00002941,0.0000
 0850,0.00055903,0.00120872,-0.00004863,-0.01626876,0.05795685,-0.00039
 459,0.00000482,0.00605142,-0.00006012,0.00012691,0.00594089,0.00001256
 ,-0.00000434,-0.00063588,-0.00001822,0.00009581,0.00689439,0.00010782,
 0.00003686,0.00648618,-0.00247117,0.00029517,-0.04165521,-0.00000258,-
 0.00001296,-0.00030985,0.00001023,0.00000486,0.00017841,-0.00000336,0.
 00000310,-0.00009173,-0.00000218,0.00000372,0.00041186,0.00000042,-0.0
 0000037,-0.00005533,-0.00000165,-0.00000061,-0.00019161,0.00000355,-0.
 00000092,-0.00001243,0.00000075,-0.00000831,-0.00047871,0.00003852,-0.
 00004407,-0.00332857,-0.00001589,-0.00000423,-0.00027249,0.00003651,-0
 .00005217,-0.00432180,0.00275537,-0.00043799,0.02572329,-0.00034426,0.
 00027069,-0.00000583,0.00017535,0.00021796,-0.00000195,-0.00035581,0.0
 0006729,-0.00000175,-0.00004756,-0.00069484,0.00000681,0.00013556,0.00
 001359,-0.00000009,0.00000082,-0.00035665,0.00000340,0.00004255,0.0008
 8880,-0.00000265,0.00011785,0.00051319,0.00000218,0.00092411,-0.002563
 12,-0.00002061,-0.00867158,0.00237568,-0.00011124,0.00077007,0.0000598
 7,0.00003800,-0.34381414,-0.01867120,-0.00231539,-0.01176633,-0.004517
 49,-0.00006913,0.00024876,0.00294861,-0.00006762,-0.00002239,-0.000010
 44,0.00000036,0.00001283,-0.00000761,0.00000011,0.00001047,0.00002028,
 -0.00000002,-0.00001479,-0.00000720,0.00000031,0.36218978,-0.00020967,
 0.00010724,-0.00000218,-0.00013030,0.00016529,-0.00000120,-0.00005992,
 -0.00048156,0.00000238,-0.00007508,-0.00031389,0.00000242,0.00018485,0
 .00013442,0.00000126,-0.00000919,-0.00028904,0.00000288,0.00023943,0.0
 0021413,-0.00000637,-0.00021241,-0.00095512,-0.00000016,-0.00133995,-0
 .00406388,0.00008855,-0.02872040,0.00144201,-0.00021914,0.00050120,0.0
 0131293,-0.00004543,-0.01808815,-0.05748075,0.00009636,0.02670981,0.00
 552149,0.00018169,0.00209409,-0.00422324,0.00010499,-0.00003136,0.0000
 0053,-0.00000075,0.00001160,0.00001203,0.00000008,-0.00001344,0.000002
 70,-0.00000025,-0.00000505,0.00000004,-0.00000045,0.01969352,0.0570473
 3,-0.00000098,0.00000167,0.00005659,0.00000105,0.00000159,0.00015825,-
 0.00000043,0.00000317,-0.00020494,0.00000023,-0.00000302,-0.00001854,-
 0.00000151,0.,0.00012311,-0.00000007,0.00000010,0.00001507,0.00000366,
 -0.00000067,-0.00067334,0.00000889,0.00000539,-0.00077567,-0.00003318,
 0.00007927,0.00658916,0.00017663,0.00003062,0.00259599,0.00003482,-0.0
 0005034,-0.00414430,-0.00232037,0.00009113,-0.03154350,-0.00035862,-0.
 00006716,0.00203177,-0.00006010,0.00011154,0.00535515,0.00000054,-0.00
 000061,-0.00005420,-0.00000010,-0.00000007,0.00000960,0.00000030,0.000
 00003,-0.00001277,0.00000028,-0.00000048,-0.00004340,0.00252211,-0.000
 16112,0.02290275,-0.00014494,0.00012821,-0.00000089,0.00017475,0.00012
 043,-0.00000304,-0.00025867,0.00011039,-0.00000222,-0.00051799,0.00000
 113,-0.00000568,-0.00006763,-0.00022776,0.00000540,-0.00004344,-0.0000
 2537,0.00000011,0.00093195,-0.00192955,0.00002858,-0.00593992,0.000891
 92,-0.00011225,-0.00051592,0.00037119,-0.00000209,-0.00117695,0.003609
 62,-0.00009045,0.00041972,0.00087139,-0.00000284,0.01114461,0.01607305
 ,-0.00010745,-0.11256261,-0.10987460,0.00044139,-0.00861512,-0.0287732
 6,0.00014224,-0.00000867,-0.00001089,0.00000038,0.00000720,-0.00000569
 ,0.00000057,-0.00000924,0.00001273,-0.00000015,-0.00002054,-0.00001773
 ,-0.00000178,0.00087136,-0.00064968,0.00003949,0.11490250,-0.00008485,
 -0.00026189,0.00000007,0.00009901,0.00013472,0.00000329,0.00004029,-0.
 00049535,0.00000451,0.00052056,0.00082835,-0.00000209,-0.00046581,-0.0
 0017937,-0.00000645,0.00007300,0.00031926,-0.00000258,-0.00056338,-0.0
 0078535,0.00000056,0.00131421,0.00188797,0.00005669,0.00022390,0.00066
 163,-0.00001008,0.00426195,-0.00251819,0.00011164,-0.00071776,-0.00094
 716,0.00000080,-0.01429820,-0.01728193,0.00009926,-0.11013235,-0.28559
 220,0.00135298,0.00131470,0.00144423,0.00005643,-0.00000820,-0.0000063
 4,-0.00000041,0.00001184,-0.00001189,-0.00000028,0.00000221,0.00000428
 ,-0.00000009,-0.00002094,0.00000122,0.00000189,-0.00006600,0.00118490,
 -0.00004197,0.11870835,0.30051374,0.00000101,0.00000144,-0.00019174,-0
 .00000262,0.00000379,0.00041171,-0.00000206,0.00000426,-0.00009170,-0.
 00000950,-0.00000598,0.00017751,0.00000732,-0.00000456,-0.00047897,-0.
 00000075,-0.00000321,-0.00001232,0.00001430,-0.00001003,-0.00030733,-0
 .00011427,0.00005414,0.00689224,-0.00000114,-0.00000932,-0.00063534,-0
 .00009590,0.00010591,0.00594066,0.00001196,0.00001297,-0.00027294,0.00
 016882,0.00034750,0.00605042,0.00044903,0.00135135,-0.04161273,-0.0001
 3777,-0.00018573,0.00648854,0.00000035,-0.00000046,-0.00004339,0.00000
 038,-0.00000050,-0.00005518,0.00000004,-0.00000013,-0.00000885,-0.0000
 0173,0.00000203,0.00022374,0.00003379,-0.00004703,-0.00332821,-0.00037
 323,-0.00156698,0.02567953,-0.00029470,-0.00004604,-0.00000190,0.00006
 055,0.00003595,0.00000074,0.00025252,0.00030200,-0.00000119,0.00021501
 ,0.00045738,-0.00000103,0.00040932,0.00038656,-0.00000181,-0.00002480,
 -0.00043218,0.00000339,-0.00250811,0.00103780,-0.00000838,0.01399924,-
 0.01194676,0.00017806,-0.00206934,-0.00124376,-0.00005100,0.00000544,-
 0.00071344,0.00001036,0.00006483,0.00013653,0.00000568,-0.00442384,-0.
 00169227,-0.00007183,-0.01149890,0.02498856,-0.00034841,-0.14381865,0.
 13449503,-0.00207006,0.00000657,0.00002082,-0.00000004,0.00003314,0.00
 001887,0.00000040,-0.00005835,-0.00002087,-0.00000008,0.00000614,0.000
 00371,-0.00000014,-0.00056186,0.00109736,-0.00001997,0.00146643,-0.000
 08905,0.00004706,0.14971337,-0.00046818,0.00031262,-0.00000648,0.00020
 411,0.00012516,-0.00000069,-0.00003158,0.00055357,-0.00000522,-0.00024
 009,-0.00048196,0.00000002,0.00058072,0.00032106,0.00000316,-0.0000692
 9,-0.00068019,0.00000677,0.00171076,-0.00093399,-0.00000421,0.01582422
 ,-0.01983887,0.00036082,-0.00335942,-0.00331043,0.00005423,-0.00068036
 ,-0.00017082,-0.00000797,0.00008837,0.00000819,-0.00000681,-0.00135687
 ,0.00178993,0.00003167,-0.00388260,0.00571150,-0.00005375,0.13327858,-
 0.25600599,0.00305869,-0.00001131,0.00000622,-0.00000025,0.00001189,0.
 00001300,-0.00000023,-0.00007591,-0.00000619,-0.00000064,-0.00000630,-
 0.00001234,-0.00000007,-0.00029906,0.00019478,0.00000189,0.00029226,0.
 00075323,-0.00004434,-0.14444918,0.26996744,0.00000266,-0.00000592,0.0
 0002704,0.00000013,-0.00000052,-0.00011479,0.00000201,-0.00000802,0.00
 003484,0.00001345,0.00001380,-0.00031449,-0.00001142,-0.00000159,0.000
 20346,0.00000105,0.00000983,0.00007628,-0.00001520,-0.00001466,-0.0028
 9946,-0.00007387,0.00014634,0.00573198,-0.00003080,0.00007174,0.005606
 66,0.00000993,-0.00000722,-0.00046178,0.00000625,-0.00000680,-0.000820
 02,-0.00007556,0.00002702,0.00647481,-0.00008616,0.00017782,0.00332472
 ,-0.00206453,0.00307144,-0.03800148,0.00000016,-0.00000015,-0.00001242
 ,0.00000049,-0.00000028,-0.00002203,0.00000045,-0.00000018,-0.00001516
 ,-0.00000001,0.00000009,-0.00001237,-0.00000668,0.00001293,0.00065095,
 0.00004375,-0.00004728,-0.00431581,0.00232211,-0.00338001,0.02554416,0
 .00917932,-0.01179725,0.00016293,-0.04206230,-0.01578828,-0.00021204,-
 0.14866952,0.03871641,-0.00142473,-0.03638346,0.02736602,-0.00057227,0
 .00550426,0.01032326,-0.00008029,-0.00194540,0.00259865,-0.00003978,-0
 .00992722,-0.00277485,-0.00001479,0.02778181,-0.01152357,0.00031902,-0
 .06113031,-0.01608097,-0.00025844,-0.03204177,-0.04517911,0.00016551,-
 0.00025143,-0.00073872,0.00001420,-0.00926892,0.01947691,-0.00027741,0
 .00689213,-0.00596107,0.00011072,0.00064965,0.00156973,-0.00004100,0.0
 0001788,0.00067690,-0.00000931,0.00090500,0.00058861,0.00001931,-0.000
 86766,-0.00078512,0.00000344,0.00009264,-0.00008476,0.00000690,0.00008
 543,-0.00106615,0.00000728,0.00021114,0.00001852,0.00000761,0.00016051
 ,0.00066066,-0.00000217,0.29162502,0.00923055,-0.01353928,0.00023331,-
 0.03965982,0.00181755,-0.00031661,0.03267245,-0.07376362,0.00088439,0.
 02421507,0.01901570,0.00002410,-0.00113987,-0.00598456,0.00008349,-0.0
 0104443,0.00878158,-0.00009656,-0.00272898,-0.00691384,0.00000456,-0.0
 0837258,-0.04521807,0.00039298,-0.01008986,-0.16133691,0.00136512,-0.0
 2135793,-0.00791406,-0.00007364,0.00115381,0.00053714,-0.00001740,-0.0
 0150986,0.00486069,-0.00002800,-0.00235422,-0.00006112,-0.00002179,0.0
 1305482,-0.00110621,0.00014553,-0.00102849,0.00030755,-0.00000766,-0.0
 0125497,-0.00037514,-0.00002377,0.00123510,0.00022190,0.00000481,0.000
 08657,0.00024405,-0.00000840,0.00063327,0.00023714,0.00000585,-0.00014
 658,0.00012252,-0.00000842,-0.00135400,-0.00079984,-0.00000718,0.01450
 761,0.27611852,-0.00003176,0.00006102,0.00301144,0.00000068,-0.0001338
 2,0.00153400,-0.00135308,0.00095687,-0.01289943,-0.00052398,0.00006276
 ,0.00301879,0.00002386,0.00017255,0.00345269,-0.00000322,-0.00005888,-
 0.00024406,-0.00001160,-0.00002410,-0.00447800,0.00028609,0.00035883,0
 .00301060,-0.00033853,0.00132776,-0.01268413,-0.00006413,-0.00026910,0
 .00174311,0.00000143,-0.00003096,-0.00159009,-0.00008621,0.00013345,0.
 00301312,0.00007860,-0.00004894,-0.00024324,-0.00014883,0.00005443,0.0
 0345200,0.00000796,0.00000604,0.00034122,0.00004139,-0.00000884,-0.001
 45924,-0.00001631,-0.00001183,-0.00030314,0.00000596,-0.00000966,-0.00
 071367,-0.00000858,-0.00000807,0.00034103,0.00000849,-0.00000808,-0.00
 071355,0.00001725,0.00000999,-0.00030389,0.00207893,-0.00245590,0.0122
 6204,0.01142058,0.00077562,0.00008182,-0.00939635,-0.00372306,-0.00004
 037,0.00084258,0.00277623,-0.00004233,0.01031362,-0.00231099,0.0000182
 2,-0.00854053,-0.00757648,0.00003899,0.00200414,0.00616069,-0.00004376
 ,-0.14528705,0.12642241,-0.00206093,-0.04899232,0.04816564,-0.00094524
 ,-0.00659089,-0.00264137,-0.00005494,-0.00086601,0.00715469,-0.0000761
 1,-0.00078601,0.00000733,-0.00000078,-0.00277607,-0.00507293,0.0000243
 4,-0.00650598,0.00511723,-0.00010056,0.00817241,0.00277586,0.00007004,
 -0.00000337,-0.00049943,0.00000494,-0.00020239,0.00001747,0.00000300,0
 .00170182,-0.00283063,0.00003596,0.00025121,0.00019236,-0.00000125,0.0
 0001379,0.00007890,0.00000005,-0.00024802,-0.00014199,-0.00000268,-0.0
 0113452,0.00227855,-0.00003603,-0.00055680,-0.00474766,0.00003560,0.19
 716615,-0.01299036,-0.00035312,-0.00009872,0.01190128,-0.00277881,0.00
 012464,-0.00680200,-0.00662950,0.00003486,0.01515495,-0.07458284,0.000
 94831,0.01216897,0.01089524,-0.00001513,0.00036838,-0.01282321,0.00012
 716,0.12637173,-0.28594474,0.00335082,0.03065866,-0.01517719,0.0004947
 3,0.00689622,0.00073615,0.00007562,-0.00846482,-0.01130493,0.00004009,
 0.00034488,-0.00021996,-0.00000036,0.00869316,0.01379854,-0.00005725,0
 .01090117,-0.00428644,0.00012589,-0.01686908,-0.00581794,-0.00008417,0
 .00008913,0.00024706,-0.00000204,-0.00031833,-0.00079605,-0.00000079,0
 .00044827,-0.00098710,-0.00000839,-0.00041865,-0.00027588,0.00000175,-
 0.00050913,0.00023052,-0.00000683,0.00047045,0.00022361,0.00000329,-0.
 00099301,0.00248390,-0.00005122,-0.00472344,0.00474830,-0.00007553,-0.
 17237844,0.38861438,0.00020888,0.00001254,0.00013874,-0.00018808,-0.00
 000038,0.00024175,0.00004972,0.00011605,0.00307822,-0.00014937,0.00080
 326,0.01041487,-0.00016810,-0.00018605,-0.00201970,0.00001087,0.000161
 51,-0.00007256,-0.00204108,0.00335730,-0.04280199,-0.00077044,0.000637
 10,0.01035001,-0.00014953,0.00000302,0.00308832,0.00006929,0.00016492,
 0.00023435,-0.00000474,-0.00000367,-0.00065932,-0.00010778,-0.00016230
 ,0.00014691,-0.00014383,0.00008081,-0.00007777,0.00024986,0.00006045,-
 0.00203730,-0.00000043,-0.00000609,-0.00003216,0.00000663,0.00000160,-
 0.00066344,0.00000801,-0.00002103,-0.00090088,0.00000480,0.00000632,0.
 00021286,0.00000446,-0.00000142,-0.00003058,-0.00000831,-0.00000183,0.
 00020368,-0.00000922,-0.00001657,-0.00038118,0.00003635,-0.00007882,0.
 00045240,0.00309202,-0.00492671,0.02111476\\-0.00005641,0.00005864,-0.
 00000074,0.00004826,0.00004644,-0.00000071,-0.00005648,-0.00009568,0.0
 0000109,-0.00011361,0.00008401,0.00000937,0.00011629,0.00001862,0.0000
 0138,0.00001825,-0.00008428,0.00000179,-0.00002420,0.00003763,-0.00003
 905,-0.00001862,0.00014076,0.00000905,0.00011299,0.00000542,0.00000124
 ,-0.00006540,-0.00001386,-0.00000170,-0.00001018,-0.00000777,-0.000002
 27,-0.00002704,0.00008290,-0.00000143,0.00006009,-0.00005087,0.0000011
 6,-0.00007658,-0.00008985,0.00000048,0.00000659,-0.00000614,-0.0000000
 7,0.00001953,0.00000360,-0.00000170,-0.00004447,-0.00001709,0.00000044
 ,0.00000245,0.00002555,0.00000087,-0.00000011,-0.00000077,-0.00000106,
 -0.00002927,0.00001597,-0.00000019,0.00003128,0.00003311,0.00000036,0.
 00004294,-0.00007247,0.00000141,0.00006370,-0.00011386,0.00002027\\\@


 THE TEST OF A FIRST RATE INTELLIGENCE IS THE ABILITY TO HOLD TWO OPPOSED
 IDEAS IN THE MIND AT THE SAME TIME, AND STILL RETAIN THE ABILITY TO FUNCTION.
 ONE SHOULD, FOR EXAMPLE, BE ABLE TO SEE THAT THINGS ARE HOPELESS AND YET BE
 DETERMINED TO MAKE THEM OTHERWISE.

                                                       -- F. SCOTT FITZGERALD
 Job cpu time:       0 days  1 hours 48 minutes 41.5 seconds.
 Elapsed time:       0 days  1 hours 48 minutes 50.8 seconds.
 File lengths (MBytes):  RWF=    423 Int=      0 D2E=      0 Chk=     16 Scr=      1
 Normal termination of Gaussian 16 at Tue Aug 18 15:34:18 2026.
