%mem=20GB
%chk=alkene.chk
#p opt freq b3lyp/gen EmpiricalDispersion=GD3BJ pseudo=read scrf=(solvent=acetonitrile,pcm) nosymm pop=(Orbitals=20)

Title Card Required

0 1
C      -1.01812      0.37875      0.01310
C      -0.28120      1.50594      0.02905
H       0.81018      1.50169     -0.03712
C      -0.38702     -0.98049     -0.10321
H       0.71029     -0.93275     -0.16581
H      -0.66798     -1.60789      0.76074
H      -0.77251     -1.50391     -0.99558
C      -0.95089      2.81339      0.13557
O      -2.16379      2.96832      0.21011
O      -0.07685      3.83391      0.14094
C      -0.64363      5.16426      0.24187
H      -1.32810      5.31961     -0.60651
H      -1.23701      5.22395      1.16743
B      -2.58891      0.42048      0.11713
O      -3.40014      0.32186     -0.98412
O      -3.25688      0.31948      1.31029
C      -4.78248      0.42482     -0.50848
C      -4.65266      0.00126      1.00394
C      -5.20652      1.88178     -0.70064
C      -5.64944     -0.49681     -1.35568
C      -4.80966     -1.50312      1.23072
C      -5.54390      0.78035      1.96158
H      -4.56559      2.56038     -0.12325
H      -5.10364      2.14102     -1.76520
H      -6.25648      2.03311     -0.41023
H      -5.26681     -1.52548     -1.36121
H      -6.68324     -0.50777     -0.97721
H      -5.67113     -0.13237     -2.39362
H      -4.51067     -1.73995      2.26252
H      -5.85143     -1.82597      1.08918
H      -4.16779     -2.07915      0.54807
H      -5.38002      0.42697      2.99066
H      -5.32780      1.85580      1.92840
H      -6.60517      0.62613      1.71284
C       0.50690      6.14666      0.23556
H       1.08944      6.06340     -0.69505
H       0.11789      7.17373      0.31047
H       1.18076      5.96794      1.08777

-C B O H 0
cc-pVDZ
****



