 Entering Gaussian System, Link 0=g16
 Initial command:
 /mnt/data/applications/G16/g16/l1.exe "/scratch/Gau-8830.inp" -scrdir="/scratch/"
 Entering Link 1 = /mnt/data/applications/G16/g16/l1.exe PID=      8831.
  
 Copyright (c) 1988,1990,1992,1993,1995,1998,2003,2009,2016,
            Gaussian, Inc.  All Rights Reserved.
  
 This is part of the Gaussian(R) 16 program.  It is based on
 the Gaussian(R) 09 system (copyright 2009, Gaussian, Inc.),
 the Gaussian(R) 03 system (copyright 2003, Gaussian, Inc.),
 the Gaussian(R) 98 system (copyright 1998, Gaussian, Inc.),
 the Gaussian(R) 94 system (copyright 1995, Gaussian, Inc.),
 the Gaussian 92(TM) system (copyright 1992, Gaussian, Inc.),
 the Gaussian 90(TM) system (copyright 1990, Gaussian, Inc.),
 the Gaussian 88(TM) system (copyright 1988, Gaussian, Inc.),
 the Gaussian 86(TM) system (copyright 1986, Carnegie Mellon
 University), and the Gaussian 82(TM) system (copyright 1983,
 Carnegie Mellon University). Gaussian is a federally registered
 trademark of Gaussian, Inc.
  
 This software contains proprietary and confidential information,
 including trade secrets, belonging to Gaussian, Inc.
  
 This software is provided under written license and may be
 used, copied, transmitted, or stored only in accord with that
 written license.
  
 The following legend is applicable only to US Government
 contracts under FAR:
  
                    RESTRICTED RIGHTS LEGEND
  
 Use, reproduction and disclosure by the US Government is
 subject to restrictions as set forth in subparagraphs (a)
 and (c) of the Commercial Computer Software - Restricted
 Rights clause in FAR 52.227-19.
  
 Gaussian, Inc.
 340 Quinnipiac St., Bldg. 40, Wallingford CT 06492
  
  
 ---------------------------------------------------------------
 Warning -- This program may not be used in any manner that
 competes with the business of Gaussian, Inc. or will provide
 assistance to any competitor of Gaussian, Inc.  The licensee
 of this program is prohibited from giving any competitor of
 Gaussian, Inc. access to this program.  By using this program,
 the user acknowledges that Gaussian, Inc. is engaged in the
 business of creating and licensing software in the field of
 computational chemistry and represents and warrants to the
 licensee that it is not a competitor of Gaussian, Inc. and that
 it will not use this program in any manner prohibited above.
 ---------------------------------------------------------------
  

 Cite this work as:
 Gaussian 16, Revision A.03,
 M. J. Frisch, G. W. Trucks, H. B. Schlegel, G. E. Scuseria, 
 M. A. Robb, J. R. Cheeseman, G. Scalmani, V. Barone, 
 G. A. Petersson, H. Nakatsuji, X. Li, M. Caricato, A. V. Marenich, 
 J. Bloino, B. G. Janesko, R. Gomperts, B. Mennucci, H. P. Hratchian, 
 J. V. Ortiz, A. F. Izmaylov, J. L. Sonnenberg, D. Williams-Young, 
 F. Ding, F. Lipparini, F. Egidi, J. Goings, B. Peng, A. Petrone, 
 T. Henderson, D. Ranasinghe, V. G. Zakrzewski, J. Gao, N. Rega, 
 G. Zheng, W. Liang, M. Hada, M. Ehara, K. Toyota, R. Fukuda, 
 J. Hasegawa, M. Ishida, T. Nakajima, Y. Honda, O. Kitao, H. Nakai, 
 T. Vreven, K. Throssell, J. A. Montgomery, Jr., J. E. Peralta, 
 F. Ogliaro, M. J. Bearpark, J. J. Heyd, E. N. Brothers, K. N. Kudin, 
 V. N. Staroverov, T. A. Keith, R. Kobayashi, J. Normand, 
 K. Raghavachari, A. P. Rendell, J. C. Burant, S. S. Iyengar, 
 J. Tomasi, M. Cossi, J. M. Millam, M. Klene, C. Adamo, R. Cammi, 
 J. W. Ochterski, R. L. Martin, K. Morokuma, O. Farkas, 
 J. B. Foresman, and D. J. Fox, Gaussian, Inc., Wallingford CT, 2016.
 
 ******************************************
 Gaussian 16:  AM64L-G16RevA.03 25-Dec-2016
                18-Aug-2026 
 ******************************************
 %nprocshared=24
 Will use up to   24 processors via shared memory.
 %mem=20GB
 %chk=alkene_eq.chk
 ----------------------------------------------------------------------
 #p b3lyp/gen EmpiricalDispersion=GD3BJ pseudo=read scrf=(solvent=aceto
 nitrile,pcm,read) nosymm pop=(Orbitals=20)
 ----------------------------------------------------------------------
 1/38=1,40=2,172=1/1;
 2/12=2,15=1,17=6,18=5,40=1/2;
 3/5=7,11=2,16=1,17=8,25=1,30=1,70=2203,72=2,74=-5,124=41/1,2,3;
 4//1;
 5/5=2,38=5,53=2/2;
 6/7=2,8=2,9=2,10=2,28=1,96=20/1;
 99/5=1,9=1/99;
 Leave Link    1 at Tue Aug 18 20:45:51 2026, MaxMem=  2684354560 cpu:               1.8 elap:               0.1
 (Enter /mnt/data/applications/G16/g16/l101.exe)
 -------------------
 Title Card Required
 -------------------
 Symbolic Z-matrix:
 Charge =  0 Multiplicity = 1
 C                    -1.01812   0.37875   0.0131 
 C                    -0.2812    1.50594   0.02905 
 H                     0.81018   1.50169  -0.03712 
 C                    -0.38702  -0.98049  -0.10321 
 H                     0.71029  -0.93275  -0.16581 
 H                    -0.66798  -1.60789   0.76074 
 H                    -0.77251  -1.50391  -0.99558 
 C                    -0.95089   2.81339   0.13557 
 O                    -2.16379   2.96832   0.21011 
 O                    -0.07685   3.83391   0.14094 
 C                    -0.64363   5.16426   0.24187 
 H                    -1.3281    5.31961  -0.60651 
 H                    -1.23701   5.22395   1.16743 
 B                    -2.58891   0.42048   0.11713 
 O                    -3.40014   0.32186  -0.98412 
 O                    -3.25688   0.31948   1.31029 
 C                    -4.78248   0.42482  -0.50848 
 C                    -4.65266   0.00126   1.00394 
 C                    -5.20652   1.88178  -0.70064 
 C                    -5.64944  -0.49681  -1.35568 
 C                    -4.80966  -1.50312   1.23072 
 C                    -5.5439    0.78035   1.96158 
 H                    -4.56559   2.56038  -0.12325 
 H                    -5.10364   2.14102  -1.7652 
 H                    -6.25648   2.03311  -0.41023 
 H                    -5.26681  -1.52548  -1.36121 
 H                    -6.68324  -0.50777  -0.97721 
 H                    -5.67113  -0.13237  -2.39362 
 H                    -4.51067  -1.73995   2.26252 
 H                    -5.85143  -1.82597   1.08918 
 H                    -4.16779  -2.07915   0.54807 
 H                    -5.38002   0.42697   2.99066 
 H                    -5.3278    1.8558    1.9284 
 H                    -6.60517   0.62613   1.71284 
 C                     0.5069    6.14666   0.23556 
 H                     1.08944   6.0634   -0.69505 
 H                     0.11789   7.17373   0.31047 
 H                     1.18076   5.96794   1.08777 
 
 ITRead=  0  0  0  0  0  0  0  0  0  0  0  0  0  0  0  0  0  0  0  0
 ITRead=  0  0  0  0  0  0  0  0  0  0  0  0  0  0  0  0  0  0
 MicOpt= -1 -1 -1 -1 -1 -1 -1 -1 -1 -1 -1 -1 -1 -1 -1 -1 -1 -1 -1 -1
 MicOpt= -1 -1 -1 -1 -1 -1 -1 -1 -1 -1 -1 -1 -1 -1 -1 -1 -1 -1
 NAtoms=     38 NQM=       38 NQMF=       0 NMMI=      0 NMMIF=      0
                NMic=       0 NMicF=      0.
                    Isotopes and Nuclear Properties:
 (Nuclear quadrupole moments (NQMom) in fm**2, nuclear magnetic moments (NMagM)
  in nuclear magnetons)

  Atom         1           2           3           4           5           6           7           8           9          10
 IAtWgt=          12          12           1          12           1           1           1          12          16          16
 AtmWgt=  12.0000000  12.0000000   1.0078250  12.0000000   1.0078250   1.0078250   1.0078250  12.0000000  15.9949146  15.9949146
 NucSpn=           0           0           1           0           1           1           1           0           0           0
 AtZEff=  -0.0000000  -0.0000000  -0.0000000  -0.0000000  -0.0000000  -0.0000000  -0.0000000  -0.0000000  -0.0000000  -0.0000000
 NQMom=    0.0000000   0.0000000   0.0000000   0.0000000   0.0000000   0.0000000   0.0000000   0.0000000   0.0000000   0.0000000
 NMagM=    0.0000000   0.0000000   2.7928460   0.0000000   2.7928460   2.7928460   2.7928460   0.0000000   0.0000000   0.0000000
 AtZNuc=   6.0000000   6.0000000   1.0000000   6.0000000   1.0000000   1.0000000   1.0000000   6.0000000   8.0000000   8.0000000

  Atom        11          12          13          14          15          16          17          18          19          20
 IAtWgt=          12           1           1          11          16          16          12          12          12          12
 AtmWgt=  12.0000000   1.0078250   1.0078250  11.0093053  15.9949146  15.9949146  12.0000000  12.0000000  12.0000000  12.0000000
 NucSpn=           0           1           1           3           0           0           0           0           0           0
 AtZEff=  -0.0000000  -0.0000000  -0.0000000  -0.0000000  -0.0000000  -0.0000000  -0.0000000  -0.0000000  -0.0000000  -0.0000000
 NQMom=    0.0000000   0.0000000   0.0000000   4.0590000   0.0000000   0.0000000   0.0000000   0.0000000   0.0000000   0.0000000
 NMagM=    0.0000000   2.7928460   2.7928460   2.6886370   0.0000000   0.0000000   0.0000000   0.0000000   0.0000000   0.0000000
 AtZNuc=   6.0000000   1.0000000   1.0000000   5.0000000   8.0000000   8.0000000   6.0000000   6.0000000   6.0000000   6.0000000

  Atom        21          22          23          24          25          26          27          28          29          30
 IAtWgt=          12          12           1           1           1           1           1           1           1           1
 AtmWgt=  12.0000000  12.0000000   1.0078250   1.0078250   1.0078250   1.0078250   1.0078250   1.0078250   1.0078250   1.0078250
 NucSpn=           0           0           1           1           1           1           1           1           1           1
 AtZEff=  -0.0000000  -0.0000000  -0.0000000  -0.0000000  -0.0000000  -0.0000000  -0.0000000  -0.0000000  -0.0000000  -0.0000000
 NQMom=    0.0000000   0.0000000   0.0000000   0.0000000   0.0000000   0.0000000   0.0000000   0.0000000   0.0000000   0.0000000
 NMagM=    0.0000000   0.0000000   2.7928460   2.7928460   2.7928460   2.7928460   2.7928460   2.7928460   2.7928460   2.7928460
 AtZNuc=   6.0000000   6.0000000   1.0000000   1.0000000   1.0000000   1.0000000   1.0000000   1.0000000   1.0000000   1.0000000

  Atom        31          32          33          34          35          36          37          38
 IAtWgt=           1           1           1           1          12           1           1           1
 AtmWgt=   1.0078250   1.0078250   1.0078250   1.0078250  12.0000000   1.0078250   1.0078250   1.0078250
 NucSpn=           1           1           1           1           0           1           1           1
 AtZEff=  -0.0000000  -0.0000000  -0.0000000  -0.0000000  -0.0000000  -0.0000000  -0.0000000  -0.0000000
 NQMom=    0.0000000   0.0000000   0.0000000   0.0000000   0.0000000   0.0000000   0.0000000   0.0000000
 NMagM=    2.7928460   2.7928460   2.7928460   2.7928460   0.0000000   2.7928460   2.7928460   2.7928460
 AtZNuc=   1.0000000   1.0000000   1.0000000   1.0000000   6.0000000   1.0000000   1.0000000   1.0000000
 Leave Link  101 at Tue Aug 18 20:45:51 2026, MaxMem=  2684354560 cpu:               1.9 elap:               0.1
 (Enter /mnt/data/applications/G16/g16/l202.exe)
                          Input orientation:                          
 ---------------------------------------------------------------------
 Center     Atomic      Atomic             Coordinates (Angstroms)
 Number     Number       Type             X           Y           Z
 ---------------------------------------------------------------------
      1          6           0       -1.018120    0.378750    0.013100
      2          6           0       -0.281200    1.505940    0.029050
      3          1           0        0.810180    1.501690   -0.037120
      4          6           0       -0.387020   -0.980490   -0.103210
      5          1           0        0.710290   -0.932750   -0.165810
      6          1           0       -0.667980   -1.607890    0.760740
      7          1           0       -0.772510   -1.503910   -0.995580
      8          6           0       -0.950890    2.813390    0.135570
      9          8           0       -2.163790    2.968320    0.210110
     10          8           0       -0.076850    3.833910    0.140940
     11          6           0       -0.643630    5.164260    0.241870
     12          1           0       -1.328100    5.319610   -0.606510
     13          1           0       -1.237010    5.223950    1.167430
     14          5           0       -2.588910    0.420480    0.117130
     15          8           0       -3.400140    0.321860   -0.984120
     16          8           0       -3.256880    0.319480    1.310290
     17          6           0       -4.782480    0.424820   -0.508480
     18          6           0       -4.652660    0.001260    1.003940
     19          6           0       -5.206520    1.881780   -0.700640
     20          6           0       -5.649440   -0.496810   -1.355680
     21          6           0       -4.809660   -1.503120    1.230720
     22          6           0       -5.543900    0.780350    1.961580
     23          1           0       -4.565590    2.560380   -0.123250
     24          1           0       -5.103640    2.141020   -1.765200
     25          1           0       -6.256480    2.033110   -0.410230
     26          1           0       -5.266810   -1.525480   -1.361210
     27          1           0       -6.683240   -0.507770   -0.977210
     28          1           0       -5.671130   -0.132370   -2.393620
     29          1           0       -4.510670   -1.739950    2.262520
     30          1           0       -5.851430   -1.825970    1.089180
     31          1           0       -4.167790   -2.079150    0.548070
     32          1           0       -5.380020    0.426970    2.990660
     33          1           0       -5.327800    1.855800    1.928400
     34          1           0       -6.605170    0.626130    1.712840
     35          6           0        0.506900    6.146660    0.235560
     36          1           0        1.089440    6.063400   -0.695050
     37          1           0        0.117890    7.173730    0.310470
     38          1           0        1.180760    5.967940    1.087770
 ---------------------------------------------------------------------
                    Distance matrix (angstroms):
                    1          2          3          4          5
     1  C    0.000000
     2  C    1.346797   0.000000
     3  H    2.146205   1.093392   0.000000
     4  C    1.503113   2.492193   2.756605   0.000000
     5  H    2.177026   2.639741   2.439885   1.100130   0.000000
     6  H    2.151349   3.221941   3.534264   1.104074   1.792746
     7  H    2.149923   3.217211   3.529474   1.104036   1.792606
     8  C    2.438645   1.472840   2.202668   3.842979   4.109004
     9  O    2.838529   2.390708   3.325150   4.341449   4.860041
    10  O    3.583359   2.339599   2.501555   4.830555   4.840943
    11  C    4.805589   3.682384   3.950420   6.159779   6.258820
    12  H    4.989199   4.005498   4.412818   6.389852   6.590998
    13  H    4.985615   4.004133   4.415557   6.389999   6.593517
    14  B    1.574784   2.551765   3.570241   2.619081   3.577151
    15  O    2.582964   3.486595   4.473880   3.398678   4.374850
    16  O    2.588100   3.450208   4.444560   3.453115   4.414226
    17  C    3.800602   4.660395   5.714864   4.632409   5.668416
    18  C    3.786046   4.724842   5.760010   4.515008   5.567937
    19  C    4.506797   4.993243   6.065097   5.637117   6.573908
    20  C    4.908084   5.894615   6.889071   5.430994   6.484751
    21  C    4.404521   5.568250   6.497607   4.648898   5.722365
    22  C    4.943738   5.653067   6.699960   5.827292   6.824617
    23  H    4.166851   4.414865   5.479703   5.477099   6.327612
    24  H    4.791599   5.184456   6.194213   5.895128   6.768153
    25  H    5.509676   6.014553   7.096429   6.605044   7.575748
    26  H    4.854502   5.998219   6.917137   5.068721   6.124217
    27  H    5.818953   6.786288   7.814924   6.374145   7.450051
    28  H    5.263463   6.132270   7.087357   5.821263   6.806340
    29  H    4.663334   5.780364   6.641387   4.814348   5.814360
    30  H    5.420297   6.576698   7.531196   5.656537   6.740105
    31  H    4.030867   5.312987   6.159955   3.990669   5.061573
    32  H    5.281511   5.994437   6.974314   6.040118   6.993141
    33  H    4.942003   5.403527   6.454724   6.048412   6.972823
    34  H    5.845121   6.603167   7.669184   6.674178   7.712029
    35  C    5.970256   4.711691   4.662840   7.190975   7.093695
    36  H    6.103977   4.813877   4.617365   7.221260   7.026376
    37  H    6.895702   5.688788   5.724694   8.180304   8.142039
    38  H    6.101560   4.813279   4.620616   7.221984   7.029390
                    6          7          8          9         10
     6  H    0.000000
     7  H    1.762498   0.000000
     8  C    4.474214   4.466587   0.000000
     9  O    4.845858   4.836341   1.225025   0.000000
    10  O    5.508791   5.501631   1.343665   2.260387   0.000000
    11  C    6.792042   6.783243   2.373246   2.670964   1.449572
    12  H    7.091924   6.857148   2.640854   2.625607   2.081253
    13  H    6.867549   7.082265   2.637688   2.619780   2.081313
    14  B    2.866791   2.870664   2.899908   2.584736   4.238221
    15  O    3.772687   3.199689   3.668822   3.155709   4.964324
    16  O    3.274013   3.848881   3.594043   3.069462   4.881720
    17  C    4.761506   4.476285   4.560828   3.720659   5.846930
    18  C    4.304205   4.617270   4.729190   3.953237   6.030921
    19  C    5.908619   5.586621   4.435936   3.356820   5.552709
    20  C    5.525276   4.992832   5.937813   5.158351   7.214483
    21  C    4.169577   4.610314   5.892514   5.294908   7.216024
    22  C    5.560603   6.060429   5.344465   4.390900   6.521318
    23  H    5.774710   5.627332   3.632776   2.458900   4.673378
    24  H    6.333228   5.712838   4.616312   3.637168   5.636299
    25  H    6.771956   6.551875   5.390364   4.243766   6.460224
    26  H    5.065442   4.509200   6.300263   5.682607   7.610204
    27  H    6.357207   5.994111   6.717754   5.823947   7.984036
    28  H    6.095790   5.275615   6.111871   5.356783   7.311042
    29  H    4.127838   4.964350   6.158641   5.646950   7.431539
    30  H    5.198421   5.499580   6.815301   6.112010   8.141202
    31  H    3.537794   3.773815   5.869885   5.441249   7.201793
    32  H    5.596116   6.391209   5.784785   4.953186   6.917496
    33  H    5.922373   6.370869   4.825822   3.768445   5.889007
    34  H    6.414637   6.774403   6.264405   5.241174   7.441753
    35  C    7.860611   7.853905   3.639483   4.151515   2.387159
    36  H    8.003533   7.798805   3.926250   4.580648   2.651365
    37  H    8.828204   8.820432   4.492822   4.785563   3.349785
    38  H    7.804998   7.999010   3.924513   4.577556   2.651821
                   11         12         13         14         15
    11  C    0.000000
    12  H    1.101082   0.000000
    13  H    1.101056   1.778851   0.000000
    14  B    5.128657   5.110261   5.099420   0.000000
    15  O    5.705281   5.423416   5.773975   1.371339   0.000000
    16  O    5.607360   5.691715   5.306045   1.371137   2.298879
    17  C    6.336829   5.991771   6.197635   2.281043   1.465503
    18  C    6.581006   6.475422   6.242586   2.285004   2.371492
    19  C    5.699383   5.183597   5.515142   3.107415   2.403481
    20  C    7.723860   7.284640   7.652628   3.518158   2.422319
    21  C    7.923862   7.876949   7.617172   3.141982   3.197314
    22  C    6.796228   6.706186   6.239035   3.501923   3.671930
    23  H    4.721787   4.281148   4.454201   2.923049   2.666523
    24  H    5.749783   5.069586   5.749400   3.581521   2.611770
    25  H    6.460141   5.926933   6.153499   4.041009   3.378817
    26  H    8.288322   7.933364   8.257609   3.625382   2.653171
    27  H    8.374662   7.922960   8.192284   4.338521   3.386308
    28  H    7.763753   7.195815   7.812340   4.013675   2.711164
    29  H    8.167322   8.258176   7.772514   3.600461   4.003125
    30  H    8.757992   8.625265   8.426172   4.078659   3.862715
    31  H    8.061045   8.008654   7.893564   2.987762   2.949871
    32  H    7.240936   7.300385   6.595431   4.005935   4.441829
    33  H    5.977603   5.866971   5.353324   3.583624   3.814658
    34  H    7.635335   7.433412   7.089045   4.326537   4.199808
    35  C    1.512901   2.181815   2.181971   6.510545   7.119050
    36  H    2.165595   2.530921   3.096107   6.784721   7.294188
    37  H    2.150021   2.523787   2.524238   7.278086   7.810289
    38  H    2.165606   3.096013   2.530905   6.776936   7.560132
                   16         17         18         19         20
    16  O    0.000000
    17  C    2.376232   0.000000
    18  C    1.464007   1.575967   0.000000
    19  C    3.207135   1.529532   2.597828   0.000000
    20  C    3.673972   1.522751   2.609492   2.506581   0.000000
    21  C    2.395689   2.596634   1.529457   3.917295   2.899544
    22  C    2.422197   2.609091   1.522618   2.900757   3.556190
    23  H    2.964691   2.180839   2.797719   1.097574   3.469874
    24  H    4.023328   2.151239   3.528469   1.100490   2.724656
    25  H    3.859316   2.183787   2.949666   1.099843   2.768189
    26  H    3.818456   2.182978   2.881328   3.471226   1.097542
    27  H    4.202016   2.168483   2.882243   2.822613   1.100955
    28  H    4.444291   2.157293   3.549444   2.671862   1.100276
    29  H    2.592293   3.526833   2.153137   4.730904   3.991687
    30  H    3.373949   2.959937   2.187026   4.167346   2.790127
    31  H    2.676595   2.786397   2.184267   4.281028   2.885022
    32  H    2.709782   3.549794   2.158087   3.971432   4.451587
    33  H    2.651612   2.878100   2.179394   2.631964   4.052580
    34  H    3.386315   2.880449   2.169170   3.059046   3.404443
    35  C    7.019766   7.827553   8.060857   7.190886   9.196100
    36  H    7.476931   8.142962   8.521022   7.558114   9.427900
    37  H    7.705158   8.380459   8.641954   7.574722   9.740397
    38  H    7.186603   8.296651   8.344884   7.790537   9.716742
                   21         22         23         24         25
    21  C    0.000000
    22  C    2.507489   0.000000
    23  H    4.290086   2.910690   0.000000
    24  H    4.726703   3.991759   1.778021   0.000000
    25  H    4.158236   2.775367   1.794291   1.782310   0.000000
    26  H    2.632031   4.053957   4.326489   3.692297   3.814102
    27  H    3.062022   3.404972   3.824557   3.183104   2.638117
    28  H    3.969500   4.451630   3.691572   2.425955   2.994290
    29  H    1.100043   2.740445   4.918105   5.624595   4.942411
    30  H    1.099796   2.765603   4.729000   4.944055   4.159903
    31  H    1.099918   3.473965   4.704695   4.902741   4.710801
    32  H    2.673564   1.100336   3.861498   5.062861   3.861855
    33  H    3.469520   1.097448   2.299275   3.711372   2.522514
    34  H    2.826659   1.100886   3.357445   4.079981   2.570720
    35  C    9.368847   8.269741   6.222564   7.178186   7.942396
    36  H    9.785714   8.886478   6.676636   7.408409   8.383728
    37  H   10.020745   8.698123   6.588330   7.543272   8.220582
    38  H    9.577176   8.537897   6.789593   7.891669   8.546311
                   26         27         28         29         30
    26  H    0.000000
    27  H    1.785907   0.000000
    28  H    1.780478   1.780873   0.000000
    29  H    3.707987   4.090743   5.060694   0.000000
    30  H    2.537023   2.588344   3.876943   1.783750   0.000000
    31  H    2.271507   3.335147   3.834517   1.781000   1.786489
    32  H    4.771127   4.279733   5.421077   2.445710   2.985564
    33  H    4.717871   3.983246   4.769754   3.702534   3.812336
    34  H    3.983769   2.920307   4.279108   3.207400   2.640051
    35  C    9.733814   9.871695   9.192761   9.564685  10.233272
    36  H    9.921531  10.182065   9.326200  10.049912  10.658392
    37  H   10.366569  10.340161   9.705872  10.231704  10.827454
    38  H   10.184302  10.394299   9.812352   9.653185  10.497463
                   31         32         33         34         35
    31  H    0.000000
    32  H    3.703564   0.000000
    33  H    4.328368   1.781201   0.000000
    34  H    3.823094   1.781427   1.786121   0.000000
    35  C    9.466485   8.658017   7.437803   9.123604   0.000000
    36  H    9.771639   9.338507   8.109708   9.724652   1.101054
    37  H   10.199965   9.106547   7.781620   9.488796   1.100824
    38  H    9.677496   8.795861   7.744528   9.462893   1.101040
                   36         37         38
    36  H    0.000000
    37  H    1.785445   0.000000
    38  H    1.787708   1.785446   0.000000
 Symmetry turned off by external request.
 Stoichiometry    C12H21BO4
 Framework group  C1[X(C12H21BO4)]
 Deg. of freedom   108
 Full point group                 C1      NOp   1
 Rotational constants (GHZ):           0.7886102           0.2618504           0.2295270
 Leave Link  202 at Tue Aug 18 20:45:51 2026, MaxMem=  2684354560 cpu:               0.3 elap:               0.0
 (Enter /mnt/data/applications/G16/g16/l301.exe)
 General basis read from cards:  (5D, 7F)
 Centers:       1      2      4      8     11     17     18     19     20     21
 Centers:      22     35     14      9     10     15     16      3      5      6
 Centers:       7     12     13     23     24     25     26     27     28     29
 Centers:      30     31     32     33     34     36     37     38
 cc-pVDZ
 ****
 ======================================================================================================
                                       Pseudopotential Parameters
 ======================================================================================================
  Center     Atomic      Valence      Angular      Power
  Number     Number     Electrons     Momentum     of R      Exponent        Coefficient   SO-Coeffient
 ======================================================================================================
    1          6
                                   No pseudopotential on this center.
    2          6
                                   No pseudopotential on this center.
    3          1
                                   No pseudopotential on this center.
    4          6
                                   No pseudopotential on this center.
    5          1
                                   No pseudopotential on this center.
    6          1
                                   No pseudopotential on this center.
    7          1
                                   No pseudopotential on this center.
    8          6
                                   No pseudopotential on this center.
    9          8
                                   No pseudopotential on this center.
   10          8
                                   No pseudopotential on this center.
   11          6
                                   No pseudopotential on this center.
   12          1
                                   No pseudopotential on this center.
   13          1
                                   No pseudopotential on this center.
   14          5
                                   No pseudopotential on this center.
   15          8
                                   No pseudopotential on this center.
   16          8
                                   No pseudopotential on this center.
   17          6
                                   No pseudopotential on this center.
   18          6
                                   No pseudopotential on this center.
   19          6
                                   No pseudopotential on this center.
   20          6
                                   No pseudopotential on this center.
   21          6
                                   No pseudopotential on this center.
   22          6
                                   No pseudopotential on this center.
   23          1
                                   No pseudopotential on this center.
   24          1
                                   No pseudopotential on this center.
   25          1
                                   No pseudopotential on this center.
   26          1
                                   No pseudopotential on this center.
   27          1
                                   No pseudopotential on this center.
   28          1
                                   No pseudopotential on this center.
   29          1
                                   No pseudopotential on this center.
   30          1
                                   No pseudopotential on this center.
   31          1
                                   No pseudopotential on this center.
   32          1
                                   No pseudopotential on this center.
   33          1
                                   No pseudopotential on this center.
   34          1
                                   No pseudopotential on this center.
   35          6
                                   No pseudopotential on this center.
   36          1
                                   No pseudopotential on this center.
   37          1
                                   No pseudopotential on this center.
   38          1
                                   No pseudopotential on this center.
 ======================================================================================================
 Ernie: Thresh=  0.10000D-02 Tol=  0.10000D-05 Strict=F.
 Ernie:  34 primitive shells out of 479 were deleted.
   343 basis functions,   708 primitive gaussians,   360 cartesian basis functions
    65 alpha electrons       65 beta electrons
       nuclear repulsion energy      1291.6792614994 Hartrees.
 IExCor=  402 DFT=T Ex+Corr=B3LYP ExCW=0 ScaHFX=  0.200000
 ScaDFX=  0.800000  0.720000  1.000000  0.810000 ScalE2=  1.000000  1.000000
 IRadAn=      5 IRanWt=     -1 IRanGd=            0 ICorTp=0 IEmpDi=141
 NAtoms=   38 NActive=   38 NUniq=   38 SFac= 1.00D+00 NAtFMM=   60 NAOKFM=F Big=F
 Integral buffers will be    131072 words long.
 Raffenetti 2 integral format.
 Two-electron integral symmetry is turned off.
 R6Disp:  Grimme-D3(BJ) Dispersion energy=       -0.0669663793 Hartrees.
 Nuclear repulsion after empirical dispersion term =     1291.6122951202 Hartrees.
 Using the following non-standard input for PCM:
 NonEq=write
 --- end of non-standard input.
 ------------------------------------------------------------------------------
 Polarizable Continuum Model (PCM)
 =================================
 Model                : PCM.
 Atomic radii         : UFF (Universal Force Field).
 Polarization charges : Total charges.
 Charge compensation  : None.
 Solution method      : On-the-fly selection.
 Cavity type          : Scaled VdW (van der Waals Surface) (Alpha=1.100).
 Cavity algorithm     : GePol (No added spheres)
                        Default sphere list used, NSphG=   38.
                        Lebedev-Laikov grids with approx.  5.0 points / Ang**2.
                        Smoothing algorithm: York/Karplus (Gamma=1.0000).
                        Polarization charges: spherical gaussians, with
                                              point-specific exponents (IZeta= 3).
                        Self-potential: point-specific (ISelfS= 7).
                        Self-field    : sphere-specific E.n sum rule (ISelfD= 2).
 Solvent              : Acetonitrile, Eps=  35.688000 Eps(inf)=   1.806874
 ------------------------------------------------------------------------------
 GePol: Number of generator spheres                  =      38
 GePol: Total number of spheres                      =      38
 GePol: Number of exposed spheres                    =      38 (100.00%)
 GePol: Number of points                             =    2608
 GePol: Average weight of points                     =       0.13
 GePol: Minimum weight of points                     =   0.19D-09
 GePol: Maximum weight of points                     =    0.20577
 GePol: Number of points with low weight             =     173
 GePol: Fraction of low-weight points (<1% of avg)   =       6.63%
 GePol: Cavity surface area                          =    344.687 Ang**2
 GePol: Cavity volume                                =    369.435 Ang**3
 Leave Link  301 at Tue Aug 18 20:45:51 2026, MaxMem=  2684354560 cpu:               2.5 elap:               0.1
 (Enter /mnt/data/applications/G16/g16/l302.exe)
 NPDir=0 NMtPBC=     1 NCelOv=     1 NCel=       1 NClECP=     1 NCelD=      1
         NCelK=      1 NCelE2=     1 NClLst=     1 CellRange=     0.0.
 One-electron integrals computed using PRISM.
   1 Symmetry operations used in ECPInt.
 ECPInt:  NShTT=   13695 NPrTT=  100063 LenC2=   12592 LenP2D=   52306.
 LDataN:  DoStor=T MaxTD1= 4 Len=   56
 NBasis=   343 RedAO= T EigKep=  9.91D-04  NBF=   343
 NBsUse=   343 1.00D-06 EigRej= -1.00D+00 NBFU=   343
 Precomputing XC quadrature grid using
 IXCGrd= 4 IRadAn=           5 IRanWt=          -1 IRanGd=           0 AccXCQ= 0.00D+00.
 Generated NRdTot=       0 NPtTot=           0 NUsed=           0 NTot=          32
 NSgBfM=   358   358   358   358   358 MxSgAt=    38 MxSgA2=    38.
 Leave Link  302 at Tue Aug 18 20:45:52 2026, MaxMem=  2684354560 cpu:              14.9 elap:               0.6
 (Enter /mnt/data/applications/G16/g16/l303.exe)
 DipDrv:  MaxL=1.
 Leave Link  303 at Tue Aug 18 20:45:52 2026, MaxMem=  2684354560 cpu:               2.4 elap:               0.1
 (Enter /mnt/data/applications/G16/g16/l401.exe)
 ExpMin= 9.54D-02 ExpMax= 1.17D+04 ExpMxC= 4.01D+02 IAcc=3 IRadAn=         5 AccDes= 0.00D+00
 Harris functional with IExCor=  402 and IRadAn=       5 diagonalized for initial guess.
 HarFok:  IExCor=  402 AccDes= 0.00D+00 IRadAn=         5 IDoV= 1 UseB2=F ITyADJ=14
 ICtDFT=  3500011 ScaDFX=  1.000000  1.000000  1.000000  1.000000
 FoFCou: FMM=F IPFlag=           0 FMFlag=      100000 FMFlg1=           0
         NFxFlg=           0 DoJE=T BraDBF=F KetDBF=T FulRan=T
         wScrn=  0.000000 ICntrl=       500 IOpCl=  0 I1Cent=   200000004 NGrid=           0
         NMat0=    1 NMatS0=      1 NMatT0=    0 NMatD0=    1 NMtDS0=    0 NMtDT0=    0
 Symmetry not used in FoFCou.
 Harris En= -795.945574638951    
 JPrj=0 DoOrth=F DoCkMO=F.
 Leave Link  401 at Tue Aug 18 20:45:54 2026, MaxMem=  2684354560 cpu:              52.2 elap:               2.2
 (Enter /mnt/data/applications/G16/g16/l502.exe)
 Two-electron integral symmetry not used.
 Closed shell SCF:
 Using DIIS extrapolation, IDIIS=  1040.
 NGot=  2684354560 LenX=  2684083570 LenY=  2683953529
 Requested convergence on RMS density matrix=1.00D-08 within 128 cycles.
 Requested convergence on MAX density matrix=1.00D-06.
 Requested convergence on             energy=1.00D-06.
 No special actions if energy rises.
 Fock matrices will be formed incrementally for  20 cycles.

 Cycle   1  Pass 1  IDiag  1:
 FoFJK:  IHMeth= 1 ICntrl=       0 DoSepK=F KAlg= 0 I1Cent=           0 FoldK=F
 IRaf= 860000000 NMat=       1 IRICut=       1 DoRegI=T DoRafI=F ISym2E= 0 IDoP0=0 IntGTp=1.
 FoFCou: FMM=F IPFlag=           0 FMFlag=      100000 FMFlg1=           0
         NFxFlg=           0 DoJE=F BraDBF=F KetDBF=F FulRan=T
         wScrn=  0.000000 ICntrl=         0 IOpCl=  0 I1Cent=           0 NGrid=           0
         NMat0=    1 NMatS0=      1 NMatT0=    0 NMatD0=    1 NMtDS0=    0 NMtDT0=    0
 Symmetry not used in FoFCou.
 Inv3:  Mode=1 IEnd=    20404992.
 Iteration    1 A*A^-1 deviation from unit magnitude is 2.89D-15 for    501.
 Iteration    1 A*A^-1 deviation from orthogonality  is 1.94D-15 for   2191    235.
 Iteration    1 A^-1*A deviation from unit magnitude is 2.66D-15 for   2554.
 Iteration    1 A^-1*A deviation from orthogonality  is 5.36D-13 for   2255   2199.
 E= -795.390244713520    
 DIIS: error= 3.31D-02 at cycle   1 NSaved=   1.
 NSaved= 1 IEnMin= 1 EnMin= -795.390244713520     IErMin= 1 ErrMin= 3.31D-02
 ErrMax= 3.31D-02  0.00D+00 EMaxC= 1.00D-01 BMatC= 5.28D-01 BMatP= 5.28D-01
 IDIUse=3 WtCom= 6.69D-01 WtEn= 3.31D-01
 Coeff-Com:  0.100D+01
 Coeff-En:   0.100D+01
 Coeff:      0.100D+01
 Gap=     0.216 Goal=   None    Shift=    0.000
 GapD=    0.216 DampG=1.000 DampE=0.500 DampFc=0.5000 IDamp=-1.
 Damping current iteration by 5.00D-01
 RMSDP=4.10D-03 MaxDP=1.82D-01              OVMax= 1.98D-01

 Cycle   2  Pass 1  IDiag  1:
 RMSU=  2.03D-03    CP:  9.82D-01
 E= -795.600613185348     Delta-E=       -0.210368471828 Rises=F Damp=T
 DIIS: error= 1.03D-02 at cycle   2 NSaved=   2.
 NSaved= 2 IEnMin= 2 EnMin= -795.600613185348     IErMin= 2 ErrMin= 1.03D-02
 ErrMax= 1.03D-02  0.00D+00 EMaxC= 1.00D-01 BMatC= 3.42D-02 BMatP= 5.28D-01
 IDIUse=3 WtCom= 8.97D-01 WtEn= 1.03D-01
 Coeff-Com:  0.127D+00 0.873D+00
 Coeff-En:   0.190D+00 0.810D+00
 Coeff:      0.134D+00 0.866D+00
 Gap=     0.232 Goal=   None    Shift=    0.000
 RMSDP=9.51D-04 MaxDP=5.43D-02 DE=-2.10D-01 OVMax= 1.62D-01

 Cycle   3  Pass 1  IDiag  1:
 RMSU=  9.19D-04    CP:  9.77D-01  8.87D-01
 E= -795.873761545061     Delta-E=       -0.273148359713 Rises=F Damp=F
 DIIS: error= 1.59D-02 at cycle   3 NSaved=   3.
 NSaved= 3 IEnMin= 3 EnMin= -795.873761545061     IErMin= 2 ErrMin= 1.03D-02
 ErrMax= 1.59D-02  0.00D+00 EMaxC= 1.00D-01 BMatC= 3.77D-02 BMatP= 3.42D-02
 IDIUse=2 WtCom= 0.00D+00 WtEn= 1.00D+00
 Coeff-En:   0.000D+00 0.000D+00 0.100D+01
 Coeff:      0.000D+00 0.000D+00 0.100D+01
 Gap=     0.229 Goal=   None    Shift=    0.000
 RMSDP=1.33D-03 MaxDP=1.23D-01 DE=-2.73D-01 OVMax= 1.49D-01

 Cycle   4  Pass 1  IDiag  1:
 RMSU=  8.59D-04    CP:  9.79D-01  1.03D+00 -6.63D-02
 E= -795.759118780163     Delta-E=        0.114642764898 Rises=F Damp=F
 DIIS: error= 3.84D-02 at cycle   4 NSaved=   4.
 NSaved= 4 IEnMin= 3 EnMin= -795.873761545061     IErMin= 2 ErrMin= 1.03D-02
 ErrMax= 3.84D-02  0.00D+00 EMaxC= 1.00D-01 BMatC= 1.86D-01 BMatP= 3.42D-02
 IDIUse=2 WtCom= 0.00D+00 WtEn= 1.00D+00
 Coeff-En:   0.000D+00 0.000D+00 0.775D+00 0.225D+00
 Coeff:      0.000D+00 0.000D+00 0.775D+00 0.225D+00
 Gap=     0.218 Goal=   None    Shift=    0.000
 RMSDP=7.13D-04 MaxDP=6.68D-02 DE= 1.15D-01 OVMax= 8.46D-02

 Cycle   5  Pass 1  IDiag  1:
 RMSU=  1.21D-04    CP:  9.79D-01  9.15D-01  4.65D-01  4.74D-01
 E= -795.895831845549     Delta-E=       -0.136713065386 Rises=F Damp=F
 DIIS: error= 8.53D-03 at cycle   5 NSaved=   5.
 NSaved= 5 IEnMin= 5 EnMin= -795.895831845549     IErMin= 5 ErrMin= 8.53D-03
 ErrMax= 8.53D-03  0.00D+00 EMaxC= 1.00D-01 BMatC= 1.11D-02 BMatP= 3.42D-02
 IDIUse=3 WtCom= 9.15D-01 WtEn= 8.53D-02
 Coeff-Com:  0.260D-02 0.121D-01 0.348D+00-0.265D-02 0.640D+00
 Coeff-En:   0.000D+00 0.000D+00 0.269D+00 0.000D+00 0.731D+00
 Coeff:      0.238D-02 0.110D-01 0.341D+00-0.242D-02 0.648D+00
 Gap=     0.227 Goal=   None    Shift=    0.000
 RMSDP=2.37D-04 MaxDP=1.91D-02 DE=-1.37D-01 OVMax= 2.44D-02

 Cycle   6  Pass 1  IDiag  1:
 RMSU=  4.41D-05    CP:  9.78D-01  8.99D-01  6.55D-01  3.06D-01  6.43D-01
 E= -795.904756902598     Delta-E=       -0.008925057050 Rises=F Damp=F
 DIIS: error= 4.40D-04 at cycle   6 NSaved=   6.
 NSaved= 6 IEnMin= 6 EnMin= -795.904756902598     IErMin= 6 ErrMin= 4.40D-04
 ErrMax= 4.40D-04  0.00D+00 EMaxC= 1.00D-01 BMatC= 9.78D-05 BMatP= 1.11D-02
 IDIUse=3 WtCom= 9.96D-01 WtEn= 4.40D-03
 Coeff-Com: -0.173D-02 0.144D-02 0.124D+00-0.317D-01 0.373D+00 0.535D+00
 Coeff-En:   0.000D+00 0.000D+00 0.000D+00 0.000D+00 0.000D+00 0.100D+01
 Coeff:     -0.172D-02 0.143D-02 0.123D+00-0.316D-01 0.371D+00 0.537D+00
 Gap=     0.222 Goal=   None    Shift=    0.000
 RMSDP=2.69D-05 MaxDP=1.80D-03 DE=-8.93D-03 OVMax= 3.81D-03

 Cycle   7  Pass 1  IDiag  1:
 RMSU=  1.27D-05    CP:  9.78D-01  9.02D-01  6.47D-01  3.12D-01  7.03D-01
                    CP:  5.52D-01
 E= -795.904835902938     Delta-E=       -0.000079000340 Rises=F Damp=F
 DIIS: error= 1.02D-04 at cycle   7 NSaved=   7.
 NSaved= 7 IEnMin= 7 EnMin= -795.904835902938     IErMin= 7 ErrMin= 1.02D-04
 ErrMax= 1.02D-04  0.00D+00 EMaxC= 1.00D-01 BMatC= 4.57D-06 BMatP= 9.78D-05
 IDIUse=3 WtCom= 9.99D-01 WtEn= 1.02D-03
 Coeff-Com: -0.111D-02 0.108D-02 0.458D-01-0.194D-01 0.167D+00 0.283D+00
 Coeff-Com:  0.524D+00
 Coeff-En:   0.000D+00 0.000D+00 0.000D+00 0.000D+00 0.000D+00 0.000D+00
 Coeff-En:   0.100D+01
 Coeff:     -0.111D-02 0.108D-02 0.458D-01-0.194D-01 0.167D+00 0.282D+00
 Coeff:      0.525D+00
 Gap=     0.222 Goal=   None    Shift=    0.000
 RMSDP=6.21D-06 MaxDP=4.68D-04 DE=-7.90D-05 OVMax= 8.85D-04

 Cycle   8  Pass 1  IDiag  1:
 RMSU=  3.70D-06    CP:  9.78D-01  9.02D-01  6.48D-01  3.12D-01  7.13D-01
                    CP:  6.01D-01  6.77D-01
 E= -795.904840039402     Delta-E=       -0.000004136464 Rises=F Damp=F
 DIIS: error= 3.39D-05 at cycle   8 NSaved=   8.
 NSaved= 8 IEnMin= 8 EnMin= -795.904840039402     IErMin= 8 ErrMin= 3.39D-05
 ErrMax= 3.39D-05  0.00D+00 EMaxC= 1.00D-01 BMatC= 3.70D-07 BMatP= 4.57D-06
 IDIUse=1 WtCom= 1.00D+00 WtEn= 0.00D+00
 Coeff-Com: -0.421D-03 0.509D-03 0.165D-01-0.818D-02 0.631D-01 0.110D+00
 Coeff-Com:  0.271D+00 0.547D+00
 Coeff:     -0.421D-03 0.509D-03 0.165D-01-0.818D-02 0.631D-01 0.110D+00
 Coeff:      0.271D+00 0.547D+00
 Gap=     0.222 Goal=   None    Shift=    0.000
 RMSDP=1.87D-06 MaxDP=1.43D-04 DE=-4.14D-06 OVMax= 3.23D-04

 Cycle   9  Pass 1  IDiag  1:
 RMSU=  1.11D-06    CP:  9.78D-01  9.02D-01  6.48D-01  3.11D-01  7.16D-01
                    CP:  5.98D-01  6.73D-01  6.38D-01
 E= -795.904840346580     Delta-E=       -0.000000307178 Rises=F Damp=F
 DIIS: error= 9.41D-06 at cycle   9 NSaved=   9.
 NSaved= 9 IEnMin= 9 EnMin= -795.904840346580     IErMin= 9 ErrMin= 9.41D-06
 ErrMax= 9.41D-06  0.00D+00 EMaxC= 1.00D-01 BMatC= 3.78D-08 BMatP= 3.70D-07
 IDIUse=1 WtCom= 1.00D+00 WtEn= 0.00D+00
 Coeff-Com: -0.322D-04-0.175D-04 0.138D-02-0.109D-02 0.574D-02 0.993D-02
 Coeff-Com:  0.411D-01 0.258D+00 0.685D+00
 Coeff:     -0.322D-04-0.175D-04 0.138D-02-0.109D-02 0.574D-02 0.993D-02
 Coeff:      0.411D-01 0.258D+00 0.685D+00
 Gap=     0.222 Goal=   None    Shift=    0.000
 RMSDP=5.40D-07 MaxDP=3.34D-05 DE=-3.07D-07 OVMax= 6.94D-05

 Cycle  10  Pass 1  IDiag  1:
 RMSU=  2.77D-07    CP:  9.78D-01  9.02D-01  6.48D-01  3.11D-01  7.15D-01
                    CP:  5.98D-01  6.81D-01  7.14D-01  7.66D-01
 E= -795.904840380189     Delta-E=       -0.000000033609 Rises=F Damp=F
 DIIS: error= 1.54D-06 at cycle  10 NSaved=  10.
 NSaved=10 IEnMin=10 EnMin= -795.904840380189     IErMin=10 ErrMin= 1.54D-06
 ErrMax= 1.54D-06  0.00D+00 EMaxC= 1.00D-01 BMatC= 2.32D-09 BMatP= 3.78D-08
 IDIUse=1 WtCom= 1.00D+00 WtEn= 0.00D+00
 Coeff-Com:  0.154D-06-0.278D-04 0.130D-03-0.252D-03 0.669D-03 0.117D-02
 Coeff-Com:  0.929D-02 0.114D+00 0.350D+00 0.525D+00
 Coeff:      0.154D-06-0.278D-04 0.130D-03-0.252D-03 0.669D-03 0.117D-02
 Coeff:      0.929D-02 0.114D+00 0.350D+00 0.525D+00
 Gap=     0.222 Goal=   None    Shift=    0.000
 RMSDP=1.50D-07 MaxDP=8.26D-06 DE=-3.36D-08 OVMax= 1.85D-05

 Cycle  11  Pass 1  IDiag  1:
 RMSU=  9.88D-08    CP:  9.78D-01  9.02D-01  6.48D-01  3.11D-01  7.16D-01
                    CP:  5.98D-01  6.81D-01  7.17D-01  7.90D-01  6.30D-01
 E= -795.904840382202     Delta-E=       -0.000000002013 Rises=F Damp=F
 DIIS: error= 6.32D-07 at cycle  11 NSaved=  11.
 NSaved=11 IEnMin=11 EnMin= -795.904840382202     IErMin=11 ErrMin= 6.32D-07
 ErrMax= 6.32D-07  0.00D+00 EMaxC= 1.00D-01 BMatC= 2.55D-10 BMatP= 2.32D-09
 IDIUse=1 WtCom= 1.00D+00 WtEn= 0.00D+00
 Coeff-Com:  0.423D-05-0.135D-04-0.164D-03 0.464D-04-0.577D-03-0.816D-03
 Coeff-Com: -0.232D-02 0.214D-01 0.682D-01 0.262D+00 0.652D+00
 Coeff:      0.423D-05-0.135D-04-0.164D-03 0.464D-04-0.577D-03-0.816D-03
 Coeff:     -0.232D-02 0.214D-01 0.682D-01 0.262D+00 0.652D+00
 Gap=     0.222 Goal=   None    Shift=    0.000
 RMSDP=4.11D-08 MaxDP=2.42D-06 DE=-2.01D-09 OVMax= 3.81D-06

 Cycle  12  Pass 1  IDiag  1:
 RMSU=  2.48D-08    CP:  9.78D-01  9.02D-01  6.48D-01  3.11D-01  7.16D-01
                    CP:  5.98D-01  6.81D-01  7.19D-01  7.93D-01  7.06D-01
                    CP:  8.04D-01
 E= -795.904840382346     Delta-E=       -0.000000000144 Rises=F Damp=F
 DIIS: error= 3.00D-07 at cycle  12 NSaved=  12.
 NSaved=12 IEnMin=12 EnMin= -795.904840382346     IErMin=12 ErrMin= 3.00D-07
 ErrMax= 3.00D-07  0.00D+00 EMaxC= 1.00D-01 BMatC= 2.54D-11 BMatP= 2.55D-10
 IDIUse=1 WtCom= 1.00D+00 WtEn= 0.00D+00
 Coeff-Com:  0.140D-05-0.465D-05-0.895D-04 0.326D-04-0.303D-03-0.367D-03
 Coeff-Com: -0.168D-02 0.643D-02 0.153D-01 0.114D+00 0.337D+00 0.530D+00
 Coeff:      0.140D-05-0.465D-05-0.895D-04 0.326D-04-0.303D-03-0.367D-03
 Coeff:     -0.168D-02 0.643D-02 0.153D-01 0.114D+00 0.337D+00 0.530D+00
 Gap=     0.222 Goal=   None    Shift=    0.000
 RMSDP=1.30D-08 MaxDP=7.56D-07 DE=-1.44D-10 OVMax= 8.14D-07

 Cycle  13  Pass 1  IDiag  1:
 RMSU=  8.48D-09    CP:  9.78D-01  9.02D-01  6.48D-01  3.11D-01  7.16D-01
                    CP:  5.98D-01  6.81D-01  7.20D-01  7.94D-01  7.19D-01
                    CP:  8.03D-01  7.01D-01
 E= -795.904840382367     Delta-E=       -0.000000000021 Rises=F Damp=F
 DIIS: error= 1.07D-07 at cycle  13 NSaved=  13.
 NSaved=13 IEnMin=13 EnMin= -795.904840382367     IErMin=13 ErrMin= 1.07D-07
 ErrMax= 1.07D-07  0.00D+00 EMaxC= 1.00D-01 BMatC= 2.80D-12 BMatP= 2.54D-11
 IDIUse=1 WtCom= 1.00D+00 WtEn= 0.00D+00
 Coeff-Com: -0.165D-06 0.305D-06-0.190D-04 0.875D-05-0.559D-04-0.170D-04
 Coeff-Com: -0.474D-03 0.211D-03-0.443D-02 0.124D-01 0.437D-01 0.229D+00
 Coeff-Com:  0.720D+00
 Coeff:     -0.165D-06 0.305D-06-0.190D-04 0.875D-05-0.559D-04-0.170D-04
 Coeff:     -0.474D-03 0.211D-03-0.443D-02 0.124D-01 0.437D-01 0.229D+00
 Coeff:      0.720D+00
 Gap=     0.222 Goal=   None    Shift=    0.000
 RMSDP=4.54D-09 MaxDP=2.03D-07 DE=-2.09D-11 OVMax= 3.58D-07

 NEqSol: Computing the fast-slow partition of the PCM polarization charges.
 Error on total polarization charges =  0.01354
 SCF Done:  E(RB3LYP) =  -795.904840382     A.U. after   13 cycles
            NFock= 13  Conv=0.45D-08     -V/T= 2.0070
 KE= 7.903970259322D+02 PE=-4.440300561055D+03 EE= 1.562386399621D+03
 Leave Link  502 at Tue Aug 18 20:47:22 2026, MaxMem=  2684354560 cpu:            2011.2 elap:              87.6
 (Enter /mnt/data/applications/G16/g16/l601.exe)
 Copying SCF densities to generalized density rwf, IOpCl= 0 IROHF=0.

 **********************************************************************

            Population analysis using the SCF density.

 **********************************************************************

 Alpha  occ. eigenvalues --  -19.18638 -19.14186 -19.14089 -19.13213 -10.31584
 Alpha  occ. eigenvalues --  -10.24779 -10.24712 -10.24416 -10.19824 -10.19501
 Alpha  occ. eigenvalues --  -10.19253 -10.18621 -10.18044 -10.18044 -10.17955
 Alpha  occ. eigenvalues --  -10.17438  -6.78565  -1.10645  -1.05992  -1.01719
 Alpha  occ. eigenvalues --   -0.99298  -0.81522  -0.80318  -0.77539  -0.75120
 Alpha  occ. eigenvalues --   -0.71467  -0.70515  -0.67702  -0.64773  -0.62068
 Alpha  occ. eigenvalues --   -0.58515  -0.55630  -0.55398  -0.53242  -0.51006
 Alpha  occ. eigenvalues --   -0.49207  -0.47810  -0.46705  -0.46442  -0.44864
 Alpha  occ. eigenvalues --   -0.43591  -0.42968  -0.42631  -0.41676  -0.41346
 Alpha  occ. eigenvalues --   -0.40179  -0.39686  -0.39667  -0.39355  -0.39227
 Alpha  occ. eigenvalues --   -0.37771  -0.37654  -0.36733  -0.36541  -0.36109
 Alpha  occ. eigenvalues --   -0.35243  -0.34791  -0.33517  -0.33367  -0.32898
 Alpha  occ. eigenvalues --   -0.30986  -0.30503  -0.28011  -0.27270  -0.26881
 Alpha virt. eigenvalues --   -0.04720   0.04718   0.05627   0.06891   0.07738
 Alpha virt. eigenvalues --    0.07950   0.08771   0.09590   0.10015   0.10379
 Alpha virt. eigenvalues --    0.11164   0.11487   0.11675   0.12001   0.12670
 Alpha virt. eigenvalues --    0.13563   0.13754   0.14007   0.14440   0.15314
 Alpha virt. eigenvalues --    0.15896   0.16036   0.16277   0.16448   0.17697
 Alpha virt. eigenvalues --    0.18840   0.20463   0.20922   0.21844   0.22121
 Alpha virt. eigenvalues --    0.22699   0.23624   0.24148   0.26411   0.26836
 Alpha virt. eigenvalues --    0.27480   0.29166   0.31285   0.31482   0.33942
 Alpha virt. eigenvalues --    0.37698   0.39493   0.39791   0.41018   0.41846
 Alpha virt. eigenvalues --    0.42387   0.42598   0.43490   0.44502   0.45908
 Alpha virt. eigenvalues --    0.46784   0.48199   0.48884   0.49031   0.49373
 Alpha virt. eigenvalues --    0.50301   0.50461   0.53158   0.53443   0.55081
 Alpha virt. eigenvalues --    0.55656   0.56075   0.56811   0.57933   0.58418
 Alpha virt. eigenvalues --    0.58956   0.59452   0.59768   0.61409   0.61460
 Alpha virt. eigenvalues --    0.62068   0.62422   0.62586   0.62938   0.63917
 Alpha virt. eigenvalues --    0.64268   0.64766   0.64922   0.65420   0.65613
 Alpha virt. eigenvalues --    0.65907   0.66329   0.66610   0.67597   0.67802
 Alpha virt. eigenvalues --    0.68303   0.68710   0.68996   0.70596   0.71029
 Alpha virt. eigenvalues --    0.71988   0.72521   0.73397   0.74271   0.75754
 Alpha virt. eigenvalues --    0.76350   0.78099   0.78883   0.79185   0.81872
 Alpha virt. eigenvalues --    0.82728   0.84160   0.85861   0.88836   0.89463
 Alpha virt. eigenvalues --    0.90436   0.91472   0.91887   0.93635   0.97120
 Alpha virt. eigenvalues --    0.97626   1.00259   1.00512   1.02839   1.04830
 Alpha virt. eigenvalues --    1.05301   1.07217   1.10198   1.11682   1.13787
 Alpha virt. eigenvalues --    1.14456   1.15506   1.16432   1.18617   1.20019
 Alpha virt. eigenvalues --    1.20378   1.21098   1.22537   1.24642   1.26516
 Alpha virt. eigenvalues --    1.27230   1.28721   1.29374   1.29977   1.31486
 Alpha virt. eigenvalues --    1.32336   1.33832   1.34780   1.35404   1.36136
 Alpha virt. eigenvalues --    1.37761   1.39147   1.40522   1.41086   1.41511
 Alpha virt. eigenvalues --    1.41577   1.43115   1.43913   1.44810   1.45587
 Alpha virt. eigenvalues --    1.46277   1.48428   1.49559   1.51539   1.52869
 Alpha virt. eigenvalues --    1.53594   1.55175   1.56108   1.56727   1.57579
 Alpha virt. eigenvalues --    1.59205   1.59566   1.60507   1.60947   1.61162
 Alpha virt. eigenvalues --    1.61982   1.63195   1.63481   1.63638   1.64069
 Alpha virt. eigenvalues --    1.64640   1.64945   1.65593   1.67211   1.68396
 Alpha virt. eigenvalues --    1.69332   1.69459   1.69679   1.71419   1.72072
 Alpha virt. eigenvalues --    1.72803   1.73118   1.74773   1.75381   1.76380
 Alpha virt. eigenvalues --    1.76579   1.77699   1.77921   1.79296   1.80304
 Alpha virt. eigenvalues --    1.80841   1.81981   1.82727   1.83407   1.84367
 Alpha virt. eigenvalues --    1.85798   1.87493   1.87948   1.88314   1.90272
 Alpha virt. eigenvalues --    1.92601   1.93897   1.94270   1.94875   1.99332
 Alpha virt. eigenvalues --    1.99935   2.00043   2.00655   2.02472   2.03006
 Alpha virt. eigenvalues --    2.03688   2.05980   2.08581   2.08880   2.10590
 Alpha virt. eigenvalues --    2.11611   2.14049   2.15053   2.16082   2.18009
 Alpha virt. eigenvalues --    2.18281   2.19912   2.20434   2.23934   2.24499
 Alpha virt. eigenvalues --    2.25402   2.26350   2.28819   2.29921   2.31985
 Alpha virt. eigenvalues --    2.32653   2.34357   2.36202   2.36976   2.39709
 Alpha virt. eigenvalues --    2.40776   2.40970   2.42192   2.42662   2.43664
 Alpha virt. eigenvalues --    2.44310   2.45681   2.46660   2.47393   2.48544
 Alpha virt. eigenvalues --    2.48986   2.49593   2.49810   2.51161   2.53789
 Alpha virt. eigenvalues --    2.54006   2.55827   2.56130   2.56564   2.57564
 Alpha virt. eigenvalues --    2.60111   2.64307   2.65013   2.73606   2.75800
 Alpha virt. eigenvalues --    2.87332   2.88889   2.90910   2.91699   2.97074
 Alpha virt. eigenvalues --    2.98323   3.00962   3.06072   3.15858   3.17322
 Alpha virt. eigenvalues --    3.19091   3.22869   3.35537   3.39570   3.40834
 Alpha virt. eigenvalues --    3.44272   3.54378   3.58191
          Condensed to atoms (all electrons):
               1          2          3          4          5          6
     1  C    4.821371   0.599353  -0.030642   0.437634  -0.010294  -0.011023
     2  C    0.599353   4.959476   0.366616  -0.045429  -0.013539   0.001061
     3  H   -0.030642   0.366616   0.710073  -0.017483   0.007584   0.000146
     4  C    0.437634  -0.045429  -0.017483   4.544603   0.377508   0.370899
     5  H   -0.010294  -0.013539   0.007584   0.377508   0.664431  -0.027425
     6  H   -0.011023   0.001061   0.000146   0.370899  -0.027425   0.643853
     7  H   -0.011048   0.000433   0.000123   0.372309  -0.027261  -0.027916
     8  C   -0.031549   0.362686  -0.043856   0.008240   0.000333  -0.000231
     9  O   -0.007609  -0.068083   0.003848   0.000430  -0.000009   0.000024
    10  O    0.001228  -0.050289   0.007529  -0.000050  -0.000009   0.000003
    11  C   -0.000170   0.007745  -0.000851   0.000002   0.000002  -0.000000
    12  H    0.000064   0.001033   0.000030   0.000000  -0.000000   0.000000
    13  H    0.000059   0.001076   0.000031   0.000000  -0.000000  -0.000000
    14  B    0.347928  -0.042637   0.011976  -0.053786   0.003686  -0.000143
    15  O   -0.015343   0.000210  -0.000051  -0.000004  -0.000009  -0.000325
    16  O   -0.014054   0.000159  -0.000052  -0.000894  -0.000024   0.001489
    17  C    0.001909   0.000156   0.000008  -0.000348   0.000010  -0.000074
    18  C    0.002052  -0.000150   0.000010  -0.000075   0.000014  -0.000163
    19  C    0.000011  -0.000102   0.000002   0.000014  -0.000000  -0.000003
    20  C    0.000133  -0.000001  -0.000000   0.000009  -0.000001   0.000006
    21  C   -0.000257  -0.000010  -0.000000   0.000074  -0.000002   0.000119
    22  C    0.000098  -0.000018  -0.000000   0.000004  -0.000000   0.000006
    23  H    0.000087   0.000307  -0.000023   0.000004  -0.000000  -0.000001
    24  H   -0.000237   0.000027   0.000000  -0.000004  -0.000000   0.000000
    25  H   -0.000001  -0.000002   0.000000   0.000000  -0.000000   0.000000
    26  H   -0.000041  -0.000002  -0.000000   0.000001   0.000000  -0.000011
    27  H    0.000004   0.000000   0.000000  -0.000000   0.000000  -0.000000
    28  H   -0.000063   0.000001   0.000000  -0.000003  -0.000000   0.000000
    29  H   -0.000228   0.000001   0.000000  -0.000033  -0.000001   0.000103
    30  H    0.000009   0.000001   0.000000  -0.000006   0.000000   0.000004
    31  H   -0.000029  -0.000019  -0.000001   0.000329  -0.000003   0.000305
    32  H   -0.000063   0.000003   0.000000  -0.000002  -0.000000   0.000000
    33  H   -0.000017  -0.000007   0.000000   0.000002  -0.000000  -0.000000
    34  H    0.000004   0.000000   0.000000  -0.000000   0.000000  -0.000001
    35  C    0.000006  -0.000002  -0.000123  -0.000000   0.000000  -0.000000
    36  H    0.000002  -0.000030   0.000051  -0.000000  -0.000000  -0.000000
    37  H   -0.000000   0.000021   0.000003   0.000000  -0.000000  -0.000000
    38  H    0.000002  -0.000030   0.000050  -0.000000  -0.000000   0.000000
               7          8          9         10         11         12
     1  C   -0.011048  -0.031549  -0.007609   0.001228  -0.000170   0.000064
     2  C    0.000433   0.362686  -0.068083  -0.050289   0.007745   0.001033
     3  H    0.000123  -0.043856   0.003848   0.007529  -0.000851   0.000030
     4  C    0.372309   0.008240   0.000430  -0.000050   0.000002   0.000000
     5  H   -0.027261   0.000333  -0.000009  -0.000009   0.000002  -0.000000
     6  H   -0.027916  -0.000231   0.000024   0.000003  -0.000000   0.000000
     7  H    0.643264  -0.000214   0.000022   0.000003  -0.000000  -0.000000
     8  C   -0.000214   4.485831   0.648802   0.401488  -0.049662  -0.001360
     9  O    0.000022   0.648802   7.686980  -0.054895   0.000359   0.007754
    10  O    0.000003   0.401488  -0.054895   7.762892   0.287372  -0.029397
    11  C   -0.000000  -0.049662   0.000359   0.287372   4.485215   0.381121
    12  H   -0.000000  -0.001360   0.007754  -0.029397   0.381121   0.683463
    13  H    0.000000  -0.001365   0.008017  -0.029444   0.381010  -0.047622
    14  B   -0.000920  -0.045890   0.059552   0.000896  -0.000288   0.000043
    15  O    0.001626  -0.000532  -0.002203  -0.000001   0.000001  -0.000001
    16  O   -0.000366   0.000027  -0.003276  -0.000001   0.000002   0.000001
    17  C   -0.000014  -0.000124  -0.002132  -0.000001   0.000001  -0.000002
    18  C   -0.000133  -0.000116  -0.000546  -0.000000  -0.000000   0.000000
    19  C    0.000015   0.000042  -0.004040  -0.000001  -0.000012   0.000001
    20  C   -0.000001  -0.000000  -0.000008  -0.000000   0.000000  -0.000000
    21  C    0.000009   0.000001   0.000000   0.000000   0.000000   0.000000
    22  C   -0.000002   0.000018  -0.000006  -0.000000   0.000000   0.000000
    23  H    0.000001   0.000051   0.017938   0.000003   0.000068   0.000080
    24  H   -0.000001  -0.000026   0.000015  -0.000000  -0.000002   0.000005
    25  H   -0.000000  -0.000005   0.000072   0.000000   0.000000   0.000000
    26  H    0.000064   0.000001   0.000001   0.000000  -0.000000  -0.000000
    27  H   -0.000000   0.000000   0.000000   0.000000  -0.000000   0.000000
    28  H   -0.000001  -0.000001  -0.000002  -0.000000  -0.000000  -0.000000
    29  H   -0.000010  -0.000002  -0.000000   0.000000  -0.000000   0.000000
    30  H   -0.000005  -0.000000   0.000000   0.000000  -0.000000  -0.000000
    31  H    0.000111   0.000005   0.000003   0.000000  -0.000000   0.000000
    32  H    0.000000  -0.000003  -0.000001  -0.000000  -0.000000   0.000000
    33  H    0.000000   0.000019  -0.000029  -0.000000  -0.000001  -0.000002
    34  H    0.000000  -0.000001  -0.000002  -0.000000   0.000000  -0.000000
    35  C   -0.000000   0.002380   0.001129  -0.033018   0.452205  -0.026230
    36  H    0.000000   0.000259  -0.000020   0.002689  -0.019475  -0.010382
    37  H   -0.000000  -0.000007   0.000037   0.002896  -0.011436  -0.001302
    38  H   -0.000000   0.000257  -0.000020   0.002703  -0.019590   0.008800
              13         14         15         16         17         18
     1  C    0.000059   0.347928  -0.015343  -0.014054   0.001909   0.002052
     2  C    0.001076  -0.042637   0.000210   0.000159   0.000156  -0.000150
     3  H    0.000031   0.011976  -0.000051  -0.000052   0.000008   0.000010
     4  C    0.000000  -0.053786  -0.000004  -0.000894  -0.000348  -0.000075
     5  H   -0.000000   0.003686  -0.000009  -0.000024   0.000010   0.000014
     6  H   -0.000000  -0.000143  -0.000325   0.001489  -0.000074  -0.000163
     7  H    0.000000  -0.000920   0.001626  -0.000366  -0.000014  -0.000133
     8  C   -0.001365  -0.045890  -0.000532   0.000027  -0.000124  -0.000116
     9  O    0.008017   0.059552  -0.002203  -0.003276  -0.002132  -0.000546
    10  O   -0.029444   0.000896  -0.000001  -0.000001  -0.000001  -0.000000
    11  C    0.381010  -0.000288   0.000001   0.000002   0.000001  -0.000000
    12  H   -0.047622   0.000043  -0.000001   0.000001  -0.000002   0.000000
    13  H    0.683644   0.000050   0.000001  -0.000002   0.000001  -0.000001
    14  B    0.000050   3.689209   0.534150   0.530183  -0.113009  -0.114634
    15  O    0.000001   0.534150   7.593325  -0.021854   0.262736  -0.058304
    16  O   -0.000002   0.530183  -0.021854   7.597157  -0.055182   0.259116
    17  C    0.000001  -0.113009   0.262736  -0.055182   4.988809   0.298885
    18  C   -0.000001  -0.114634  -0.058304   0.259116   0.298885   4.995965
    19  C   -0.000006   0.008406  -0.038894   0.000977   0.423769  -0.055978
    20  C    0.000000   0.000488  -0.032251   0.003022   0.446079  -0.050858
    21  C   -0.000000   0.008421   0.000556  -0.039142  -0.054640   0.422871
    22  C   -0.000000   0.000941   0.002883  -0.031671  -0.051287   0.445655
    23  H    0.000039   0.002783  -0.003796   0.001169  -0.002399  -0.008089
    24  H   -0.000001  -0.000324   0.001998  -0.000195  -0.011396   0.007990
    25  H   -0.000001  -0.001065   0.004258  -0.000114  -0.010419  -0.007633
    26  H   -0.000000   0.002258   0.000841  -0.000048   0.000074  -0.014603
    27  H   -0.000000   0.000683   0.003563   0.000020  -0.012326  -0.002074
    28  H    0.000000  -0.001136   0.000132  -0.000138  -0.009624   0.007956
    29  H   -0.000000  -0.001006  -0.000209   0.002417   0.007887  -0.011089
    30  H   -0.000000  -0.001045  -0.000096   0.004295  -0.006826  -0.009558
    31  H   -0.000000   0.007390   0.001992  -0.003407  -0.008650  -0.005790
    32  H    0.000000  -0.001100  -0.000141   0.000136   0.007893  -0.010131
    33  H    0.000005   0.001974  -0.000019   0.000613  -0.014045   0.000199
    34  H    0.000000   0.000565   0.000018   0.003606  -0.002351  -0.012655
    35  C   -0.026297  -0.000012   0.000000   0.000000   0.000000  -0.000000
    36  H    0.008792   0.000001   0.000000  -0.000000   0.000000  -0.000000
    37  H   -0.001313  -0.000000   0.000000   0.000000   0.000000   0.000000
    38  H   -0.010407   0.000001  -0.000000   0.000000  -0.000000   0.000000
              19         20         21         22         23         24
     1  C    0.000011   0.000133  -0.000257   0.000098   0.000087  -0.000237
     2  C   -0.000102  -0.000001  -0.000010  -0.000018   0.000307   0.000027
     3  H    0.000002  -0.000000  -0.000000  -0.000000  -0.000023   0.000000
     4  C    0.000014   0.000009   0.000074   0.000004   0.000004  -0.000004
     5  H   -0.000000  -0.000001  -0.000002  -0.000000  -0.000000  -0.000000
     6  H   -0.000003   0.000006   0.000119   0.000006  -0.000001   0.000000
     7  H    0.000015  -0.000001   0.000009  -0.000002   0.000001  -0.000001
     8  C    0.000042  -0.000000   0.000001   0.000018   0.000051  -0.000026
     9  O   -0.004040  -0.000008   0.000000  -0.000006   0.017938   0.000015
    10  O   -0.000001  -0.000000   0.000000  -0.000000   0.000003  -0.000000
    11  C   -0.000012   0.000000   0.000000   0.000000   0.000068  -0.000002
    12  H    0.000001  -0.000000   0.000000   0.000000   0.000080   0.000005
    13  H   -0.000006   0.000000  -0.000000  -0.000000   0.000039  -0.000001
    14  B    0.008406   0.000488   0.008421   0.000941   0.002783  -0.000324
    15  O   -0.038894  -0.032251   0.000556   0.002883  -0.003796   0.001998
    16  O    0.000977   0.003022  -0.039142  -0.031671   0.001169  -0.000195
    17  C    0.423769   0.446079  -0.054640  -0.051287  -0.002399  -0.011396
    18  C   -0.055978  -0.050858   0.422871   0.445655  -0.008089   0.007990
    19  C    4.555261  -0.059627   0.007190  -0.002973   0.367939   0.366525
    20  C   -0.059627   4.516036  -0.001642   0.003390   0.006612  -0.008617
    21  C    0.007190  -0.001642   4.533548  -0.058752   0.000042  -0.000324
    22  C   -0.002973   0.003390  -0.058752   4.511402  -0.000594   0.000242
    23  H    0.367939   0.006612   0.000042  -0.000594   0.634839  -0.025754
    24  H    0.366525  -0.008617  -0.000324   0.000242  -0.025754   0.674719
    25  H    0.364568  -0.001345  -0.000262   0.007244  -0.027612  -0.025190
    26  H    0.007821   0.363053   0.009565  -0.000187  -0.000508   0.000029
    27  H   -0.000101   0.369163  -0.000748  -0.000312   0.000044  -0.000369
    28  H   -0.008251   0.369523  -0.000100  -0.000286   0.000132   0.005236
    29  H   -0.000331   0.000250   0.367518  -0.008044  -0.000026   0.000017
    30  H   -0.000248   0.006532   0.365549  -0.001133  -0.000001   0.000006
    31  H    0.000136  -0.000792   0.374703   0.007242   0.000046  -0.000030
    32  H   -0.000091  -0.000298  -0.008045   0.369535  -0.000042  -0.000021
    33  H    0.010877  -0.000064   0.007512   0.364385   0.000992  -0.000087
    34  H   -0.000572  -0.000348  -0.000158   0.369464   0.000107   0.000006
    35  C   -0.000000   0.000000  -0.000000  -0.000000   0.000002  -0.000000
    36  H    0.000000   0.000000  -0.000000  -0.000000  -0.000000  -0.000000
    37  H    0.000000   0.000000   0.000000   0.000000   0.000000  -0.000000
    38  H    0.000000  -0.000000   0.000000   0.000000  -0.000000   0.000000
              25         26         27         28         29         30
     1  C   -0.000001  -0.000041   0.000004  -0.000063  -0.000228   0.000009
     2  C   -0.000002  -0.000002   0.000000   0.000001   0.000001   0.000001
     3  H    0.000000  -0.000000   0.000000   0.000000   0.000000   0.000000
     4  C    0.000000   0.000001  -0.000000  -0.000003  -0.000033  -0.000006
     5  H   -0.000000   0.000000   0.000000  -0.000000  -0.000001   0.000000
     6  H    0.000000  -0.000011  -0.000000   0.000000   0.000103   0.000004
     7  H   -0.000000   0.000064  -0.000000  -0.000001  -0.000010  -0.000005
     8  C   -0.000005   0.000001   0.000000  -0.000001  -0.000002  -0.000000
     9  O    0.000072   0.000001   0.000000  -0.000002  -0.000000   0.000000
    10  O    0.000000   0.000000   0.000000  -0.000000   0.000000   0.000000
    11  C    0.000000  -0.000000  -0.000000  -0.000000  -0.000000  -0.000000
    12  H    0.000000  -0.000000   0.000000  -0.000000   0.000000  -0.000000
    13  H   -0.000001  -0.000000  -0.000000   0.000000  -0.000000  -0.000000
    14  B   -0.001065   0.002258   0.000683  -0.001136  -0.001006  -0.001045
    15  O    0.004258   0.000841   0.003563   0.000132  -0.000209  -0.000096
    16  O   -0.000114  -0.000048   0.000020  -0.000138   0.002417   0.004295
    17  C   -0.010419   0.000074  -0.012326  -0.009624   0.007887  -0.006826
    18  C   -0.007633  -0.014603  -0.002074   0.007956  -0.011089  -0.009558
    19  C    0.364568   0.007821  -0.000101  -0.008251  -0.000331  -0.000248
    20  C   -0.001345   0.363053   0.369163   0.369523   0.000250   0.006532
    21  C   -0.000262   0.009565  -0.000748  -0.000100   0.367518   0.365549
    22  C    0.007244  -0.000187  -0.000312  -0.000286  -0.008044  -0.001133
    23  H   -0.027612  -0.000508   0.000044   0.000132  -0.000026  -0.000001
    24  H   -0.025190   0.000029  -0.000369   0.005236   0.000017   0.000006
    25  H    0.676864  -0.000021   0.001803  -0.000291   0.000005  -0.000023
    26  H   -0.000021   0.664520  -0.025896  -0.027799  -0.000066  -0.000394
    27  H    0.001803  -0.025896   0.659900  -0.025679   0.000002   0.000203
    28  H   -0.000291  -0.027799  -0.025679   0.669472  -0.000020   0.000166
    29  H    0.000005  -0.000066   0.000002  -0.000020   0.668463  -0.024073
    30  H   -0.000023  -0.000394   0.000203   0.000166  -0.024073   0.669980
    31  H   -0.000006   0.001183   0.000148  -0.000090  -0.027449  -0.028940
    32  H    0.000171  -0.000004  -0.000107   0.000023   0.005151  -0.000232
    33  H   -0.000628  -0.000022  -0.000080  -0.000004  -0.000000  -0.000031
    34  H    0.000069  -0.000065   0.001464  -0.000108  -0.000370   0.001684
    35  C    0.000000  -0.000000  -0.000000  -0.000000  -0.000000  -0.000000
    36  H   -0.000000   0.000000  -0.000000   0.000000  -0.000000   0.000000
    37  H   -0.000000  -0.000000  -0.000000   0.000000  -0.000000  -0.000000
    38  H    0.000000  -0.000000   0.000000  -0.000000   0.000000   0.000000
              31         32         33         34         35         36
     1  C   -0.000029  -0.000063  -0.000017   0.000004   0.000006   0.000002
     2  C   -0.000019   0.000003  -0.000007   0.000000  -0.000002  -0.000030
     3  H   -0.000001   0.000000   0.000000   0.000000  -0.000123   0.000051
     4  C    0.000329  -0.000002   0.000002  -0.000000  -0.000000  -0.000000
     5  H   -0.000003  -0.000000  -0.000000   0.000000   0.000000  -0.000000
     6  H    0.000305   0.000000  -0.000000  -0.000001  -0.000000  -0.000000
     7  H    0.000111   0.000000   0.000000   0.000000  -0.000000   0.000000
     8  C    0.000005  -0.000003   0.000019  -0.000001   0.002380   0.000259
     9  O    0.000003  -0.000001  -0.000029  -0.000002   0.001129  -0.000020
    10  O    0.000000  -0.000000  -0.000000  -0.000000  -0.033018   0.002689
    11  C   -0.000000  -0.000000  -0.000001   0.000000   0.452205  -0.019475
    12  H    0.000000   0.000000  -0.000002  -0.000000  -0.026230  -0.010382
    13  H   -0.000000   0.000000   0.000005   0.000000  -0.026297   0.008792
    14  B    0.007390  -0.001100   0.001974   0.000565  -0.000012   0.000001
    15  O    0.001992  -0.000141  -0.000019   0.000018   0.000000   0.000000
    16  O   -0.003407   0.000136   0.000613   0.003606   0.000000  -0.000000
    17  C   -0.008650   0.007893  -0.014045  -0.002351   0.000000   0.000000
    18  C   -0.005790  -0.010131   0.000199  -0.012655  -0.000000  -0.000000
    19  C    0.000136  -0.000091   0.010877  -0.000572  -0.000000   0.000000
    20  C   -0.000792  -0.000298  -0.000064  -0.000348   0.000000   0.000000
    21  C    0.374703  -0.008045   0.007512  -0.000158  -0.000000  -0.000000
    22  C    0.007242   0.369535   0.364385   0.369464  -0.000000  -0.000000
    23  H    0.000046  -0.000042   0.000992   0.000107   0.000002  -0.000000
    24  H   -0.000030  -0.000021  -0.000087   0.000006  -0.000000  -0.000000
    25  H   -0.000006   0.000171  -0.000628   0.000069   0.000000  -0.000000
    26  H    0.001183  -0.000004  -0.000022  -0.000065  -0.000000   0.000000
    27  H    0.000148  -0.000107  -0.000080   0.001464  -0.000000  -0.000000
    28  H   -0.000090   0.000023  -0.000004  -0.000108  -0.000000   0.000000
    29  H   -0.027449   0.005151  -0.000000  -0.000370  -0.000000  -0.000000
    30  H   -0.028940  -0.000232  -0.000031   0.001684  -0.000000   0.000000
    31  H    0.655531   0.000086  -0.000517   0.000016  -0.000000   0.000000
    32  H    0.000086   0.670273  -0.027446  -0.025857  -0.000000  -0.000000
    33  H   -0.000517  -0.027446   0.661030  -0.025796  -0.000000   0.000000
    34  H    0.000016  -0.025857  -0.025796   0.660785   0.000000   0.000000
    35  C   -0.000000  -0.000000  -0.000000   0.000000   4.514688   0.382337
    36  H    0.000000  -0.000000   0.000000   0.000000   0.382337   0.657145
    37  H   -0.000000   0.000000   0.000000   0.000000   0.373991  -0.023846
    38  H    0.000000  -0.000000  -0.000000  -0.000000   0.382453  -0.031896
              37         38
     1  C   -0.000000   0.000002
     2  C    0.000021  -0.000030
     3  H    0.000003   0.000050
     4  C    0.000000  -0.000000
     5  H   -0.000000  -0.000000
     6  H   -0.000000   0.000000
     7  H   -0.000000  -0.000000
     8  C   -0.000007   0.000257
     9  O    0.000037  -0.000020
    10  O    0.002896   0.002703
    11  C   -0.011436  -0.019590
    12  H   -0.001302   0.008800
    13  H   -0.001313  -0.010407
    14  B   -0.000000   0.000001
    15  O    0.000000  -0.000000
    16  O    0.000000   0.000000
    17  C    0.000000  -0.000000
    18  C    0.000000   0.000000
    19  C    0.000000   0.000000
    20  C    0.000000  -0.000000
    21  C    0.000000   0.000000
    22  C    0.000000   0.000000
    23  H    0.000000  -0.000000
    24  H   -0.000000   0.000000
    25  H   -0.000000   0.000000
    26  H   -0.000000  -0.000000
    27  H   -0.000000   0.000000
    28  H    0.000000  -0.000000
    29  H   -0.000000   0.000000
    30  H   -0.000000   0.000000
    31  H   -0.000000   0.000000
    32  H    0.000000  -0.000000
    33  H    0.000000  -0.000000
    34  H    0.000000  -0.000000
    35  C    0.373991   0.382453
    36  H   -0.023846  -0.031896
    37  H    0.650560  -0.023835
    38  H   -0.023835   0.657121
 Mulliken charges:
               1
     1  C   -0.079284
     2  C   -0.080014
     3  H   -0.014994
     4  C    0.006054
     5  H    0.025011
     6  H    0.049298
     7  H    0.049914
     8  C    0.264506
     9  O   -0.292101
    10  O   -0.272592
    11  C    0.106384
    12  H    0.033903
    13  H    0.033734
    14  B    0.165414
    15  O   -0.234257
    16  O   -0.233968
    17  C   -0.083368
    18  C   -0.078133
    19  C    0.057677
    20  C    0.071557
    21  C    0.066403
    22  C    0.072760
    23  H    0.035560
    24  H    0.015762
    25  H    0.019562
    26  H    0.020255
    27  H    0.030695
    28  H    0.020954
    29  H    0.021142
    30  H    0.024184
    31  H    0.026498
    32  H    0.020313
    33  H    0.021189
    34  H    0.030494
    35  C   -0.023507
    36  H    0.034373
    37  H    0.034232
    38  H    0.034390
 Sum of Mulliken charges =  -0.00000
 Mulliken charges with hydrogens summed into heavy atoms:
               1
     1  C   -0.079284
     2  C   -0.095009
     4  C    0.130277
     8  C    0.264506
     9  O   -0.292101
    10  O   -0.272592
    11  C    0.174021
    14  B    0.165414
    15  O   -0.234257
    16  O   -0.233968
    17  C   -0.083368
    18  C   -0.078133
    19  C    0.128561
    20  C    0.143462
    21  C    0.138228
    22  C    0.144756
    35  C    0.079488
 Electronic spatial extent (au):  <R**2>=           9504.5142
 Charge=             -0.0000 electrons
 Dipole moment (field-independent basis, Debye):
    X=             -0.6000    Y=             -0.2041    Z=              0.0894  Tot=              0.6401
 Quadrupole moment (field-independent basis, Debye-Ang):
   XX=            -86.5410   YY=            -87.6746   ZZ=           -105.3590
   XY=              5.5758   XZ=             -1.2069   YZ=             -0.0067
 Traceless Quadrupole moment (field-independent basis, Debye-Ang):
   XX=              6.6505   YY=              5.5170   ZZ=            -12.1675
   XY=              5.5758   XZ=             -1.2069   YZ=             -0.0067
 Octapole moment (field-independent basis, Debye-Ang**2):
  XXX=            699.3896  YYY=           -322.7693  ZZZ=            -55.3001  XYY=            279.1099
  XXY=           -164.3041  XXZ=             -9.6544  XZZ=            282.8517  YZZ=           -143.5798
  YYZ=            -13.8337  XYZ=              3.0906
 Hexadecapole moment (field-independent basis, Debye-Ang**3):
 XXXX=          -6784.7940 YYYY=          -3587.5450 ZZZZ=           -640.5165 XXXY=            363.1996
 XXXZ=            128.7829 YYYX=            290.7715 YYYZ=            -25.6700 ZZZX=            183.4577
 ZZZY=            -65.9230 XXYY=          -2048.2728 XXZZ=          -1388.5374 YYZZ=           -813.8151
 XXYZ=            -33.9803 YYXZ=             62.3814 ZZXY=            110.2007
 N-N= 1.291612295120D+03 E-N=-4.440300544281D+03  KE= 7.903970259322D+02

 Atomic contributions to Alpha molecular orbitals:
 Alpha occ 46 OE=-0.402 is C20-p=0.2238 C22-p=0.2126 H28-s=0.1511 H32-s=0.1452
 Alpha occ 47 OE=-0.397 is C22-p=0.1586 C20-p=0.1415 H34-s=0.1223 H27-s=0.1098
 Alpha occ 48 OE=-0.397 is C21-p=0.2253 C19-p=0.1943 H29-s=0.1480 H24-s=0.1088
 Alpha occ 49 OE=-0.394 is C35-p=0.3587 H37-s=0.2658
 Alpha occ 50 OE=-0.392 is C21-p=0.1312 C19-p=0.1157
 Alpha occ 51 OE=-0.378 is C4-p=0.2024 C35-p=0.1422 C11-p=0.1170
 Alpha occ 52 OE=-0.377 is C20-p=0.1829 C22-p=0.1705 H27-s=0.1012
 Alpha occ 53 OE=-0.367 is C19-p=0.1736 C21-p=0.1378 H24-s=0.1288 H29-s=0.1030
 Alpha occ 54 OE=-0.365 is C21-p=0.1160 C19-p=0.1069
 Alpha occ 55 OE=-0.361 is C35-p=0.2031 H36-s=0.1313 H38-s=0.1060 O9-p=0.1059 C11-p=0.1036
 Alpha occ 56 OE=-0.352 is O10-p=0.2636 C11-p=0.1372
 Alpha occ 57 OE=-0.348 is C19-p=0.1084 O15-p=0.1006
 Alpha occ 58 OE=-0.335 is O16-p=0.3020 O15-p=0.2937
 Alpha occ 59 OE=-0.334 is O15-p=0.2445 O16-p=0.2359 B14-p=0.1033
 Alpha occ 60 OE=-0.329 is C1-p=0.1947 B14-p=0.1467
 Alpha occ 61 OE=-0.310 is C18-p=0.1706 C17-p=0.1697
 Alpha occ 62 OE=-0.305 is O10-p=0.4463 O9-p=0.2649
 Alpha occ 63 OE=-0.280 is O9-p=0.6526
 Alpha occ 64 OE=-0.273 is O16-p=0.3164 O15-p=0.2660
 Alpha occ 65 OE=-0.269 is C2-p=0.4464 C1-p=0.2893 O9-p=0.1001
 Alpha vir 66 OE=-0.047 is C1-p=0.3574 C8-p=0.2010 C2-p=0.1427 O9-p=0.1156
 Alpha vir 67 OE=0.047 is B14-p=0.2154 H31-s=0.1192
 Alpha vir 68 OE=0.056 is B14-p=0.2767 H27-s=0.1166
 Alpha vir 69 OE=0.069 is H37-s=0.2205 H12-s=0.2168 H13-s=0.2160 H36-s=0.1715 H38-s=0.1707 C35-s=-0.1228
 Alpha vir 70 OE=0.077 is C8-p=0.3544 C2-p=0.2617 O9-p=0.1196
 Alpha vir 71 OE=0.080 is H7-s=0.1954 H6-s=0.1853 H3-s=0.1510
 Alpha vir 72 OE=0.088 is C17-p=0.0940
 Alpha vir 73 OE=0.096 is H29-s=0.2974 H24-s=0.2208 H32-s=0.1940 H28-s=0.1516
 Alpha vir 74 OE=0.100 is H3-s=0.3567 H26-s=0.1705 H31-s=0.1450 H5-s=0.1440
 Alpha vir 75 OE=0.104 is H33-s=0.1817 H23-s=0.1363 H38-s=0.1315 H36-s=0.1310 H28-s=0.1006
 Alpha vir 76 OE=0.112 is H6-s=0.1402 H24-s=0.1229 H26-s=0.1181
 Alpha vir 77 OE=0.115 is H12-s=0.1464 H38-s=0.1275 H30-s=0.1097
 Alpha vir 78 OE=0.117 is H36-s=0.2949 H13-s=0.2860 H12-s=0.1608 H38-s=0.1514
 Alpha vir 79 OE=0.120 is H6-s=0.1345 H7-s=0.1291 H30-s=0.1062
 Alpha vir 80 OE=0.127 is H37-s=0.3336 C11-p=0.1606
 Alpha vir 81 OE=0.136 is H7-s=0.2494 H25-s=0.1112
 Alpha vir 82 OE=0.138 is H6-s=0.1717 H30-s=0.1098 H33-s=0.1026 C17-p=0.1003
 Alpha vir 83 OE=0.140 is H32-s=0.1377 H6-s=0.1018
 Alpha vir 84 OE=0.144 is H37-s=0.3752 C11-p=0.3648
 Alpha vir 85 OE=0.153 is H31-s=0.1928 H26-s=0.1636 H23-s=0.1508
 
 No NMR shielding tensors so no spin-rotation constants.
 Leave Link  601 at Tue Aug 18 20:47:22 2026, MaxMem=  2684354560 cpu:               5.9 elap:               0.3
 (Enter /mnt/data/applications/G16/g16/l9999.exe)
 1\1\GINC-KIMIK2199\SP\RB3LYP\Gen\C12H21B1O4\ASOLE\18-Aug-2026\0\\#p b3
 lyp/gen EmpiricalDispersion=GD3BJ pseudo=read scrf=(solvent=acetonitri
 le,pcm,read) nosymm pop=(Orbitals=20)\\Title Card Required\\0,1\C,0,-1
 .01812,0.37875,0.0131\C,0,-0.2812,1.50594,0.02905\H,0,0.81018,1.50169,
 -0.03712\C,0,-0.38702,-0.98049,-0.10321\H,0,0.71029,-0.93275,-0.16581\
 H,0,-0.66798,-1.60789,0.76074\H,0,-0.77251,-1.50391,-0.99558\C,0,-0.95
 089,2.81339,0.13557\O,0,-2.16379,2.96832,0.21011\O,0,-0.07685,3.83391,
 0.14094\C,0,-0.64363,5.16426,0.24187\H,0,-1.3281,5.31961,-0.60651\H,0,
 -1.23701,5.22395,1.16743\B,0,-2.58891,0.42048,0.11713\O,0,-3.40014,0.3
 2186,-0.98412\O,0,-3.25688,0.31948,1.31029\C,0,-4.78248,0.42482,-0.508
 48\C,0,-4.65266,0.00126,1.00394\C,0,-5.20652,1.88178,-0.70064\C,0,-5.6
 4944,-0.49681,-1.35568\C,0,-4.80966,-1.50312,1.23072\C,0,-5.5439,0.780
 35,1.96158\H,0,-4.56559,2.56038,-0.12325\H,0,-5.10364,2.14102,-1.7652\
 H,0,-6.25648,2.03311,-0.41023\H,0,-5.26681,-1.52548,-1.36121\H,0,-6.68
 324,-0.50777,-0.97721\H,0,-5.67113,-0.13237,-2.39362\H,0,-4.51067,-1.7
 3995,2.26252\H,0,-5.85143,-1.82597,1.08918\H,0,-4.16779,-2.07915,0.548
 07\H,0,-5.38002,0.42697,2.99066\H,0,-5.3278,1.8558,1.9284\H,0,-6.60517
 ,0.62613,1.71284\C,0,0.5069,6.14666,0.23556\H,0,1.08944,6.0634,-0.6950
 5\H,0,0.11789,7.17373,0.31047\H,0,1.18076,5.96794,1.08777\\Version=AM6
 4L-G16RevA.03\HF=-795.9048404\RMSD=4.537e-09\Dipole=-0.2360621,-0.0803
 13,0.0351699\Quadrupole=4.9444954,4.1017371,-9.0462325,4.1454462,-0.89
 73346,-0.0049467\PG=C01 [X(C12H21B1O4)]\\@


 THE MORE ACCURATE THE CALCULATIONS BECOME, THE MORE THE CONCEPTS
 TEND TO VANISH INTO THIN AIR.
     -- R.S. MULLIKEN, J.C.P. 43,S2(1965)
 Job cpu time:       0 days  0 hours 34 minutes 53.9 seconds.
 Elapsed time:       0 days  0 hours  1 minutes 31.2 seconds.
 File lengths (MBytes):  RWF=    180 Int=      0 D2E=      0 Chk=      9 Scr=      1
 Normal termination of Gaussian 16 at Tue Aug 18 20:47:22 2026.
