%mem=20GB
%chk=alkene_eq.chk
#p b3lyp/gen EmpiricalDispersion=GD3BJ pseudo=read scrf=(solvent=acetonitrile,pcm,read) nosymm pop=(Orbitals=20)

Title Card Required

0 1
C        -1.018120        0.378750        0.013100
C        -0.281200        1.505940        0.029050
H         0.810180        1.501690       -0.037120
C        -0.387020       -0.980490       -0.103210
H         0.710290       -0.932750       -0.165810
H        -0.667980       -1.607890        0.760740
H        -0.772510       -1.503910       -0.995580
C        -0.950890        2.813390        0.135570
O        -2.163790        2.968320        0.210110
O        -0.076850        3.833910        0.140940
C        -0.643630        5.164260        0.241870
H        -1.328100        5.319610       -0.606510
H        -1.237010        5.223950        1.167430
B        -2.588910        0.420480        0.117130
O        -3.400140        0.321860       -0.984120
O        -3.256880        0.319480        1.310290
C        -4.782480        0.424820       -0.508480
C        -4.652660        0.001260        1.003940
C        -5.206520        1.881780       -0.700640
C        -5.649440       -0.496810       -1.355680
C        -4.809660       -1.503120        1.230720
C        -5.543900        0.780350        1.961580
H        -4.565590        2.560380       -0.123250
H        -5.103640        2.141020       -1.765200
H        -6.256480        2.033110       -0.410230
H        -5.266810       -1.525480       -1.361210
H        -6.683240       -0.507770       -0.977210
H        -5.671130       -0.132370       -2.393620
H        -4.510670       -1.739950        2.262520
H        -5.851430       -1.825970        1.089180
H        -4.167790       -2.079150        0.548070
H        -5.380020        0.426970        2.990660
H        -5.327800        1.855800        1.928400
H        -6.605170        0.626130        1.712840
C         0.506900        6.146660        0.235560
H         1.089440        6.063400       -0.695050
H         0.117890        7.173730        0.310470
H         1.180760        5.967940        1.087770

-C B O H 0
cc-pVDZ
****


NonEq=write




