 Entering Gaussian System, Link 0=g16
 Initial command:
 /mnt/data/applications/G16/g16/l1.exe "/scratch/Gau-8881.inp" -scrdir="/scratch/"
 Entering Link 1 = /mnt/data/applications/G16/g16/l1.exe PID=      8882.
  
 Copyright (c) 1988,1990,1992,1993,1995,1998,2003,2009,2016,
            Gaussian, Inc.  All Rights Reserved.
  
 This is part of the Gaussian(R) 16 program.  It is based on
 the Gaussian(R) 09 system (copyright 2009, Gaussian, Inc.),
 the Gaussian(R) 03 system (copyright 2003, Gaussian, Inc.),
 the Gaussian(R) 98 system (copyright 1998, Gaussian, Inc.),
 the Gaussian(R) 94 system (copyright 1995, Gaussian, Inc.),
 the Gaussian 92(TM) system (copyright 1992, Gaussian, Inc.),
 the Gaussian 90(TM) system (copyright 1990, Gaussian, Inc.),
 the Gaussian 88(TM) system (copyright 1988, Gaussian, Inc.),
 the Gaussian 86(TM) system (copyright 1986, Carnegie Mellon
 University), and the Gaussian 82(TM) system (copyright 1983,
 Carnegie Mellon University). Gaussian is a federally registered
 trademark of Gaussian, Inc.
  
 This software contains proprietary and confidential information,
 including trade secrets, belonging to Gaussian, Inc.
  
 This software is provided under written license and may be
 used, copied, transmitted, or stored only in accord with that
 written license.
  
 The following legend is applicable only to US Government
 contracts under FAR:
  
                    RESTRICTED RIGHTS LEGEND
  
 Use, reproduction and disclosure by the US Government is
 subject to restrictions as set forth in subparagraphs (a)
 and (c) of the Commercial Computer Software - Restricted
 Rights clause in FAR 52.227-19.
  
 Gaussian, Inc.
 340 Quinnipiac St., Bldg. 40, Wallingford CT 06492
  
  
 ---------------------------------------------------------------
 Warning -- This program may not be used in any manner that
 competes with the business of Gaussian, Inc. or will provide
 assistance to any competitor of Gaussian, Inc.  The licensee
 of this program is prohibited from giving any competitor of
 Gaussian, Inc. access to this program.  By using this program,
 the user acknowledges that Gaussian, Inc. is engaged in the
 business of creating and licensing software in the field of
 computational chemistry and represents and warrants to the
 licensee that it is not a competitor of Gaussian, Inc. and that
 it will not use this program in any manner prohibited above.
 ---------------------------------------------------------------
  

 Cite this work as:
 Gaussian 16, Revision A.03,
 M. J. Frisch, G. W. Trucks, H. B. Schlegel, G. E. Scuseria, 
 M. A. Robb, J. R. Cheeseman, G. Scalmani, V. Barone, 
 G. A. Petersson, H. Nakatsuji, X. Li, M. Caricato, A. V. Marenich, 
 J. Bloino, B. G. Janesko, R. Gomperts, B. Mennucci, H. P. Hratchian, 
 J. V. Ortiz, A. F. Izmaylov, J. L. Sonnenberg, D. Williams-Young, 
 F. Ding, F. Lipparini, F. Egidi, J. Goings, B. Peng, A. Petrone, 
 T. Henderson, D. Ranasinghe, V. G. Zakrzewski, J. Gao, N. Rega, 
 G. Zheng, W. Liang, M. Hada, M. Ehara, K. Toyota, R. Fukuda, 
 J. Hasegawa, M. Ishida, T. Nakajima, Y. Honda, O. Kitao, H. Nakai, 
 T. Vreven, K. Throssell, J. A. Montgomery, Jr., J. E. Peralta, 
 F. Ogliaro, M. J. Bearpark, J. J. Heyd, E. N. Brothers, K. N. Kudin, 
 V. N. Staroverov, T. A. Keith, R. Kobayashi, J. Normand, 
 K. Raghavachari, A. P. Rendell, J. C. Burant, S. S. Iyengar, 
 J. Tomasi, M. Cossi, J. M. Millam, M. Klene, C. Adamo, R. Cammi, 
 J. W. Ochterski, R. L. Martin, K. Morokuma, O. Farkas, 
 J. B. Foresman, and D. J. Fox, Gaussian, Inc., Wallingford CT, 2016.
 
 ******************************************
 Gaussian 16:  AM64L-G16RevA.03 25-Dec-2016
                18-Aug-2026 
 ******************************************
 %nprocshared=24
 Will use up to   24 processors via shared memory.
 %mem=20GB
 %chk=alkene_triplet_eq.chk
 ----------------------------------------------------------------------
 #p b3lyp/gen EmpiricalDispersion=GD3BJ pseudo=read scrf=(solvent=aceto
 nitrile,pcm,read) nosymm pop=(Orbitals=20) geom=checkpoint guess=read
 ----------------------------------------------------------------------
 1/29=2,38=1,40=2,172=1/1;
 2/12=2,15=1,40=1/2;
 3/5=7,11=2,14=-4,16=1,17=8,25=1,30=1,70=2203,72=2,74=-5,116=-2,124=41/1,2,3;
 4/5=1/1;
 5/5=2,38=6,53=2/2;
 6/7=2,8=2,9=2,10=2,28=1,96=20/1;
 99/5=1,9=1/99;
 Leave Link    1 at Tue Aug 18 20:49:21 2026, MaxMem=  2684354560 cpu:               1.9 elap:               0.1
 (Enter /mnt/data/applications/G16/g16/l101.exe)
 -------------------
 Title Card Required
 -------------------
 Structure from the checkpoint file:  "alkene_triplet_eq.chk"
 Charge =  0 Multiplicity = 1
 Z-Matrix found in chk file.
 C,0,-1.28308,0.59828,0.6766
 C,0,-0.61773,1.61222,-0.13327
 H,0,-0.11423,1.35848,-1.0727
 C,0,-0.48915,-0.09172,1.74772
 H,0,-0.13495,0.64533,2.49399
 H,0,-1.08769,-0.8544,2.26466
 H,0,0.4188,-0.56644,1.33247
 C,0,-0.63046,3.00635,0.27483
 O,0,-1.18242,3.43149,1.28586
 O,0,0.03867,3.79844,-0.59763
 C,0,0.06882,5.20733,-0.27625
 H,0,-0.96642,5.57679,-0.20151
 H,0,0.53984,5.33672,0.71136
 B,0,-2.78993,0.35096,0.49796
 O,0,-3.55517,0.9927,-0.45074
 O,0,-3.50966,-0.52309,1.28172
 C,0,-4.95371,0.69943,-0.13935
 C,0,-4.84149,-0.63512,0.6856
 C,0,-5.4712,1.87807,0.68776
 C,0,-5.72889,0.58295,-1.44413
 C,0,-4.82306,-1.88733,-0.19293
 C,0,-5.86198,-0.78358,1.80531
 H,0,-4.92275,1.97137,1.63666
 H,0,-5.32413,2.80574,0.11536
 H,0,-6.54318,1.7734,0.90995
 H,0,-5.27218,-0.14816,-2.12344
 H,0,-6.769,0.28013,-1.24821
 H,0,-5.74842,1.55895,-1.95175
 H,0,-4.53139,-2.75053,0.42324
 H,0,-5.81402,-2.08898,-0.62523
 H,0,-4.09635,-1.78916,-1.01278
 H,0,-5.70447,-1.73987,2.32621
 H,0,-5.77665,0.02628,2.54113
 H,0,-6.88431,-0.78227,1.397
 C,0,0.84473,5.90514,-1.37243
 H,0,0.35932,5.76007,-2.35009
 H,0,0.8921,6.98536,-1.16546
 H,0,1.87382,5.51799,-1.43245
 Recover connectivity data from disk.
 ITRead=  0  0  0  0  0  0  0  0  0  0  0  0  0  0  0  0  0  0  0  0
 ITRead=  0  0  0  0  0  0  0  0  0  0  0  0  0  0  0  0  0  0
 MicOpt= -1 -1 -1 -1 -1 -1 -1 -1 -1 -1 -1 -1 -1 -1 -1 -1 -1 -1 -1 -1
 MicOpt= -1 -1 -1 -1 -1 -1 -1 -1 -1 -1 -1 -1 -1 -1 -1 -1 -1 -1
 NAtoms=     38 NQM=       38 NQMF=       0 NMMI=      0 NMMIF=      0
                NMic=       0 NMicF=      0.
                    Isotopes and Nuclear Properties:
 (Nuclear quadrupole moments (NQMom) in fm**2, nuclear magnetic moments (NMagM)
  in nuclear magnetons)

  Atom         1           2           3           4           5           6           7           8           9          10
 IAtWgt=          12          12           1          12           1           1           1          12          16          16
 AtmWgt=  12.0000000  12.0000000   1.0078250  12.0000000   1.0078250   1.0078250   1.0078250  12.0000000  15.9949146  15.9949146
 NucSpn=           0           0           1           0           1           1           1           0           0           0
 AtZEff=   3.6000000   3.6000000   1.0000000   3.6000000   1.0000000   1.0000000   1.0000000   3.6000000   5.6000000   5.6000000
 NQMom=    0.0000000   0.0000000   0.0000000   0.0000000   0.0000000   0.0000000   0.0000000   0.0000000   0.0000000   0.0000000
 NMagM=    0.0000000   0.0000000   2.7928460   0.0000000   2.7928460   2.7928460   2.7928460   0.0000000   0.0000000   0.0000000
 AtZNuc=   6.0000000   6.0000000   1.0000000   6.0000000   1.0000000   1.0000000   1.0000000   6.0000000   8.0000000   8.0000000

  Atom        11          12          13          14          15          16          17          18          19          20
 IAtWgt=          12           1           1          11          16          16          12          12          12          12
 AtmWgt=  12.0000000   1.0078250   1.0078250  11.0093053  15.9949146  15.9949146  12.0000000  12.0000000  12.0000000  12.0000000
 NucSpn=           0           1           1           3           0           0           0           0           0           0
 AtZEff=   3.6000000   1.0000000   1.0000000   2.7500000   5.6000000   5.6000000   3.6000000   3.6000000   3.6000000   3.6000000
 NQMom=    0.0000000   0.0000000   0.0000000   4.0590000   0.0000000   0.0000000   0.0000000   0.0000000   0.0000000   0.0000000
 NMagM=    0.0000000   2.7928460   2.7928460   2.6886370   0.0000000   0.0000000   0.0000000   0.0000000   0.0000000   0.0000000
 AtZNuc=   6.0000000   1.0000000   1.0000000   5.0000000   8.0000000   8.0000000   6.0000000   6.0000000   6.0000000   6.0000000

  Atom        21          22          23          24          25          26          27          28          29          30
 IAtWgt=          12          12           1           1           1           1           1           1           1           1
 AtmWgt=  12.0000000  12.0000000   1.0078250   1.0078250   1.0078250   1.0078250   1.0078250   1.0078250   1.0078250   1.0078250
 NucSpn=           0           0           1           1           1           1           1           1           1           1
 AtZEff=   3.6000000   3.6000000   1.0000000   1.0000000   1.0000000   1.0000000   1.0000000   1.0000000   1.0000000   1.0000000
 NQMom=    0.0000000   0.0000000   0.0000000   0.0000000   0.0000000   0.0000000   0.0000000   0.0000000   0.0000000   0.0000000
 NMagM=    0.0000000   0.0000000   2.7928460   2.7928460   2.7928460   2.7928460   2.7928460   2.7928460   2.7928460   2.7928460
 AtZNuc=   6.0000000   6.0000000   1.0000000   1.0000000   1.0000000   1.0000000   1.0000000   1.0000000   1.0000000   1.0000000

  Atom        31          32          33          34          35          36          37          38
 IAtWgt=           1           1           1           1          12           1           1           1
 AtmWgt=   1.0078250   1.0078250   1.0078250   1.0078250  12.0000000   1.0078250   1.0078250   1.0078250
 NucSpn=           1           1           1           1           0           1           1           1
 AtZEff=   1.0000000   1.0000000   1.0000000   1.0000000   3.6000000   1.0000000   1.0000000   1.0000000
 NQMom=    0.0000000   0.0000000   0.0000000   0.0000000   0.0000000   0.0000000   0.0000000   0.0000000
 NMagM=    2.7928460   2.7928460   2.7928460   2.7928460   0.0000000   2.7928460   2.7928460   2.7928460
 AtZNuc=   1.0000000   1.0000000   1.0000000   1.0000000   6.0000000   1.0000000   1.0000000   1.0000000
 Leave Link  101 at Tue Aug 18 20:49:21 2026, MaxMem=  2684354560 cpu:               1.8 elap:               0.1
 (Enter /mnt/data/applications/G16/g16/l202.exe)
                          Input orientation:                          
 ---------------------------------------------------------------------
 Center     Atomic      Atomic             Coordinates (Angstroms)
 Number     Number       Type             X           Y           Z
 ---------------------------------------------------------------------
      1          6           0       -1.283080    0.598280    0.676600
      2          6           0       -0.617730    1.612220   -0.133270
      3          1           0       -0.114230    1.358480   -1.072700
      4          6           0       -0.489150   -0.091720    1.747720
      5          1           0       -0.134950    0.645330    2.493990
      6          1           0       -1.087690   -0.854400    2.264660
      7          1           0        0.418800   -0.566440    1.332470
      8          6           0       -0.630460    3.006350    0.274830
      9          8           0       -1.182420    3.431490    1.285860
     10          8           0        0.038670    3.798440   -0.597630
     11          6           0        0.068820    5.207330   -0.276250
     12          1           0       -0.966420    5.576790   -0.201510
     13          1           0        0.539840    5.336720    0.711360
     14          5           0       -2.789930    0.350960    0.497960
     15          8           0       -3.555170    0.992700   -0.450740
     16          8           0       -3.509660   -0.523090    1.281720
     17          6           0       -4.953710    0.699430   -0.139350
     18          6           0       -4.841490   -0.635120    0.685600
     19          6           0       -5.471200    1.878070    0.687760
     20          6           0       -5.728890    0.582950   -1.444130
     21          6           0       -4.823060   -1.887330   -0.192930
     22          6           0       -5.861980   -0.783580    1.805310
     23          1           0       -4.922750    1.971370    1.636660
     24          1           0       -5.324130    2.805740    0.115360
     25          1           0       -6.543180    1.773400    0.909950
     26          1           0       -5.272180   -0.148160   -2.123440
     27          1           0       -6.769000    0.280130   -1.248210
     28          1           0       -5.748420    1.558950   -1.951750
     29          1           0       -4.531390   -2.750530    0.423240
     30          1           0       -5.814020   -2.088980   -0.625230
     31          1           0       -4.096350   -1.789160   -1.012780
     32          1           0       -5.704470   -1.739870    2.326210
     33          1           0       -5.776650    0.026280    2.541130
     34          1           0       -6.884310   -0.782270    1.397000
     35          6           0        0.844730    5.905140   -1.372430
     36          1           0        0.359320    5.760070   -2.350090
     37          1           0        0.892100    6.985360   -1.165460
     38          1           0        1.873820    5.517990   -1.432450
 ---------------------------------------------------------------------
                    Distance matrix (angstroms):
                    1          2          3          4          5
     1  C    0.000000
     2  C    1.458305   0.000000
     3  H    2.236999   1.095639   0.000000
     4  C    1.501240   2.541273   3.193496   0.000000
     5  H    2.150191   2.840853   3.637347   1.107077   0.000000
     6  H    2.161109   3.472052   4.120975   1.098707   1.791507
     7  H    2.164055   2.823003   3.126385   1.105516   1.767528
     8  C    2.527080   1.452689   2.190389   3.433280   3.277898
     9  O    2.899726   2.375405   3.316807   3.620352   3.212391
    10  O    3.689405   2.329388   2.490477   4.573030   4.419317
    11  C    4.896825   3.662869   3.934652   5.699800   5.341123
    12  H    5.065265   3.980459   4.390824   6.013260   5.681229
    13  H    5.077111   3.990648   4.408749   5.621461   5.063818
    14  B    1.537425   2.589919   3.262122   2.655457   3.334623
    15  O    2.566877   3.018799   3.515778   3.925515   4.526589
    16  O    2.565404   3.863289   4.540104   3.086538   3.771402
    17  C    3.761586   4.431021   4.972530   4.911135   5.491617
    18  C    3.766117   4.853992   5.423380   4.512898   5.202052
    19  C    4.379308   4.929598   5.662713   5.461173   5.766947
    20  C    4.925744   5.376031   5.680124   6.172355   6.841407
    21  C    4.412006   5.471308   5.786394   5.076723   5.967603
    22  C    4.914250   6.082771   6.775544   5.417498   5.942637
    23  H    4.006780   4.668494   5.553209   4.891368   5.041471
    24  H    4.638745   4.861739   5.536163   5.868297   6.103511
    25  H    5.394813   6.018741   6.740509   6.389977   6.696800
    26  H    4.930549   5.359442   5.475260   6.153571   6.952799
    27  H    5.822494   6.391845   6.743857   6.967811   7.625487
    28  H    5.269760   5.443683   5.705875   6.638577   7.218750
    29  H    4.672284   5.887277   6.215553   5.016296   5.928622
    30  H    5.426375   6.398620   6.676288   6.162319   7.032625
    31  H    4.058123   4.944059   5.076269   4.849078   5.823819
    32  H    5.266578   6.569663   7.239002   5.500056   6.061096
    33  H    4.898554   6.023461   6.848177   5.347998   5.675758
    34  H    5.813663   6.880795   7.517727   6.441889   6.985362
    35  C    6.073620   4.701433   4.656346   6.890348   6.601104
    36  H    6.205031   4.803496   4.607599   7.194122   7.061868
    37  H    6.994239   5.675882   5.716912   7.776859   7.392049
    38  H    6.214311   4.811520   4.624207   6.867747   6.572283
                    6          7          8          9         10
     6  H    0.000000
     7  H    1.794829   0.000000
     8  C    4.367365   3.870966   0.000000
     9  O    4.397258   4.306916   1.227838   0.000000
    10  O    5.577662   4.787689   1.355112   2.274477   0.000000
    11  C    6.673703   6.003906   2.374236   2.675705   1.445394
    12  H    6.888897   6.481605   2.635703   2.619396   2.080780
    13  H    6.587227   5.936980   2.644009   2.631754   2.081089
    14  B    2.733449   3.440055   3.429897   3.562940   4.591995
    15  O    4.107753   4.626359   3.624247   3.820133   4.561736
    16  O    2.634744   3.929027   4.664822   4.588547   5.899002
    17  C    4.810381   5.712490   4.917714   4.870113   5.893873
    18  C    4.078300   5.300359   5.582276   5.503310   6.717075
    19  C    5.400756   6.409632   4.987614   4.600486   5.974840
    20  C    6.112433   6.842857   5.900990   6.019752   6.657378
    21  C    4.589083   5.616822   6.461021   6.612936   7.491874
    22  C    4.796860   6.302295   6.638881   6.319409   7.847719
    23  H    4.804898   5.921585   4.620554   4.030519   5.739854
    24  H    5.996961   6.770096   4.700661   4.349183   5.500312
    25  H    6.205074   7.356802   6.073204   5.623906   7.049421
    26  H    6.104437   6.671246   6.103130   6.415868   6.790352
    27  H    6.775301   7.683818   6.887206   6.896554   7.690652
    28  H    6.732368   7.303286   5.765947   5.902278   6.351328
    29  H    4.341107   5.486468   6.955641   7.083579   8.050878
    30  H    5.675724   6.708112   7.324056   7.455171   8.301594
    31  H    4.546144   5.232764   6.055349   6.405460   6.963621
    32  H    4.701330   6.313390   7.244332   6.947966   8.497375
    33  H    4.778952   6.340014   6.363977   5.854751   7.609136
    34  H    5.861641   7.306583   7.397537   7.090816   8.537512
    35  C    7.915431   7.027037   3.645907   4.158700   2.385002
    36  H    8.193959   7.320486   3.931010   4.584690   2.649891
    37  H    8.783344   7.968271   4.497237   4.789843   3.347721
    38  H    7.940184   6.839748   3.936313   4.591655   2.649821
                   11         12         13         14         15
    11  C    0.000000
    12  H    1.101730   0.000000
    13  H    1.101805   1.777578   0.000000
    14  B    5.688249   5.578866   5.999226   0.000000
    15  O    5.561192   5.270448   6.081948   1.377481   0.000000
    16  O    6.933289   6.773225   7.145707   1.377046   2.302414
    17  C    6.750238   6.300078   7.239286   2.282442   1.462493
    18  C    7.692238   7.375023   8.038796   2.283957   2.365520
    19  C    6.534915   5.896132   6.935086   3.091488   2.398173
    20  C    7.507481   7.011680   8.157294   3.530300   2.424825
    21  C    8.618099   8.401597   9.042419   3.101756   3.157306
    22  C    8.683218   8.273339   8.924018   3.526165   3.683246
    23  H    6.248714   5.659547   6.482411   2.910548   2.680543
    24  H    5.916494   5.173854   6.414610   3.548873   2.595535
    25  H    7.544368   6.841153   7.931321   4.034843   3.374785
    26  H    7.785863   7.416767   8.479362   3.644506   2.654734
    27  H    8.483972   7.925915   9.100998   4.345932   3.387096
    28  H    7.068116   6.486440   7.804224   4.026535   2.717355
    29  H    9.218392   9.079845   9.550079   3.557739   3.965932
    30  H    9.379005   9.079801   9.864027   4.044748   3.824866
    31  H    8.175695   8.044367   8.674392   2.927317   2.889206
    32  H    9.400386   9.075902   9.574825   4.025992   4.449481
    33  H    8.303639   7.840188   8.452625   3.633243   3.849705
    34  H    9.328510   8.832570   9.645214   4.342399   4.200933
    35  C    1.513468   2.181543   2.181339   6.896233   6.658881
    36  H    2.165808   2.531319   3.095850   6.876601   6.454346
    37  H    2.151714   2.523364   2.522807   7.767855   7.496733
    38  H    2.165949   3.096068   2.531459   7.223243   7.135540
                   16         17         18         19         20
    16  O    0.000000
    17  C    2.366279   0.000000
    18  C    1.463448   1.572946   0.000000
    19  C    3.156897   1.530065   2.590881   0.000000
    20  C    3.684910   1.522144   2.609008   2.507727   0.000000
    21  C    2.400159   2.590611   1.529766   3.920961   2.913471
    22  C    2.423925   2.608826   1.522232   2.913075   3.527602
    23  H    2.888795   2.184720   2.775772   1.099961   3.474023
    24  H    3.966586   2.153748   3.521027   1.099929   2.745293
    25  H    3.822868   2.186517   2.957541   1.099757   2.760785
    26  H    3.852553   2.180928   2.883285   3.471032   1.097528
    27  H    4.203452   2.168101   2.879687   2.825894   1.100869
    28  H    4.449974   2.157576   3.548532   2.673145   1.100289
    29  H    2.596615   3.520950   2.154055   4.730449   4.004144
    30  H    3.376173   2.958284   2.185818   4.192726   2.795900
    31  H    2.685492   2.773270   2.184385   4.269734   2.911727
    32  H    2.718217   3.548635   2.157964   3.978495   4.428493
    33  H    2.650880   2.883632   2.180588   2.637690   4.024234
    34  H    3.386551   2.878024   2.168146   3.094723   3.357207
    35  C    8.205325   7.889348   8.907502   7.768697   8.458329
    36  H    8.224181   7.663272   8.784207   7.635013   8.042987
    37  H    9.041073   8.645190   9.714535   8.367223   9.214446
    38  H    8.534824   8.456110   9.351058   8.467209   9.063992
                   21         22         23         24         25
    21  C    0.000000
    22  C    2.508103   0.000000
    23  H    4.271639   2.915535   0.000000
    24  H    4.729801   4.003552   1.780908   0.000000
    25  H    4.192386   2.793537   1.786923   1.784147   0.000000
    26  H    2.636909   4.023270   4.330457   3.706811   3.809106
    27  H    3.098093   3.358295   3.819870   3.213359   2.634104
    28  H    3.978264   4.428978   3.705200   2.451010   2.977744
    29  H    1.099932   2.747632   4.891001   5.620975   4.974950
    30  H    1.099794   2.759329   4.732542   4.974611   4.219767
    31  H    1.099954   3.474230   4.673762   4.888072   4.730296
    32  H    2.672956   1.100289   3.854850   5.069032   3.879728
    33  H    3.470781   1.097536   2.308806   3.716791   2.510128
    34  H    2.828036   1.100853   3.389349   4.117108   2.623935
    35  C    9.707608   9.990844   7.602170   7.062197   8.767083
    36  H    9.486471   9.939380   7.625529   6.863535   8.611963
    37  H   10.598750  10.714453   8.173399   7.599424   9.314249
    38  H   10.060983  10.489780   8.257803   7.846177   9.505508
                   26         27         28         29         30
    26  H    0.000000
    27  H    1.786038   0.000000
    28  H    1.780592   1.780992   0.000000
    29  H    3.715734   4.121352   5.068862   0.000000
    30  H    2.510977   2.629215   3.882184   1.783838   0.000000
    31  H    2.304132   3.388281   3.849784   1.782034   1.786191
    32  H    4.745503   4.241474   5.402322   2.453333   2.974034
    33  H    4.695011   3.925340   4.747193   3.707668   3.808091
    34  H    3.923590   2.852915   4.240953   3.218461   2.634848
    35  C    8.638463   9.467051   7.917993  10.346387  10.430878
    36  H    8.165313   9.058522   7.423784  10.200035  10.133748
    37  H    9.476454  10.181327   8.611660  11.257254  11.296351
    38  H    9.145930  10.107792   8.604778  10.622557  10.845298
                   31         32         33         34         35
    31  H    0.000000
    32  H    3.706391   0.000000
    33  H    4.330070   1.780642   0.000000
    34  H    3.820156   1.781138   1.785972   0.000000
    35  C    9.151277  10.724651   9.680889  10.589110   0.000000
    36  H    8.867484  10.718509   9.718565  10.455289   1.101130
    37  H   10.094560  11.481992  10.326656  11.286046   1.100889
    38  H    9.445290  11.146055  10.221444  11.153650   1.101142
                   36         37         38
    36  H    0.000000
    37  H    1.785648   0.000000
    38  H    1.787282   1.785562   0.000000
 Symmetry turned off by external request.
 Stoichiometry    C12H21BO4
 Framework group  C1[X(C12H21BO4)]
 Deg. of freedom   108
 Full point group                 C1      NOp   1
 Rotational constants (GHZ):           0.8703360           0.2234991           0.2008030
 Leave Link  202 at Tue Aug 18 20:49:21 2026, MaxMem=  2684354560 cpu:               0.2 elap:               0.0
 (Enter /mnt/data/applications/G16/g16/l301.exe)
 General basis read from cards:  (5D, 7F)
 Centers:       1      2      4      8     11     17     18     19     20     21
 Centers:      22     35     14      9     10     15     16      3      5      6
 Centers:       7     12     13     23     24     25     26     27     28     29
 Centers:      30     31     32     33     34     36     37     38
 cc-pVDZ
 ****
 ======================================================================================================
                                       Pseudopotential Parameters
 ======================================================================================================
  Center     Atomic      Valence      Angular      Power
  Number     Number     Electrons     Momentum     of R      Exponent        Coefficient   SO-Coeffient
 ======================================================================================================
    1          6
                                   No pseudopotential on this center.
    2          6
                                   No pseudopotential on this center.
    3          1
                                   No pseudopotential on this center.
    4          6
                                   No pseudopotential on this center.
    5          1
                                   No pseudopotential on this center.
    6          1
                                   No pseudopotential on this center.
    7          1
                                   No pseudopotential on this center.
    8          6
                                   No pseudopotential on this center.
    9          8
                                   No pseudopotential on this center.
   10          8
                                   No pseudopotential on this center.
   11          6
                                   No pseudopotential on this center.
   12          1
                                   No pseudopotential on this center.
   13          1
                                   No pseudopotential on this center.
   14          5
                                   No pseudopotential on this center.
   15          8
                                   No pseudopotential on this center.
   16          8
                                   No pseudopotential on this center.
   17          6
                                   No pseudopotential on this center.
   18          6
                                   No pseudopotential on this center.
   19          6
                                   No pseudopotential on this center.
   20          6
                                   No pseudopotential on this center.
   21          6
                                   No pseudopotential on this center.
   22          6
                                   No pseudopotential on this center.
   23          1
                                   No pseudopotential on this center.
   24          1
                                   No pseudopotential on this center.
   25          1
                                   No pseudopotential on this center.
   26          1
                                   No pseudopotential on this center.
   27          1
                                   No pseudopotential on this center.
   28          1
                                   No pseudopotential on this center.
   29          1
                                   No pseudopotential on this center.
   30          1
                                   No pseudopotential on this center.
   31          1
                                   No pseudopotential on this center.
   32          1
                                   No pseudopotential on this center.
   33          1
                                   No pseudopotential on this center.
   34          1
                                   No pseudopotential on this center.
   35          6
                                   No pseudopotential on this center.
   36          1
                                   No pseudopotential on this center.
   37          1
                                   No pseudopotential on this center.
   38          1
                                   No pseudopotential on this center.
 ======================================================================================================
 Ernie: Thresh=  0.10000D-02 Tol=  0.10000D-05 Strict=F.
 Ernie:  34 primitive shells out of 479 were deleted.
   343 basis functions,   708 primitive gaussians,   360 cartesian basis functions
    65 alpha electrons       65 beta electrons
       nuclear repulsion energy      1259.6752861424 Hartrees.
 IExCor=  402 DFT=T Ex+Corr=B3LYP ExCW=0 ScaHFX=  0.200000
 ScaDFX=  0.800000  0.720000  1.000000  0.810000 ScalE2=  1.000000  1.000000
 IRadAn=      5 IRanWt=     -1 IRanGd=            0 ICorTp=0 IEmpDi=141
 NAtoms=   38 NActive=   38 NUniq=   38 SFac= 1.00D+00 NAtFMM=   60 NAOKFM=F Big=F
 Integral buffers will be    131072 words long.
 Raffenetti 2 integral format.
 Two-electron integral symmetry is turned off.
 R6Disp:  Grimme-D3(BJ) Dispersion energy=       -0.0651038580 Hartrees.
 Nuclear repulsion after empirical dispersion term =     1259.6101822843 Hartrees.
 Using the following non-standard input for PCM:
 NonEq=read
 --- end of non-standard input.
 ------------------------------------------------------------------------------
 Polarizable Continuum Model (PCM)
 =================================
 Model                : PCM.
 Atomic radii         : UFF (Universal Force Field).
 Polarization charges : Total charges.
 Charge compensation  : None.
 Solution method      : On-the-fly selection.
 Cavity type          : Scaled VdW (van der Waals Surface) (Alpha=1.100).
 Cavity algorithm     : GePol (No added spheres)
                        Default sphere list used, NSphG=   38.
                        Lebedev-Laikov grids with approx.  5.0 points / Ang**2.
                        Smoothing algorithm: York/Karplus (Gamma=1.0000).
                        Polarization charges: spherical gaussians, with
                                              point-specific exponents (IZeta= 3).
                        Self-potential: point-specific (ISelfS= 7).
                        Self-field    : sphere-specific E.n sum rule (ISelfD= 2).
 Solvent              : Acetonitrile, Eps=  35.688000 Eps(inf)=   1.806874
 ------------------------------------------------------------------------------
 GePol: Number of generator spheres                  =      38
 GePol: Total number of spheres                      =      38
 GePol: Number of exposed spheres                    =      38 (100.00%)
 GePol: Number of points                             =    2656
 GePol: Average weight of points                     =       0.13
 GePol: Minimum weight of points                     =   0.12D-10
 GePol: Maximum weight of points                     =    0.20577
 GePol: Number of points with low weight             =     160
 GePol: Fraction of low-weight points (<1% of avg)   =       6.02%
 GePol: Cavity surface area                          =    355.595 Ang**2
 GePol: Cavity volume                                =    374.354 Ang**3
 Leave Link  301 at Tue Aug 18 20:49:21 2026, MaxMem=  2684354560 cpu:               2.4 elap:               0.1
 (Enter /mnt/data/applications/G16/g16/l302.exe)
 NPDir=0 NMtPBC=     1 NCelOv=     1 NCel=       1 NClECP=     1 NCelD=      1
         NCelK=      1 NCelE2=     1 NClLst=     1 CellRange=     0.0.
 One-electron integrals computed using PRISM.
   1 Symmetry operations used in ECPInt.
 ECPInt:  NShTT=   13695 NPrTT=  100063 LenC2=   12378 LenP2D=   51044.
 LDataN:  DoStor=T MaxTD1= 4 Len=   56
 NBasis=   343 RedAO= T EigKep=  1.68D-03  NBF=   343
 NBsUse=   343 1.00D-06 EigRej= -1.00D+00 NBFU=   343
 Precomputing XC quadrature grid using
 IXCGrd= 4 IRadAn=           5 IRanWt=          -1 IRanGd=           0 AccXCQ= 0.00D+00.
 Generated NRdTot=       0 NPtTot=           0 NUsed=           0 NTot=          32
 NSgBfM=   358   358   358   358   358 MxSgAt=    38 MxSgA2=    38.
 Leave Link  302 at Tue Aug 18 20:49:22 2026, MaxMem=  2684354560 cpu:              15.3 elap:               0.7
 (Enter /mnt/data/applications/G16/g16/l303.exe)
 DipDrv:  MaxL=1.
 Leave Link  303 at Tue Aug 18 20:49:22 2026, MaxMem=  2684354560 cpu:               1.6 elap:               0.1
 (Enter /mnt/data/applications/G16/g16/l401.exe)
 Initial guess from the checkpoint file:  "alkene_triplet_eq.chk"
 B after Tr=     0.000000    0.000000    0.000000
         Rot=    1.000000    0.000000    0.000000    0.000000 Ang=   0.00 deg.
 Guess basis will be translated and rotated to current coordinates.
 JPrj=2 DoOrth=T DoCkMO=T.
 Initial guess <Sx>= 0.0000 <Sy>= 0.0000 <Sz>= 0.0000 <S**2>= 0.0530 S= 0.0504
 Leave Link  401 at Tue Aug 18 20:49:23 2026, MaxMem=  2684354560 cpu:              19.5 elap:               0.8
 (Enter /mnt/data/applications/G16/g16/l502.exe)
 Two-electron integral symmetry not used.
 UHF open shell SCF:
 Using DIIS extrapolation, IDIIS=  1040.
 NGot=  2684354560 LenX=  2684083570 LenY=  2683953529
 Requested convergence on RMS density matrix=1.00D-08 within 128 cycles.
 Requested convergence on MAX density matrix=1.00D-06.
 Requested convergence on             energy=1.00D-06.
 No special actions if energy rises.
 Fock matrices will be formed incrementally for  20 cycles.

 Cycle   1  Pass 1  IDiag  1:
 FoFJK:  IHMeth= 1 ICntrl=       0 DoSepK=F KAlg= 0 I1Cent=           0 FoldK=F
 IRaf= 830000000 NMat=       1 IRICut=       1 DoRegI=T DoRafI=F ISym2E= 0 IDoP0=0 IntGTp=1.
 FoFCou: FMM=F IPFlag=           0 FMFlag=      100000 FMFlg1=           0
         NFxFlg=           0 DoJE=F BraDBF=F KetDBF=F FulRan=T
         wScrn=  0.000000 ICntrl=         0 IOpCl=  1 I1Cent=           0 NGrid=           0
         NMat0=    1 NMatS0=      1 NMatT0=    0 NMatD0=    1 NMtDS0=    0 NMtDT0=    0
 Symmetry not used in FoFCou.
 Inv3:  Mode=1 IEnd=    21163008.
 Iteration    1 A*A^-1 deviation from unit magnitude is 2.44D-15 for    732.
 Iteration    1 A*A^-1 deviation from orthogonality  is 1.97D-15 for   2112    448.
 Iteration    1 A^-1*A deviation from unit magnitude is 2.22D-15 for    732.
 Iteration    1 A^-1*A deviation from orthogonality  is 1.43D-15 for   2439    254.
 NEqPCM:  Using non-equilibrium solvation (IEInf=1, Eps=  35.6880, EpsInf=   1.8069)
 Inv3:  Mode=1 IEnd=    21163008.
 Iteration    1 A*A^-1 deviation from unit magnitude is 2.66D-15 for   1904.
 Iteration    1 A*A^-1 deviation from orthogonality  is 1.77D-15 for   2426    831.
 Iteration    1 A^-1*A deviation from unit magnitude is 2.66D-15 for    316.
 Iteration    1 A^-1*A deviation from orthogonality  is 1.98D-15 for   2105    485.
 E= -795.703698532448    
 DIIS: error= 9.37D-03 at cycle   1 NSaved=   1.
 NSaved= 1 IEnMin= 1 EnMin= -795.703698532448     IErMin= 1 ErrMin= 9.37D-03
 ErrMax= 9.37D-03  0.00D+00 EMaxC= 1.00D-01 BMatC= 1.78D-01 BMatP= 1.78D-01
 IDIUse=3 WtCom= 9.06D-01 WtEn= 9.37D-02
 Coeff-Com:  0.100D+01
 Coeff-En:   0.100D+01
 Coeff:      0.100D+01
 Gap=    -0.101 Goal=   None    Shift=    0.000
 Gap=    -0.110 Goal=   None    Shift=    0.000
 GapD=   -0.110 DampG=0.250 DampE=1.000 DampFc=0.2500 IDamp=-1.
 Damping current iteration by 2.50D-01
 RMSDP=3.35D-03 MaxDP=2.48D-01              OVMax= 8.72D-01

 Cycle   2  Pass 1  IDiag  1:
 RMSU=  8.35D-04    CP:  9.96D-01
 E= -795.738722671940     Delta-E=       -0.035024139492 Rises=F Damp=T
 DIIS: error= 2.50D-03 at cycle   2 NSaved=   2.
 NSaved= 2 IEnMin= 2 EnMin= -795.738722671940     IErMin= 2 ErrMin= 2.50D-03
 ErrMax= 2.50D-03  0.00D+00 EMaxC= 1.00D-01 BMatC= 6.96D-03 BMatP= 1.78D-01
 IDIUse=3 WtCom= 9.75D-01 WtEn= 2.50D-02
 Coeff-Com:  0.444D-01 0.956D+00
 Coeff-En:   0.161D+00 0.839D+00
 Coeff:      0.473D-01 0.953D+00
 Gap=     0.079 Goal=   None    Shift=    0.000
 Gap=     0.092 Goal=   None    Shift=    0.000
 RMSDP=1.51D-03 MaxDP=6.63D-02 DE=-3.50D-02 OVMax= 6.14D-01

 Cycle   3  Pass 1  IDiag  1:
 RMSU=  1.32D-03    CP:  9.93D-01  1.88D+00
 E= -795.761798434745     Delta-E=       -0.023075762806 Rises=F Damp=F
 DIIS: error= 5.71D-03 at cycle   3 NSaved=   3.
 NSaved= 3 IEnMin= 3 EnMin= -795.761798434745     IErMin= 2 ErrMin= 2.50D-03
 ErrMax= 5.71D-03  0.00D+00 EMaxC= 1.00D-01 BMatC= 8.22D-02 BMatP= 6.96D-03
 IDIUse=3 WtCom= 1.17D-01 WtEn= 8.83D-01
 Coeff-Com:  0.208D+00 0.499D+00 0.293D+00
 Coeff-En:   0.288D+00 0.000D+00 0.712D+00
 Coeff:      0.278D+00 0.583D-01 0.663D+00
 Gap=     0.040 Goal=   None    Shift=    0.000
 Gap=     0.035 Goal=   None    Shift=    0.000
 RMSDP=1.11D-03 MaxDP=7.21D-02 DE=-2.31D-02 OVMax= 3.44D-01

 Cycle   4  Pass 1  IDiag  1:
 RMSU=  2.78D-04    CP:  9.98D-01  6.70D-01  7.43D-01
 E= -795.768972093250     Delta-E=       -0.007173658505 Rises=F Damp=F
 DIIS: error= 4.94D-03 at cycle   4 NSaved=   4.
 NSaved= 4 IEnMin= 4 EnMin= -795.768972093250     IErMin= 2 ErrMin= 2.50D-03
 ErrMax= 4.94D-03  0.00D+00 EMaxC= 1.00D-01 BMatC= 5.56D-02 BMatP= 6.96D-03
 IDIUse=3 WtCom= 1.25D-01 WtEn= 8.75D-01
 Coeff-Com: -0.104D+00 0.731D-01 0.384D+00 0.647D+00
 Coeff-En:   0.000D+00 0.000D+00 0.449D+00 0.551D+00
 Coeff:     -0.129D-01 0.911D-02 0.441D+00 0.563D+00
 Gap=     0.049 Goal=   None    Shift=    0.000
 Gap=     0.045 Goal=   None    Shift=    0.000
 RMSDP=6.07D-04 MaxDP=4.37D-02 DE=-7.17D-03 OVMax= 2.29D-01

 Cycle   5  Pass 1  IDiag  1:
 RMSU=  1.73D-04    CP:  9.95D-01  1.27D+00  9.59D-01  7.55D-01
 E= -795.788623335884     Delta-E=       -0.019651242633 Rises=F Damp=F
 DIIS: error= 1.02D-03 at cycle   5 NSaved=   5.
 NSaved= 5 IEnMin= 5 EnMin= -795.788623335884     IErMin= 5 ErrMin= 1.02D-03
 ErrMax= 1.02D-03  0.00D+00 EMaxC= 1.00D-01 BMatC= 1.48D-03 BMatP= 6.96D-03
 IDIUse=3 WtCom= 9.90D-01 WtEn= 1.02D-02
 Coeff-Com: -0.444D-01-0.212D-01 0.152D+00 0.328D+00 0.585D+00
 Coeff-En:   0.000D+00 0.000D+00 0.000D+00 0.000D+00 0.100D+01
 Coeff:     -0.439D-01-0.210D-01 0.151D+00 0.325D+00 0.589D+00
 Gap=     0.057 Goal=   None    Shift=    0.000
 Gap=     0.054 Goal=   None    Shift=    0.000
 RMSDP=1.79D-04 MaxDP=1.33D-02 DE=-1.97D-02 OVMax= 6.18D-02

 Cycle   6  Pass 1  IDiag  1:
 RMSU=  1.28D-04    CP:  9.95D-01  1.26D+00  9.44D-01  9.11D-01  1.66D+00
 E= -795.790448083426     Delta-E=       -0.001824747542 Rises=F Damp=F
 DIIS: error= 6.94D-04 at cycle   6 NSaved=   6.
 NSaved= 6 IEnMin= 6 EnMin= -795.790448083426     IErMin= 6 ErrMin= 6.94D-04
 ErrMax= 6.94D-04  0.00D+00 EMaxC= 1.00D-01 BMatC= 6.79D-04 BMatP= 1.48D-03
 IDIUse=3 WtCom= 9.93D-01 WtEn= 6.94D-03
 Coeff-Com: -0.206D-01-0.998D-02 0.884D-01 0.203D+00 0.451D+00 0.288D+00
 Coeff-En:   0.000D+00 0.000D+00 0.000D+00 0.000D+00 0.000D+00 0.100D+01
 Coeff:     -0.205D-01-0.991D-02 0.878D-01 0.202D+00 0.448D+00 0.293D+00
 Gap=     0.058 Goal=   None    Shift=    0.000
 Gap=     0.054 Goal=   None    Shift=    0.000
 RMSDP=1.38D-04 MaxDP=1.00D-02 DE=-1.82D-03 OVMax= 4.96D-02

 Cycle   7  Pass 1  IDiag  1:
 RMSU=  3.61D-05    CP:  9.95D-01  1.28D+00  9.28D-01  9.48D-01  2.28D+00
                    CP:  1.56D+00
 E= -795.792130690163     Delta-E=       -0.001682606737 Rises=F Damp=F
 DIIS: error= 9.51D-04 at cycle   7 NSaved=   7.
 NSaved= 7 IEnMin= 7 EnMin= -795.792130690163     IErMin= 6 ErrMin= 6.94D-04
 ErrMax= 9.51D-04  0.00D+00 EMaxC= 1.00D-01 BMatC= 9.91D-04 BMatP= 6.79D-04
 IDIUse=3 WtCom= 9.93D-01 WtEn= 6.94D-03
 Coeff-Com: -0.249D-01-0.415D-01 0.729D-01 0.175D+00 0.732D+00 0.127D+01
 Coeff-Com: -0.119D+01
 Coeff-En:   0.000D+00 0.000D+00 0.000D+00 0.000D+00 0.000D+00 0.000D+00
 Coeff-En:   0.100D+01
 Coeff:     -0.248D-01-0.412D-01 0.724D-01 0.174D+00 0.727D+00 0.126D+01
 Coeff:     -0.117D+01
 Gap=     0.055 Goal=   None    Shift=    0.000
 Gap=     0.054 Goal=   None    Shift=    0.000
 RMSDP=3.58D-04 MaxDP=2.43D-02 DE=-1.68D-03 OVMax= 1.16D-01

 Cycle   8  Pass 1  IDiag  1:
 RMSU=  4.00D-05    CP:  9.95D-01  1.26D+00  9.66D-01  8.17D-01  7.57D-01
                    CP: -1.36D-01 -1.13D+00
 E= -795.788602983666     Delta-E=        0.003527706497 Rises=F Damp=F
 DIIS: error= 4.28D-04 at cycle   8 NSaved=   8.
 NSaved= 8 IEnMin= 7 EnMin= -795.792130690163     IErMin= 8 ErrMin= 4.28D-04
 ErrMax= 4.28D-04  0.00D+00 EMaxC= 1.00D-01 BMatC= 3.78D-04 BMatP= 6.79D-04
 IDIUse=3 WtCom= 9.96D-01 WtEn= 4.28D-03
 Rare condition: small coef for last iteration:  0.000D+00
 Coeff-Com:  0.430D-02-0.304D-01-0.206D-01-0.117D-01 0.452D+00 0.143D+01
 Coeff-Com: -0.160D+01 0.778D+00
 Coeff-En:   0.000D+00 0.000D+00 0.000D+00 0.000D+00 0.661D+00 0.000D+00
 Coeff-En:   0.000D+00 0.339D+00
 Coeff:      0.430D-02-0.304D-01-0.206D-01-0.117D-01 0.452D+00 0.143D+01
 Coeff:     -0.160D+01 0.778D+00
 Gap=     0.056 Goal=   None    Shift=    0.000
 Gap=     0.056 Goal=   None    Shift=    0.000
 RMSDP=2.29D-04 MaxDP=1.66D-02 DE= 3.53D-03 OVMax= 7.80D-02

 Cycle   9  Pass 1  IDiag  1:
 RMSU=  3.28D-05    CP:  9.95D-01  1.27D+00  9.66D-01  7.08D-01 -1.75D-01
                    CP: -1.24D+00 -2.86D+00  1.61D+00
 E= -795.788098861050     Delta-E=        0.000504122616 Rises=F Damp=F
 DIIS: error= 2.94D-04 at cycle   9 NSaved=   9.
 NSaved= 9 IEnMin= 7 EnMin= -795.792130690163     IErMin= 9 ErrMin= 2.94D-04
 ErrMax= 2.94D-04  0.00D+00 EMaxC= 1.00D-01 BMatC= 1.66D-04 BMatP= 3.78D-04
 IDIUse=3 WtCom= 9.97D-01 WtEn= 2.94D-03
 Rare condition: small coef for last iteration:  0.000D+00
 Coeff-Com:  0.427D-02-0.111D-01-0.239D-01 0.195D-02 0.154D+00 0.562D+00
 Coeff-Com: -0.588D+00 0.324D+00 0.578D+00
 Coeff-En:   0.000D+00 0.000D+00 0.000D+00 0.000D+00 0.000D+00 0.000D+00
 Coeff-En:   0.000D+00 0.000D+00 0.100D+01
 Coeff:      0.427D-02-0.111D-01-0.239D-01 0.195D-02 0.154D+00 0.562D+00
 Coeff:     -0.588D+00 0.324D+00 0.578D+00
 Gap=     0.055 Goal=   None    Shift=    0.000
 Gap=     0.055 Goal=   None    Shift=    0.000
 RMSDP=2.74D-05 MaxDP=2.16D-03 DE= 5.04D-04 OVMax= 1.19D-02

 Cycle  10  Pass 1  IDiag  1:
 RMSU=  8.78D-06    CP:  9.95D-01  1.25D+00  9.63D-01  7.29D-01 -9.71D-02
                    CP: -1.14D+00 -2.73D+00  1.53D+00  8.82D-01
 E= -795.788135307781     Delta-E=       -0.000036446731 Rises=F Damp=F
 DIIS: error= 1.29D-04 at cycle  10 NSaved=  10.
 NSaved=10 IEnMin= 7 EnMin= -795.792130690163     IErMin=10 ErrMin= 1.29D-04
 ErrMax= 1.29D-04  0.00D+00 EMaxC= 1.00D-01 BMatC= 2.36D-05 BMatP= 1.66D-04
 IDIUse=3 WtCom= 9.99D-01 WtEn= 1.29D-03
 Coeff-Com: -0.165D-02 0.391D-02-0.843D-02 0.197D-01-0.681D-01-0.158D+00
 Coeff-Com:  0.227D+00-0.103D+00 0.281D+00 0.807D+00
 Coeff-En:   0.000D+00 0.000D+00 0.000D+00 0.000D+00 0.000D+00 0.000D+00
 Coeff-En:   0.000D+00 0.000D+00 0.000D+00 0.100D+01
 Coeff:     -0.164D-02 0.391D-02-0.842D-02 0.197D-01-0.680D-01-0.158D+00
 Coeff:      0.227D+00-0.103D+00 0.281D+00 0.808D+00
 Gap=     0.054 Goal=   None    Shift=    0.000
 Gap=     0.054 Goal=   None    Shift=    0.000
 RMSDP=2.65D-05 MaxDP=2.07D-03 DE=-3.64D-05 OVMax= 1.15D-02

 Cycle  11  Pass 1  IDiag  1:
 RMSU=  5.65D-06    CP:  9.95D-01  1.23D+00  9.61D-01  7.55D-01 -1.42D-02
                    CP: -1.03D+00 -2.60D+00  1.45D+00  8.49D-01  1.33D+00
 E= -795.788141035650     Delta-E=       -0.000005727868 Rises=F Damp=F
 DIIS: error= 6.04D-05 at cycle  11 NSaved=  11.
 NSaved=11 IEnMin= 7 EnMin= -795.792130690163     IErMin=11 ErrMin= 6.04D-05
 ErrMax= 6.04D-05  0.00D+00 EMaxC= 1.00D-01 BMatC= 7.22D-06 BMatP= 2.36D-05
 IDIUse=1 WtCom= 1.00D+00 WtEn= 0.00D+00
 Coeff-Com: -0.827D-03 0.159D-02-0.149D-02 0.196D-02-0.344D-01-0.724D-01
 Coeff-Com:  0.864D-01-0.337D-01 0.908D-01 0.334D+00 0.628D+00
 Coeff:     -0.827D-03 0.159D-02-0.149D-02 0.196D-02-0.344D-01-0.724D-01
 Coeff:      0.864D-01-0.337D-01 0.908D-01 0.334D+00 0.628D+00
 Gap=     0.054 Goal=   None    Shift=    0.000
 Gap=     0.054 Goal=   None    Shift=    0.000
 RMSDP=7.38D-06 MaxDP=6.86D-04 DE=-5.73D-06 OVMax= 3.08D-03

 Cycle  12  Pass 1  IDiag  1:
 RMSU=  1.78D-06    CP:  9.95D-01  1.24D+00  9.61D-01  7.52D-01 -3.81D-02
                    CP: -1.07D+00 -2.65D+00  1.49D+00  8.76D-01  1.36D+00
                    CP:  1.00D+00
 E= -795.788141790922     Delta-E=       -0.000000755272 Rises=F Damp=F
 DIIS: error= 2.27D-05 at cycle  12 NSaved=  12.
 NSaved=12 IEnMin= 7 EnMin= -795.792130690163     IErMin=12 ErrMin= 2.27D-05
 ErrMax= 2.27D-05  0.00D+00 EMaxC= 1.00D-01 BMatC= 1.25D-06 BMatP= 7.22D-06
 IDIUse=1 WtCom= 1.00D+00 WtEn= 0.00D+00
 Coeff-Com:  0.407D-03-0.391D-03 0.176D-02-0.384D-02-0.145D-01-0.401D-01
 Coeff-Com:  0.346D-01-0.108D-01 0.196D-01 0.179D-01 0.208D+00 0.787D+00
 Coeff:      0.407D-03-0.391D-03 0.176D-02-0.384D-02-0.145D-01-0.401D-01
 Coeff:      0.346D-01-0.108D-01 0.196D-01 0.179D-01 0.208D+00 0.787D+00
 Gap=     0.054 Goal=   None    Shift=    0.000
 Gap=     0.054 Goal=   None    Shift=    0.000
 RMSDP=3.15D-06 MaxDP=2.99D-04 DE=-7.55D-07 OVMax= 1.23D-03

 Cycle  13  Pass 1  IDiag  1:
 RMSU=  9.35D-07    CP:  9.95D-01  1.24D+00  9.62D-01  7.51D-01 -4.70D-02
                    CP: -1.08D+00 -2.68D+00  1.51D+00  8.90D-01  1.42D+00
                    CP:  1.10D+00  1.06D+00
 E= -795.788141958944     Delta-E=       -0.000000168023 Rises=F Damp=F
 DIIS: error= 9.76D-06 at cycle  13 NSaved=  13.
 NSaved=13 IEnMin= 7 EnMin= -795.792130690163     IErMin=13 ErrMin= 9.76D-06
 ErrMax= 9.76D-06  0.00D+00 EMaxC= 1.00D-01 BMatC= 2.73D-07 BMatP= 1.25D-06
 IDIUse=1 WtCom= 1.00D+00 WtEn= 0.00D+00
 Coeff-Com:  0.973D-04-0.126D-04 0.160D-02-0.235D-02-0.433D-02-0.154D-01
 Coeff-Com:  0.949D-02-0.277D-02 0.458D-03-0.448D-01-0.160D-01 0.434D+00
 Coeff-Com:  0.640D+00
 Coeff:      0.973D-04-0.126D-04 0.160D-02-0.235D-02-0.433D-02-0.154D-01
 Coeff:      0.949D-02-0.277D-02 0.458D-03-0.448D-01-0.160D-01 0.434D+00
 Coeff:      0.640D+00
 Gap=     0.054 Goal=   None    Shift=    0.000
 Gap=     0.054 Goal=   None    Shift=    0.000
 RMSDP=1.51D-06 MaxDP=1.34D-04 DE=-1.68D-07 OVMax= 5.38D-04

 Cycle  14  Pass 1  IDiag  1:
 RMSU=  4.21D-07    CP:  9.95D-01  1.24D+00  9.62D-01  7.50D-01 -5.24D-02
                    CP: -1.08D+00 -2.69D+00  1.52D+00  8.95D-01  1.45D+00
                    CP:  1.14D+00  1.22D+00  1.05D+00
 E= -795.788141994594     Delta-E=       -0.000000035650 Rises=F Damp=F
 DIIS: error= 4.45D-06 at cycle  14 NSaved=  14.
 NSaved=14 IEnMin= 7 EnMin= -795.792130690163     IErMin=14 ErrMin= 4.45D-06
 ErrMax= 4.45D-06  0.00D+00 EMaxC= 1.00D-01 BMatC= 5.64D-08 BMatP= 2.73D-07
 IDIUse=1 WtCom= 1.00D+00 WtEn= 0.00D+00
 Coeff-Com: -0.453D-04-0.467D-04 0.819D-03-0.728D-03 0.135D-02 0.747D-03
 Coeff-Com: -0.360D-02 0.111D-02-0.387D-02-0.305D-01-0.544D-01 0.866D-01
 Coeff-Com:  0.344D+00 0.658D+00
 Coeff:     -0.453D-04-0.467D-04 0.819D-03-0.728D-03 0.135D-02 0.747D-03
 Coeff:     -0.360D-02 0.111D-02-0.387D-02-0.305D-01-0.544D-01 0.866D-01
 Coeff:      0.344D+00 0.658D+00
 Gap=     0.054 Goal=   None    Shift=    0.000
 Gap=     0.054 Goal=   None    Shift=    0.000
 RMSDP=6.52D-07 MaxDP=4.73D-05 DE=-3.56D-08 OVMax= 2.26D-04

 Cycle  15  Pass 1  IDiag  1:
 RMSU=  1.87D-07    CP:  9.95D-01  1.24D+00  9.62D-01  7.50D-01 -5.47D-02
                    CP: -1.09D+00 -2.69D+00  1.52D+00  8.96D-01  1.46D+00
                    CP:  1.16D+00  1.29D+00  1.21D+00  9.94D-01
 E= -795.788142009720     Delta-E=       -0.000000015126 Rises=F Damp=F
 DIIS: error= 2.46D-06 at cycle  15 NSaved=  15.
 NSaved=15 IEnMin= 7 EnMin= -795.792130690163     IErMin=15 ErrMin= 2.46D-06
 ErrMax= 2.46D-06  0.00D+00 EMaxC= 1.00D-01 BMatC= 9.50D-09 BMatP= 5.64D-08
 IDIUse=1 WtCom= 1.00D+00 WtEn= 0.00D+00
 Coeff-Com: -0.383D-04-0.494D-04 0.141D-03 0.962D-04 0.190D-02 0.337D-02
 Coeff-Com: -0.301D-02 0.584D-03-0.284D-02-0.284D-02-0.170D-01-0.601D-01
 Coeff-Com: -0.136D-01 0.300D+00 0.793D+00
 Coeff:     -0.383D-04-0.494D-04 0.141D-03 0.962D-04 0.190D-02 0.337D-02
 Coeff:     -0.301D-02 0.584D-03-0.284D-02-0.284D-02-0.170D-01-0.601D-01
 Coeff:     -0.136D-01 0.300D+00 0.793D+00
 Gap=     0.054 Goal=   None    Shift=    0.000
 Gap=     0.054 Goal=   None    Shift=    0.000
 RMSDP=2.25D-07 MaxDP=1.48D-05 DE=-1.51D-08 OVMax= 5.07D-05

 Cycle  16  Pass 1  IDiag  1:
 RMSU=  9.07D-08    CP:  9.95D-01  1.24D+00  9.62D-01  7.50D-01 -5.44D-02
                    CP: -1.09D+00 -2.69D+00  1.52D+00  8.96D-01  1.46D+00
                    CP:  1.17D+00  1.34D+00  1.30D+00  1.16D+00  1.09D+00
 E= -795.788142012273     Delta-E=       -0.000000002552 Rises=F Damp=F
 DIIS: error= 6.33D-07 at cycle  16 NSaved=  16.
 NSaved=16 IEnMin= 7 EnMin= -795.792130690163     IErMin=16 ErrMin= 6.33D-07
 ErrMax= 6.33D-07  0.00D+00 EMaxC= 1.00D-01 BMatC= 1.13D-09 BMatP= 9.50D-09
 IDIUse=1 WtCom= 1.00D+00 WtEn= 0.00D+00
 Coeff-Com: -0.812D-05-0.129D-04-0.616D-04 0.161D-03 0.708D-03 0.127D-02
 Coeff-Com: -0.345D-03-0.137D-03-0.875D-03 0.500D-02 0.371D-02-0.461D-01
 Coeff-Com: -0.787D-01 0.140D-01 0.373D+00 0.728D+00
 Coeff:     -0.812D-05-0.129D-04-0.616D-04 0.161D-03 0.708D-03 0.127D-02
 Coeff:     -0.345D-03-0.137D-03-0.875D-03 0.500D-02 0.371D-02-0.461D-01
 Coeff:     -0.787D-01 0.140D-01 0.373D+00 0.728D+00
 Gap=     0.054 Goal=   None    Shift=    0.000
 Gap=     0.054 Goal=   None    Shift=    0.000
 RMSDP=1.61D-07 MaxDP=1.17D-05 DE=-2.55D-09 OVMax= 4.69D-05

 Cycle  17  Pass 1  IDiag  1:
 RMSU=  3.49D-08    CP:  9.95D-01  1.24D+00  9.62D-01  7.50D-01 -5.38D-02
                    CP: -1.09D+00 -2.69D+00  1.52D+00  8.95D-01  1.47D+00
                    CP:  1.17D+00  1.35D+00  1.33D+00  1.25D+00  1.28D+00
                    CP:  9.74D-01
 E= -795.788142012330     Delta-E=       -0.000000000057 Rises=F Damp=F
 DIIS: error= 2.16D-07 at cycle  17 NSaved=  17.
 NSaved=17 IEnMin= 7 EnMin= -795.792130690163     IErMin=17 ErrMin= 2.16D-07
 ErrMax= 2.16D-07  0.00D+00 EMaxC= 1.00D-01 BMatC= 1.03D-10 BMatP= 1.13D-09
 IDIUse=1 WtCom= 1.00D+00 WtEn= 0.00D+00
 Coeff-Com:  0.201D-06 0.138D-06-0.562D-04 0.594D-04 0.124D-03 0.414D-03
 Coeff-Com: -0.511D-04 0.323D-04 0.116D-03 0.230D-02 0.339D-02-0.125D-01
 Coeff-Com: -0.328D-01-0.412D-01 0.346D-01 0.327D+00 0.718D+00
 Coeff:      0.201D-06 0.138D-06-0.562D-04 0.594D-04 0.124D-03 0.414D-03
 Coeff:     -0.511D-04 0.323D-04 0.116D-03 0.230D-02 0.339D-02-0.125D-01
 Coeff:     -0.328D-01-0.412D-01 0.346D-01 0.327D+00 0.718D+00
 Gap=     0.054 Goal=   None    Shift=    0.000
 Gap=     0.054 Goal=   None    Shift=    0.000
 RMSDP=3.85D-08 MaxDP=2.94D-06 DE=-5.73D-11 OVMax= 1.08D-05

 Cycle  18  Pass 1  IDiag  1:
 RMSU=  1.50D-08    CP:  9.95D-01  1.24D+00  9.62D-01  7.50D-01 -5.38D-02
                    CP: -1.09D+00 -2.69D+00  1.52D+00  8.95D-01  1.47D+00
                    CP:  1.17D+00  1.35D+00  1.35D+00  1.27D+00  1.34D+00
                    CP:  1.11D+00  9.57D-01
 E= -795.788142012359     Delta-E=       -0.000000000029 Rises=F Damp=F
 DIIS: error= 1.73D-07 at cycle  18 NSaved=  18.
 NSaved=18 IEnMin= 7 EnMin= -795.792130690163     IErMin=18 ErrMin= 1.73D-07
 ErrMax= 1.73D-07  0.00D+00 EMaxC= 1.00D-01 BMatC= 5.24D-11 BMatP= 1.03D-10
 IDIUse=1 WtCom= 1.00D+00 WtEn= 0.00D+00
 Coeff-Com:  0.376D-05-0.239D-05-0.205D-04 0.255D-05-0.104D-03-0.777D-04
 Coeff-Com:  0.849D-04 0.234D-04 0.288D-03 0.343D-04 0.418D-03 0.321D-02
 Coeff-Com:  0.226D-02-0.190D-01-0.578D-01 0.505D-02 0.334D+00 0.731D+00
 Coeff:      0.376D-05-0.239D-05-0.205D-04 0.255D-05-0.104D-03-0.777D-04
 Coeff:      0.849D-04 0.234D-04 0.288D-03 0.343D-04 0.418D-03 0.321D-02
 Coeff:      0.226D-02-0.190D-01-0.578D-01 0.505D-02 0.334D+00 0.731D+00
 Gap=     0.054 Goal=   None    Shift=    0.000
 Gap=     0.054 Goal=   None    Shift=    0.000
 RMSDP=1.37D-08 MaxDP=9.90D-07 DE=-2.86D-11 OVMax= 2.49D-06

 Cycle  19  Pass 1  IDiag  1:
 RMSU=  6.57D-09    CP:  9.95D-01  1.24D+00  9.62D-01  7.50D-01 -5.37D-02
                    CP: -1.09D+00 -2.69D+00  1.52D+00  8.95D-01  1.47D+00
                    CP:  1.17D+00  1.35D+00  1.35D+00  1.28D+00  1.36D+00
                    CP:  1.17D+00  1.12D+00  9.93D-01
 E= -795.788142012355     Delta-E=        0.000000000004 Rises=F Damp=F
 DIIS: error= 1.02D-07 at cycle  19 NSaved=  19.
 NSaved=19 IEnMin= 7 EnMin= -795.792130690163     IErMin=19 ErrMin= 1.02D-07
 ErrMax= 1.02D-07  0.00D+00 EMaxC= 1.00D-01 BMatC= 2.18D-11 BMatP= 5.24D-11
 IDIUse=1 WtCom= 1.00D+00 WtEn= 0.00D+00
 Coeff-Com:  0.155D-05 0.916D-06-0.613D-05-0.527D-05-0.954D-04-0.125D-03
 Coeff-Com:  0.635D-04 0.305D-05 0.123D-03-0.348D-03-0.240D-03 0.394D-02
 Coeff-Com:  0.714D-02-0.266D-02-0.380D-01-0.609D-01 0.399D-01 0.370D+00
 Coeff-Com:  0.681D+00
 Coeff:      0.155D-05 0.916D-06-0.613D-05-0.527D-05-0.954D-04-0.125D-03
 Coeff:      0.635D-04 0.305D-05 0.123D-03-0.348D-03-0.240D-03 0.394D-02
 Coeff:      0.714D-02-0.266D-02-0.380D-01-0.609D-01 0.399D-01 0.370D+00
 Coeff:      0.681D+00
 Gap=     0.054 Goal=   None    Shift=    0.000
 Gap=     0.054 Goal=   None    Shift=    0.000
 RMSDP=5.57D-09 MaxDP=4.36D-07 DE= 3.64D-12 OVMax= 8.92D-07

 Error on total polarization charges =  0.00028
 SCF Done:  E(UB3LYP) =  -795.788142012     A.U. after   19 cycles
            NFock= 19  Conv=0.56D-08     -V/T= 2.0070
 <Sx>= 0.0000 <Sy>= 0.0000 <Sz>= 0.0000 <S**2>= 0.0000 S= 0.0000
 <L.S>= 0.000000000000E+00
 KE= 7.902586672022D+02 PE=-4.375784974561D+03 EE= 1.530127983062D+03
 Annihilation of the first spin contaminant:
 S**2 before annihilation     0.0000,   after     0.0000
 Leave Link  502 at Tue Aug 18 20:52:13 2026, MaxMem=  2684354560 cpu:            3896.7 elap:             170.1
 (Enter /mnt/data/applications/G16/g16/l601.exe)
 Copying SCF densities to generalized density rwf, IOpCl= 1 IROHF=0.

 **********************************************************************

            Population analysis using the SCF density.

 **********************************************************************

 Alpha  occ. eigenvalues --  -19.17149 -19.15108 -19.14964 -19.11685 -10.30215
 Alpha  occ. eigenvalues --  -10.25265 -10.25201 -10.23739 -10.22309 -10.20737
 Alpha  occ. eigenvalues --  -10.20125 -10.18458 -10.18365 -10.18335 -10.18209
 Alpha  occ. eigenvalues --  -10.18190  -6.78476  -1.08982  -1.06672  -1.00150
 Alpha  occ. eigenvalues --   -0.99964  -0.81609  -0.80071  -0.76949  -0.75597
 Alpha  occ. eigenvalues --   -0.71302  -0.70927  -0.68194  -0.64368  -0.62430
 Alpha  occ. eigenvalues --   -0.58848  -0.56014  -0.55328  -0.53025  -0.49709
 Alpha  occ. eigenvalues --   -0.48429  -0.48015  -0.46997  -0.46069  -0.45078
 Alpha  occ. eigenvalues --   -0.44428  -0.44117  -0.42196  -0.41584  -0.40635
 Alpha  occ. eigenvalues --   -0.40460  -0.40048  -0.39991  -0.39500  -0.39170
 Alpha  occ. eigenvalues --   -0.38412  -0.37688  -0.37239  -0.36800  -0.35728
 Alpha  occ. eigenvalues --   -0.35440  -0.35017  -0.34442  -0.34153  -0.33964
 Alpha  occ. eigenvalues --   -0.31564  -0.29248  -0.27939  -0.26896  -0.19160
 Alpha virt. eigenvalues --   -0.13752   0.04733   0.05781   0.07091   0.07233
 Alpha virt. eigenvalues --    0.08170   0.08573   0.09429   0.10011   0.10103
 Alpha virt. eigenvalues --    0.11327   0.11765   0.11860   0.12107   0.12464
 Alpha virt. eigenvalues --    0.13105   0.13239   0.13681   0.14156   0.14731
 Alpha virt. eigenvalues --    0.15329   0.15500   0.15989   0.16445   0.16633
 Alpha virt. eigenvalues --    0.17959   0.19529   0.20342   0.20987   0.21527
 Alpha virt. eigenvalues --    0.21857   0.23162   0.23340   0.25860   0.27110
 Alpha virt. eigenvalues --    0.28234   0.28621   0.30276   0.31184   0.32677
 Alpha virt. eigenvalues --    0.33767   0.37368   0.38929   0.40415   0.41230
 Alpha virt. eigenvalues --    0.41455   0.42671   0.43732   0.44636   0.45086
 Alpha virt. eigenvalues --    0.46611   0.47789   0.47910   0.48119   0.49825
 Alpha virt. eigenvalues --    0.50154   0.50521   0.52070   0.53123   0.53843
 Alpha virt. eigenvalues --    0.54665   0.55264   0.57050   0.57409   0.58066
 Alpha virt. eigenvalues --    0.58379   0.58600   0.60043   0.61109   0.61833
 Alpha virt. eigenvalues --    0.61955   0.62263   0.62976   0.63187   0.63529
 Alpha virt. eigenvalues --    0.63781   0.64432   0.64913   0.64994   0.65537
 Alpha virt. eigenvalues --    0.65595   0.66163   0.66702   0.66810   0.67501
 Alpha virt. eigenvalues --    0.67565   0.68242   0.68646   0.69083   0.69306
 Alpha virt. eigenvalues --    0.70548   0.71583   0.71783   0.72682   0.73983
 Alpha virt. eigenvalues --    0.75219   0.76235   0.77275   0.78551   0.79790
 Alpha virt. eigenvalues --    0.82043   0.83470   0.84501   0.86340   0.88279
 Alpha virt. eigenvalues --    0.89064   0.89848   0.90147   0.92099   0.93245
 Alpha virt. eigenvalues --    0.96997   0.98448   1.00402   1.01296   1.02979
 Alpha virt. eigenvalues --    1.04549   1.05592   1.06603   1.07251   1.11817
 Alpha virt. eigenvalues --    1.13652   1.14697   1.16455   1.18122   1.19620
 Alpha virt. eigenvalues --    1.20617   1.22006   1.22784   1.23396   1.23908
 Alpha virt. eigenvalues --    1.25139   1.26441   1.27706   1.29175   1.30847
 Alpha virt. eigenvalues --    1.33007   1.33719   1.34403   1.35622   1.36028
 Alpha virt. eigenvalues --    1.36136   1.38135   1.39359   1.39957   1.40419
 Alpha virt. eigenvalues --    1.41093   1.41772   1.41901   1.42104   1.43995
 Alpha virt. eigenvalues --    1.44597   1.46511   1.48408   1.50409   1.50858
 Alpha virt. eigenvalues --    1.53104   1.53537   1.55095   1.56533   1.57245
 Alpha virt. eigenvalues --    1.58563   1.59482   1.60282   1.60841   1.61087
 Alpha virt. eigenvalues --    1.61362   1.61815   1.63270   1.63411   1.63731
 Alpha virt. eigenvalues --    1.64052   1.64681   1.65604   1.67268   1.67540
 Alpha virt. eigenvalues --    1.68373   1.68665   1.69807   1.70048   1.70612
 Alpha virt. eigenvalues --    1.71771   1.72107   1.72343   1.72831   1.73889
 Alpha virt. eigenvalues --    1.74696   1.76518   1.76995   1.78221   1.78551
 Alpha virt. eigenvalues --    1.79254   1.80377   1.81683   1.83689   1.84127
 Alpha virt. eigenvalues --    1.85382   1.85595   1.86947   1.88965   1.90354
 Alpha virt. eigenvalues --    1.91390   1.93446   1.93457   1.95095   1.95577
 Alpha virt. eigenvalues --    1.99264   1.99843   2.00385   2.01526   2.02492
 Alpha virt. eigenvalues --    2.03263   2.03964   2.05532   2.07732   2.08669
 Alpha virt. eigenvalues --    2.09139   2.12720   2.13666   2.15958   2.18141
 Alpha virt. eigenvalues --    2.18680   2.18746   2.20862   2.22062   2.22996
 Alpha virt. eigenvalues --    2.23318   2.27866   2.28690   2.29832   2.31934
 Alpha virt. eigenvalues --    2.32227   2.33536   2.35580   2.36346   2.38618
 Alpha virt. eigenvalues --    2.40793   2.40935   2.41462   2.41537   2.42033
 Alpha virt. eigenvalues --    2.43524   2.44354   2.45715   2.46206   2.47503
 Alpha virt. eigenvalues --    2.47909   2.48672   2.49471   2.50478   2.52734
 Alpha virt. eigenvalues --    2.54077   2.54636   2.54722   2.55463   2.56056
 Alpha virt. eigenvalues --    2.59098   2.59451   2.62580   2.65448   2.73321
 Alpha virt. eigenvalues --    2.87513   2.88214   2.90486   2.92047   2.97573
 Alpha virt. eigenvalues --    3.00300   3.01589   3.04519   3.16805   3.17194
 Alpha virt. eigenvalues --    3.17834   3.23663   3.34850   3.37558   3.42727
 Alpha virt. eigenvalues --    3.43395   3.49444   3.55483
  Beta  occ. eigenvalues --  -19.17149 -19.15108 -19.14964 -19.11685 -10.30215
  Beta  occ. eigenvalues --  -10.25265 -10.25201 -10.23739 -10.22309 -10.20737
  Beta  occ. eigenvalues --  -10.20125 -10.18458 -10.18365 -10.18335 -10.18209
  Beta  occ. eigenvalues --  -10.18190  -6.78476  -1.08982  -1.06672  -1.00150
  Beta  occ. eigenvalues --   -0.99964  -0.81609  -0.80071  -0.76949  -0.75597
  Beta  occ. eigenvalues --   -0.71302  -0.70927  -0.68194  -0.64368  -0.62430
  Beta  occ. eigenvalues --   -0.58848  -0.56014  -0.55328  -0.53025  -0.49709
  Beta  occ. eigenvalues --   -0.48429  -0.48015  -0.46997  -0.46069  -0.45078
  Beta  occ. eigenvalues --   -0.44428  -0.44117  -0.42196  -0.41584  -0.40635
  Beta  occ. eigenvalues --   -0.40460  -0.40048  -0.39991  -0.39500  -0.39170
  Beta  occ. eigenvalues --   -0.38412  -0.37688  -0.37239  -0.36800  -0.35728
  Beta  occ. eigenvalues --   -0.35440  -0.35017  -0.34442  -0.34153  -0.33964
  Beta  occ. eigenvalues --   -0.31564  -0.29248  -0.27939  -0.26896  -0.19160
  Beta virt. eigenvalues --   -0.13752   0.04733   0.05781   0.07091   0.07233
  Beta virt. eigenvalues --    0.08170   0.08573   0.09429   0.10011   0.10103
  Beta virt. eigenvalues --    0.11327   0.11765   0.11860   0.12107   0.12464
  Beta virt. eigenvalues --    0.13105   0.13239   0.13681   0.14156   0.14731
  Beta virt. eigenvalues --    0.15329   0.15500   0.15989   0.16445   0.16633
  Beta virt. eigenvalues --    0.17959   0.19529   0.20342   0.20987   0.21527
  Beta virt. eigenvalues --    0.21857   0.23162   0.23340   0.25860   0.27110
  Beta virt. eigenvalues --    0.28234   0.28621   0.30276   0.31184   0.32677
  Beta virt. eigenvalues --    0.33767   0.37368   0.38929   0.40415   0.41230
  Beta virt. eigenvalues --    0.41455   0.42671   0.43732   0.44636   0.45086
  Beta virt. eigenvalues --    0.46611   0.47789   0.47910   0.48119   0.49825
  Beta virt. eigenvalues --    0.50154   0.50521   0.52070   0.53123   0.53843
  Beta virt. eigenvalues --    0.54665   0.55264   0.57050   0.57409   0.58066
  Beta virt. eigenvalues --    0.58379   0.58600   0.60043   0.61109   0.61833
  Beta virt. eigenvalues --    0.61955   0.62263   0.62976   0.63187   0.63529
  Beta virt. eigenvalues --    0.63781   0.64432   0.64913   0.64994   0.65537
  Beta virt. eigenvalues --    0.65595   0.66163   0.66702   0.66810   0.67501
  Beta virt. eigenvalues --    0.67565   0.68242   0.68646   0.69083   0.69306
  Beta virt. eigenvalues --    0.70548   0.71583   0.71783   0.72682   0.73983
  Beta virt. eigenvalues --    0.75219   0.76235   0.77275   0.78551   0.79790
  Beta virt. eigenvalues --    0.82043   0.83470   0.84501   0.86340   0.88279
  Beta virt. eigenvalues --    0.89064   0.89848   0.90147   0.92099   0.93245
  Beta virt. eigenvalues --    0.96997   0.98448   1.00402   1.01296   1.02979
  Beta virt. eigenvalues --    1.04550   1.05592   1.06603   1.07251   1.11817
  Beta virt. eigenvalues --    1.13652   1.14697   1.16455   1.18122   1.19620
  Beta virt. eigenvalues --    1.20617   1.22006   1.22784   1.23396   1.23908
  Beta virt. eigenvalues --    1.25139   1.26441   1.27706   1.29175   1.30847
  Beta virt. eigenvalues --    1.33007   1.33719   1.34403   1.35622   1.36028
  Beta virt. eigenvalues --    1.36136   1.38135   1.39359   1.39957   1.40419
  Beta virt. eigenvalues --    1.41093   1.41772   1.41901   1.42104   1.43995
  Beta virt. eigenvalues --    1.44597   1.46511   1.48408   1.50409   1.50858
  Beta virt. eigenvalues --    1.53104   1.53537   1.55095   1.56533   1.57245
  Beta virt. eigenvalues --    1.58563   1.59482   1.60282   1.60841   1.61087
  Beta virt. eigenvalues --    1.61362   1.61815   1.63270   1.63411   1.63731
  Beta virt. eigenvalues --    1.64052   1.64681   1.65604   1.67268   1.67540
  Beta virt. eigenvalues --    1.68373   1.68665   1.69807   1.70048   1.70612
  Beta virt. eigenvalues --    1.71771   1.72107   1.72343   1.72831   1.73889
  Beta virt. eigenvalues --    1.74696   1.76518   1.76995   1.78221   1.78551
  Beta virt. eigenvalues --    1.79254   1.80377   1.81683   1.83689   1.84127
  Beta virt. eigenvalues --    1.85382   1.85595   1.86947   1.88965   1.90354
  Beta virt. eigenvalues --    1.91390   1.93446   1.93457   1.95095   1.95577
  Beta virt. eigenvalues --    1.99264   1.99843   2.00385   2.01526   2.02492
  Beta virt. eigenvalues --    2.03263   2.03964   2.05532   2.07732   2.08669
  Beta virt. eigenvalues --    2.09139   2.12720   2.13666   2.15958   2.18141
  Beta virt. eigenvalues --    2.18680   2.18746   2.20862   2.22062   2.22996
  Beta virt. eigenvalues --    2.23318   2.27866   2.28690   2.29832   2.31934
  Beta virt. eigenvalues --    2.32227   2.33536   2.35580   2.36346   2.38618
  Beta virt. eigenvalues --    2.40793   2.40935   2.41462   2.41537   2.42033
  Beta virt. eigenvalues --    2.43524   2.44354   2.45715   2.46206   2.47503
  Beta virt. eigenvalues --    2.47909   2.48672   2.49471   2.50478   2.52734
  Beta virt. eigenvalues --    2.54077   2.54636   2.54722   2.55463   2.56056
  Beta virt. eigenvalues --    2.59098   2.59451   2.62580   2.65448   2.73321
  Beta virt. eigenvalues --    2.87513   2.88214   2.90486   2.92047   2.97573
  Beta virt. eigenvalues --    3.00300   3.01589   3.04519   3.16805   3.17194
  Beta virt. eigenvalues --    3.17834   3.23663   3.34850   3.37558   3.42727
  Beta virt. eigenvalues --    3.43395   3.49444   3.55483
          Condensed to atoms (all electrons):
               1          2          3          4          5          6
     1  C    5.005277   0.324973  -0.032734   0.446239  -0.004859  -0.014239
     2  C    0.324973   5.302249   0.351803  -0.056101  -0.026622   0.009052
     3  H   -0.032734   0.351803   0.655313  -0.002448  -0.000267  -0.000085
     4  C    0.446239  -0.056101  -0.002448   4.537599   0.377317   0.376578
     5  H   -0.004859  -0.026622  -0.000267   0.377317   0.632797  -0.035574
     6  H   -0.014239   0.009052  -0.000085   0.376578  -0.035574   0.660349
     7  H   -0.024740   0.015506   0.003200   0.348721  -0.028557  -0.018586
     8  C   -0.057417   0.404508  -0.023825  -0.000771   0.002405  -0.000217
     9  O    0.008076  -0.097055   0.003906  -0.003091   0.006098  -0.000141
    10  O    0.003736  -0.057208   0.006277  -0.000089   0.000048   0.000001
    11  C   -0.000324   0.007075  -0.000719   0.000014  -0.000017  -0.000000
    12  H   -0.000003   0.001345  -0.000017   0.000004  -0.000003  -0.000000
    13  H    0.000100   0.001240   0.000099  -0.000008   0.000006   0.000000
    14  B    0.438374  -0.082241   0.007872  -0.042432   0.005920  -0.016155
    15  O   -0.018465   0.003811   0.000246   0.000866  -0.000025   0.000062
    16  O   -0.016216   0.000767  -0.000029  -0.002510   0.000066   0.009275
    17  C    0.002347  -0.000208  -0.000018   0.000048   0.000015   0.000025
    18  C   -0.000034   0.000262   0.000020  -0.000250  -0.000001  -0.000362
    19  C   -0.000167  -0.000097  -0.000000   0.000006   0.000001  -0.000003
    20  C   -0.000003  -0.000011   0.000002  -0.000000  -0.000000  -0.000002
    21  C   -0.000307   0.000008  -0.000001   0.000018   0.000000  -0.000030
    22  C   -0.000016  -0.000007  -0.000000  -0.000012   0.000003  -0.000017
    23  H    0.000227  -0.000181  -0.000000   0.000000   0.000002  -0.000020
    24  H   -0.000167   0.000048   0.000001  -0.000001  -0.000000   0.000002
    25  H   -0.000002   0.000004  -0.000000  -0.000000   0.000000  -0.000001
    26  H   -0.000019  -0.000018   0.000002  -0.000000  -0.000000   0.000000
    27  H    0.000005  -0.000001   0.000000  -0.000000   0.000000  -0.000000
    28  H   -0.000037   0.000018   0.000000   0.000000   0.000000   0.000000
    29  H   -0.000141  -0.000000   0.000000  -0.000001  -0.000000   0.000113
    30  H    0.000009  -0.000002   0.000000  -0.000001  -0.000000   0.000000
    31  H    0.000013  -0.000038   0.000002   0.000004   0.000000  -0.000042
    32  H   -0.000023   0.000000   0.000000  -0.000005  -0.000000   0.000051
    33  H   -0.000075   0.000004  -0.000000   0.000010   0.000001  -0.000010
    34  H    0.000003  -0.000000   0.000000   0.000001  -0.000000  -0.000002
    35  C   -0.000002  -0.000050  -0.000128   0.000000  -0.000001   0.000000
    36  H    0.000003  -0.000024   0.000090  -0.000000  -0.000000   0.000000
    37  H   -0.000000   0.000020   0.000004   0.000000  -0.000000  -0.000000
    38  H    0.000001  -0.000037   0.000019   0.000000   0.000000  -0.000000
               7          8          9         10         11         12
     1  C   -0.024740  -0.057417   0.008076   0.003736  -0.000324  -0.000003
     2  C    0.015506   0.404508  -0.097055  -0.057208   0.007075   0.001345
     3  H    0.003200  -0.023825   0.003906   0.006277  -0.000719  -0.000017
     4  C    0.348721  -0.000771  -0.003091  -0.000089   0.000014   0.000004
     5  H   -0.028557   0.002405   0.006098   0.000048  -0.000017  -0.000003
     6  H   -0.018586  -0.000217  -0.000141   0.000001  -0.000000  -0.000000
     7  H    0.659398  -0.000917  -0.000137  -0.000020  -0.000000  -0.000000
     8  C   -0.000917   4.396808   0.706300   0.381618  -0.050260  -0.001152
     9  O   -0.000137   0.706300   7.717128  -0.060679   0.000467   0.008252
    10  O   -0.000020   0.381618  -0.060679   7.800908   0.296303  -0.031268
    11  C   -0.000000  -0.050260   0.000467   0.296303   4.478410   0.378472
    12  H   -0.000000  -0.001152   0.008252  -0.031268   0.378472   0.697732
    13  H    0.000002  -0.000751   0.007965  -0.030659   0.378139  -0.050402
    14  B    0.004642  -0.002905   0.022035   0.000803  -0.000116   0.000045
    15  O   -0.000023   0.000194  -0.000319  -0.000002  -0.000000   0.000000
    16  O   -0.000111   0.000021  -0.000005  -0.000000   0.000000   0.000000
    17  C    0.000002  -0.000034  -0.000062   0.000000   0.000000  -0.000000
    18  C    0.000019  -0.000013   0.000009  -0.000000  -0.000000   0.000000
    19  C   -0.000000   0.000039  -0.000019   0.000000  -0.000000  -0.000000
    20  C   -0.000000  -0.000001  -0.000000   0.000000  -0.000000  -0.000000
    21  C    0.000003   0.000001   0.000000  -0.000000  -0.000000   0.000000
    22  C   -0.000001   0.000000   0.000000   0.000000  -0.000000  -0.000000
    23  H    0.000000   0.000075   0.000352   0.000001  -0.000000  -0.000000
    24  H   -0.000000   0.000048   0.000059  -0.000001  -0.000001   0.000008
    25  H   -0.000000   0.000001  -0.000000  -0.000000  -0.000000   0.000000
    26  H    0.000000  -0.000000   0.000000   0.000000   0.000000  -0.000000
    27  H    0.000000  -0.000000   0.000000   0.000000   0.000000  -0.000000
    28  H   -0.000000  -0.000001  -0.000000   0.000000  -0.000000  -0.000000
    29  H   -0.000001  -0.000000   0.000000  -0.000000  -0.000000   0.000000
    30  H    0.000000  -0.000000   0.000000   0.000000  -0.000000  -0.000000
    31  H    0.000004   0.000002   0.000000   0.000000  -0.000000   0.000000
    32  H    0.000000  -0.000000   0.000000   0.000000  -0.000000  -0.000000
    33  H   -0.000000   0.000000  -0.000001  -0.000000   0.000000   0.000000
    34  H    0.000000   0.000000   0.000000  -0.000000   0.000000   0.000000
    35  C    0.000000   0.003488   0.001229  -0.033988   0.449169  -0.026959
    36  H    0.000000   0.000157  -0.000019   0.003063  -0.019249  -0.010993
    37  H    0.000000  -0.000004   0.000043   0.002959  -0.012147  -0.001132
    38  H   -0.000000   0.000213  -0.000020   0.003037  -0.018898   0.009133
              13         14         15         16         17         18
     1  C    0.000100   0.438374  -0.018465  -0.016216   0.002347  -0.000034
     2  C    0.001240  -0.082241   0.003811   0.000767  -0.000208   0.000262
     3  H    0.000099   0.007872   0.000246  -0.000029  -0.000018   0.000020
     4  C   -0.000008  -0.042432   0.000866  -0.002510   0.000048  -0.000250
     5  H    0.000006   0.005920  -0.000025   0.000066   0.000015  -0.000001
     6  H    0.000000  -0.016155   0.000062   0.009275   0.000025  -0.000362
     7  H    0.000002   0.004642  -0.000023  -0.000111   0.000002   0.000019
     8  C   -0.000751  -0.002905   0.000194   0.000021  -0.000034  -0.000013
     9  O    0.007965   0.022035  -0.000319  -0.000005  -0.000062   0.000009
    10  O   -0.030659   0.000803  -0.000002  -0.000000   0.000000  -0.000000
    11  C    0.378139  -0.000116  -0.000000   0.000000   0.000000  -0.000000
    12  H   -0.050402   0.000045   0.000000   0.000000  -0.000000   0.000000
    13  H    0.696358  -0.000039   0.000000  -0.000000   0.000000  -0.000000
    14  B   -0.000039   3.679762   0.526263   0.516530  -0.101013  -0.101171
    15  O    0.000000   0.526263   7.577050  -0.018495   0.262010  -0.055797
    16  O   -0.000000   0.516530  -0.018495   7.589456  -0.056172   0.261288
    17  C    0.000000  -0.101013   0.262010  -0.056172   4.995437   0.293930
    18  C   -0.000000  -0.101171  -0.055797   0.261288   0.293930   4.998804
    19  C    0.000000   0.007506  -0.039291   0.000589   0.420141  -0.056501
    20  C    0.000000  -0.001727  -0.032556   0.003180   0.444191  -0.052373
    21  C   -0.000000   0.007524   0.000191  -0.039859  -0.057040   0.420541
    22  C   -0.000000  -0.002056   0.003172  -0.031688  -0.052957   0.445147
    23  H   -0.000000   0.006219  -0.004348   0.002318  -0.006334  -0.008550
    24  H   -0.000000   0.000607   0.002047  -0.000228  -0.009804   0.007650
    25  H   -0.000000  -0.001433   0.004218  -0.000120  -0.009777  -0.007169
    26  H    0.000000   0.001791   0.000405  -0.000010  -0.000385  -0.014263
    27  H   -0.000000   0.000603   0.003574   0.000031  -0.012734  -0.001859
    28  H    0.000000  -0.000301  -0.000044  -0.000139  -0.008420   0.007734
    29  H   -0.000000   0.000037  -0.000229   0.002239   0.007720  -0.010307
    30  H   -0.000000  -0.001352  -0.000090   0.004261  -0.006644  -0.009302
    31  H   -0.000000   0.006228   0.002779  -0.004104  -0.008456  -0.006545
    32  H    0.000000  -0.000496  -0.000139  -0.000078   0.007728  -0.008675
    33  H   -0.000000   0.001680  -0.000017   0.000781  -0.014239  -0.000369
    34  H   -0.000000   0.000634   0.000031   0.003511  -0.001793  -0.012878
    35  C   -0.026134  -0.000009  -0.000000   0.000000   0.000000  -0.000000
    36  H    0.009145  -0.000001  -0.000000  -0.000000  -0.000000  -0.000000
    37  H   -0.001313  -0.000000   0.000000  -0.000000   0.000000  -0.000000
    38  H   -0.010780   0.000001  -0.000000   0.000000  -0.000000   0.000000
              19         20         21         22         23         24
     1  C   -0.000167  -0.000003  -0.000307  -0.000016   0.000227  -0.000167
     2  C   -0.000097  -0.000011   0.000008  -0.000007  -0.000181   0.000048
     3  H   -0.000000   0.000002  -0.000001  -0.000000  -0.000000   0.000001
     4  C    0.000006  -0.000000   0.000018  -0.000012   0.000000  -0.000001
     5  H    0.000001  -0.000000   0.000000   0.000003   0.000002  -0.000000
     6  H   -0.000003  -0.000002  -0.000030  -0.000017  -0.000020   0.000002
     7  H   -0.000000  -0.000000   0.000003  -0.000001   0.000000  -0.000000
     8  C    0.000039  -0.000001   0.000001   0.000000   0.000075   0.000048
     9  O   -0.000019  -0.000000   0.000000   0.000000   0.000352   0.000059
    10  O    0.000000   0.000000  -0.000000   0.000000   0.000001  -0.000001
    11  C   -0.000000  -0.000000  -0.000000  -0.000000  -0.000000  -0.000001
    12  H   -0.000000  -0.000000   0.000000  -0.000000  -0.000000   0.000008
    13  H    0.000000   0.000000  -0.000000  -0.000000  -0.000000  -0.000000
    14  B    0.007506  -0.001727   0.007524  -0.002056   0.006219   0.000607
    15  O   -0.039291  -0.032556   0.000191   0.003172  -0.004348   0.002047
    16  O    0.000589   0.003180  -0.039859  -0.031688   0.002318  -0.000228
    17  C    0.420141   0.444191  -0.057040  -0.052957  -0.006334  -0.009804
    18  C   -0.056501  -0.052373   0.420541   0.445147  -0.008550   0.007650
    19  C    4.534989  -0.056862   0.007558  -0.002411   0.376257   0.367431
    20  C   -0.056862   4.518565  -0.002225   0.002825   0.007317  -0.008256
    21  C    0.007558  -0.002225   4.537138  -0.055314   0.000229  -0.000334
    22  C   -0.002411   0.002825  -0.055314   4.515730  -0.000908   0.000254
    23  H    0.376257   0.007317   0.000229  -0.000908   0.653315  -0.026915
    24  H    0.367431  -0.008256  -0.000334   0.000254  -0.026915   0.661055
    25  H    0.367487  -0.001095  -0.000251   0.006890  -0.029458  -0.023746
    26  H    0.007518   0.365107   0.009579  -0.000165  -0.000500  -0.000012
    27  H   -0.000247   0.369880  -0.000902  -0.000226   0.000041  -0.000365
    28  H   -0.008332   0.369707  -0.000122  -0.000296   0.000048   0.005109
    29  H   -0.000342   0.000252   0.367260  -0.008253  -0.000036   0.000017
    30  H   -0.000228   0.006373   0.367063  -0.001400  -0.000007   0.000007
    31  H    0.000269  -0.001208   0.375449   0.007470   0.000066  -0.000035
    32  H   -0.000137  -0.000300  -0.008310   0.369341  -0.000123  -0.000016
    33  H    0.009674  -0.000123   0.007608   0.364827   0.001587  -0.000092
    34  H   -0.000711  -0.000244  -0.000451   0.371018   0.000169  -0.000012
    35  C   -0.000000  -0.000000  -0.000000  -0.000000  -0.000000  -0.000000
    36  H    0.000000   0.000000  -0.000000   0.000000  -0.000000  -0.000000
    37  H    0.000000  -0.000000  -0.000000  -0.000000  -0.000000  -0.000000
    38  H    0.000000  -0.000000   0.000000   0.000000   0.000000   0.000000
              25         26         27         28         29         30
     1  C   -0.000002  -0.000019   0.000005  -0.000037  -0.000141   0.000009
     2  C    0.000004  -0.000018  -0.000001   0.000018  -0.000000  -0.000002
     3  H   -0.000000   0.000002   0.000000   0.000000   0.000000   0.000000
     4  C   -0.000000  -0.000000  -0.000000   0.000000  -0.000001  -0.000001
     5  H    0.000000  -0.000000   0.000000   0.000000  -0.000000  -0.000000
     6  H   -0.000001   0.000000  -0.000000   0.000000   0.000113   0.000000
     7  H   -0.000000   0.000000   0.000000  -0.000000  -0.000001   0.000000
     8  C    0.000001  -0.000000  -0.000000  -0.000001  -0.000000  -0.000000
     9  O   -0.000000   0.000000   0.000000  -0.000000   0.000000   0.000000
    10  O   -0.000000   0.000000   0.000000   0.000000  -0.000000   0.000000
    11  C   -0.000000   0.000000   0.000000  -0.000000  -0.000000  -0.000000
    12  H    0.000000  -0.000000  -0.000000  -0.000000   0.000000  -0.000000
    13  H   -0.000000   0.000000  -0.000000   0.000000  -0.000000  -0.000000
    14  B   -0.001433   0.001791   0.000603  -0.000301   0.000037  -0.001352
    15  O    0.004218   0.000405   0.003574  -0.000044  -0.000229  -0.000090
    16  O   -0.000120  -0.000010   0.000031  -0.000139   0.002239   0.004261
    17  C   -0.009777  -0.000385  -0.012734  -0.008420   0.007720  -0.006644
    18  C   -0.007169  -0.014263  -0.001859   0.007734  -0.010307  -0.009302
    19  C    0.367487   0.007518  -0.000247  -0.008332  -0.000342  -0.000228
    20  C   -0.001095   0.365107   0.369880   0.369707   0.000252   0.006373
    21  C   -0.000251   0.009579  -0.000902  -0.000122   0.367260   0.367063
    22  C    0.006890  -0.000165  -0.000226  -0.000296  -0.008253  -0.001400
    23  H   -0.029458  -0.000500   0.000041   0.000048  -0.000036  -0.000007
    24  H   -0.023746  -0.000012  -0.000365   0.005109   0.000017   0.000007
    25  H    0.665926  -0.000003   0.001697  -0.000253   0.000005  -0.000025
    26  H   -0.000003   0.658952  -0.025438  -0.027190  -0.000084  -0.000079
    27  H    0.001697  -0.025438   0.656548  -0.025348  -0.000013   0.000306
    28  H   -0.000253  -0.027190  -0.025348   0.663658  -0.000016   0.000145
    29  H    0.000005  -0.000084  -0.000013  -0.000016   0.664680  -0.023524
    30  H   -0.000025  -0.000079   0.000306   0.000145  -0.023524   0.664256
    31  H   -0.000009   0.001666   0.000197  -0.000133  -0.027657  -0.029173
    32  H    0.000148  -0.000007  -0.000120   0.000023   0.005178  -0.000203
    33  H   -0.000129  -0.000026  -0.000088  -0.000005  -0.000014  -0.000035
    34  H    0.000061  -0.000069   0.001791  -0.000123  -0.000384   0.001769
    35  C   -0.000000  -0.000000  -0.000000  -0.000000  -0.000000  -0.000000
    36  H   -0.000000   0.000000   0.000000   0.000000  -0.000000   0.000000
    37  H   -0.000000   0.000000  -0.000000   0.000000  -0.000000  -0.000000
    38  H    0.000000  -0.000000  -0.000000  -0.000000   0.000000  -0.000000
              31         32         33         34         35         36
     1  C    0.000013  -0.000023  -0.000075   0.000003  -0.000002   0.000003
     2  C   -0.000038   0.000000   0.000004  -0.000000  -0.000050  -0.000024
     3  H    0.000002   0.000000  -0.000000   0.000000  -0.000128   0.000090
     4  C    0.000004  -0.000005   0.000010   0.000001   0.000000  -0.000000
     5  H    0.000000  -0.000000   0.000001  -0.000000  -0.000001  -0.000000
     6  H   -0.000042   0.000051  -0.000010  -0.000002   0.000000   0.000000
     7  H    0.000004   0.000000  -0.000000   0.000000   0.000000   0.000000
     8  C    0.000002  -0.000000   0.000000   0.000000   0.003488   0.000157
     9  O    0.000000   0.000000  -0.000001   0.000000   0.001229  -0.000019
    10  O    0.000000   0.000000  -0.000000  -0.000000  -0.033988   0.003063
    11  C   -0.000000  -0.000000   0.000000   0.000000   0.449169  -0.019249
    12  H    0.000000  -0.000000   0.000000   0.000000  -0.026959  -0.010993
    13  H   -0.000000   0.000000  -0.000000  -0.000000  -0.026134   0.009145
    14  B    0.006228  -0.000496   0.001680   0.000634  -0.000009  -0.000001
    15  O    0.002779  -0.000139  -0.000017   0.000031  -0.000000  -0.000000
    16  O   -0.004104  -0.000078   0.000781   0.003511   0.000000  -0.000000
    17  C   -0.008456   0.007728  -0.014239  -0.001793   0.000000  -0.000000
    18  C   -0.006545  -0.008675  -0.000369  -0.012878  -0.000000  -0.000000
    19  C    0.000269  -0.000137   0.009674  -0.000711  -0.000000   0.000000
    20  C   -0.001208  -0.000300  -0.000123  -0.000244  -0.000000   0.000000
    21  C    0.375449  -0.008310   0.007608  -0.000451  -0.000000  -0.000000
    22  C    0.007470   0.369341   0.364827   0.371018  -0.000000   0.000000
    23  H    0.000066  -0.000123   0.001587   0.000169  -0.000000  -0.000000
    24  H   -0.000035  -0.000016  -0.000092  -0.000012  -0.000000  -0.000000
    25  H   -0.000009   0.000148  -0.000129   0.000061  -0.000000  -0.000000
    26  H    0.001666  -0.000007  -0.000026  -0.000069  -0.000000   0.000000
    27  H    0.000197  -0.000120  -0.000088   0.001791  -0.000000   0.000000
    28  H   -0.000133   0.000023  -0.000005  -0.000123  -0.000000   0.000000
    29  H   -0.027657   0.005178  -0.000014  -0.000384  -0.000000  -0.000000
    30  H   -0.029173  -0.000203  -0.000035   0.001769  -0.000000   0.000000
    31  H    0.656665   0.000058  -0.000510   0.000034  -0.000000  -0.000000
    32  H    0.000058   0.665404  -0.027165  -0.025365  -0.000000   0.000000
    33  H   -0.000510  -0.027165   0.657680  -0.025260   0.000000  -0.000000
    34  H    0.000034  -0.025365  -0.025260   0.654213  -0.000000  -0.000000
    35  C   -0.000000  -0.000000   0.000000  -0.000000   4.521338   0.381196
    36  H   -0.000000   0.000000  -0.000000  -0.000000   0.381196   0.662004
    37  H   -0.000000  -0.000000   0.000000   0.000000   0.373330  -0.024563
    38  H    0.000000  -0.000000   0.000000   0.000000   0.380877  -0.032577
              37         38
     1  C   -0.000000   0.000001
     2  C    0.000020  -0.000037
     3  H    0.000004   0.000019
     4  C    0.000000   0.000000
     5  H   -0.000000   0.000000
     6  H   -0.000000  -0.000000
     7  H    0.000000  -0.000000
     8  C   -0.000004   0.000213
     9  O    0.000043  -0.000020
    10  O    0.002959   0.003037
    11  C   -0.012147  -0.018898
    12  H   -0.001132   0.009133
    13  H   -0.001313  -0.010780
    14  B   -0.000000   0.000001
    15  O    0.000000  -0.000000
    16  O   -0.000000   0.000000
    17  C    0.000000  -0.000000
    18  C   -0.000000   0.000000
    19  C    0.000000   0.000000
    20  C   -0.000000  -0.000000
    21  C   -0.000000   0.000000
    22  C   -0.000000   0.000000
    23  H   -0.000000   0.000000
    24  H   -0.000000   0.000000
    25  H   -0.000000   0.000000
    26  H    0.000000  -0.000000
    27  H   -0.000000  -0.000000
    28  H    0.000000  -0.000000
    29  H   -0.000000   0.000000
    30  H   -0.000000  -0.000000
    31  H   -0.000000   0.000000
    32  H   -0.000000  -0.000000
    33  H    0.000000   0.000000
    34  H    0.000000   0.000000
    35  C    0.373330   0.380877
    36  H   -0.024563  -0.032577
    37  H    0.656237  -0.024210
    38  H   -0.024210   0.661396
          Atomic-Atomic Spin Densities.
               1          2          3          4          5          6
     1  C   -0.000002  -0.000000   0.000000   0.000000   0.000000  -0.000000
     2  C   -0.000000   0.000001  -0.000000  -0.000000   0.000000   0.000000
     3  H    0.000000  -0.000000   0.000000  -0.000000   0.000000  -0.000000
     4  C    0.000000  -0.000000  -0.000000   0.000001  -0.000000  -0.000000
     5  H    0.000000   0.000000   0.000000  -0.000000  -0.000000   0.000000
     6  H   -0.000000   0.000000  -0.000000  -0.000000   0.000000  -0.000000
     7  H    0.000000   0.000000  -0.000000  -0.000000   0.000000   0.000000
     8  C    0.000000   0.000000   0.000000   0.000000  -0.000000   0.000000
     9  O    0.000000  -0.000000   0.000000   0.000000  -0.000000  -0.000000
    10  O   -0.000000  -0.000000   0.000000   0.000000   0.000000  -0.000000
    11  C   -0.000000  -0.000000   0.000000  -0.000000   0.000000  -0.000000
    12  H   -0.000000  -0.000000  -0.000000  -0.000000   0.000000  -0.000000
    13  H    0.000000   0.000000   0.000000  -0.000000  -0.000000   0.000000
    14  B   -0.000000   0.000000   0.000000  -0.000000  -0.000000   0.000000
    15  O    0.000000   0.000000   0.000000   0.000000  -0.000000  -0.000000
    16  O    0.000000   0.000000  -0.000000   0.000000  -0.000000  -0.000000
    17  C   -0.000000   0.000000  -0.000000   0.000000  -0.000000   0.000000
    18  C    0.000000  -0.000000   0.000000  -0.000000  -0.000000   0.000000
    19  C   -0.000000   0.000000  -0.000000   0.000000   0.000000  -0.000000
    20  C   -0.000000   0.000000   0.000000   0.000000  -0.000000   0.000000
    21  C   -0.000000   0.000000   0.000000   0.000000  -0.000000   0.000000
    22  C   -0.000000   0.000000  -0.000000   0.000000  -0.000000  -0.000000
    23  H    0.000000  -0.000000   0.000000  -0.000000  -0.000000   0.000000
    24  H   -0.000000   0.000000  -0.000000  -0.000000   0.000000  -0.000000
    25  H    0.000000  -0.000000   0.000000  -0.000000  -0.000000   0.000000
    26  H    0.000000   0.000000  -0.000000   0.000000   0.000000  -0.000000
    27  H    0.000000  -0.000000  -0.000000  -0.000000   0.000000   0.000000
    28  H   -0.000000   0.000000   0.000000   0.000000  -0.000000   0.000000
    29  H   -0.000000   0.000000   0.000000   0.000000  -0.000000   0.000000
    30  H    0.000000   0.000000  -0.000000  -0.000000   0.000000   0.000000
    31  H    0.000000  -0.000000   0.000000  -0.000000  -0.000000   0.000000
    32  H   -0.000000   0.000000   0.000000  -0.000000   0.000000   0.000000
    33  H    0.000000  -0.000000   0.000000   0.000000  -0.000000   0.000000
    34  H    0.000000  -0.000000   0.000000  -0.000000  -0.000000   0.000000
    35  C   -0.000000  -0.000000  -0.000000  -0.000000   0.000000  -0.000000
    36  H    0.000000   0.000000   0.000000  -0.000000  -0.000000   0.000000
    37  H    0.000000   0.000000  -0.000000  -0.000000   0.000000   0.000000
    38  H    0.000000  -0.000000  -0.000000   0.000000   0.000000  -0.000000
               7          8          9         10         11         12
     1  C    0.000000   0.000000   0.000000  -0.000000  -0.000000  -0.000000
     2  C    0.000000   0.000000  -0.000000  -0.000000  -0.000000  -0.000000
     3  H   -0.000000   0.000000   0.000000   0.000000   0.000000  -0.000000
     4  C   -0.000000   0.000000   0.000000   0.000000  -0.000000  -0.000000
     5  H    0.000000  -0.000000  -0.000000   0.000000   0.000000   0.000000
     6  H    0.000000   0.000000  -0.000000  -0.000000  -0.000000  -0.000000
     7  H   -0.000000   0.000000   0.000000  -0.000000  -0.000000  -0.000000
     8  C    0.000000  -0.000001  -0.000000   0.000000   0.000000  -0.000000
     9  O    0.000000  -0.000000   0.000002   0.000000  -0.000000  -0.000000
    10  O   -0.000000   0.000000   0.000000  -0.000001   0.000000   0.000000
    11  C   -0.000000   0.000000  -0.000000   0.000000   0.000000   0.000000
    12  H   -0.000000  -0.000000  -0.000000   0.000000   0.000000  -0.000000
    13  H    0.000000  -0.000000   0.000000   0.000000  -0.000000   0.000000
    14  B    0.000000  -0.000000  -0.000000  -0.000000   0.000000  -0.000000
    15  O   -0.000000  -0.000000   0.000000  -0.000000  -0.000000   0.000000
    16  O   -0.000000  -0.000000  -0.000000  -0.000000   0.000000   0.000000
    17  C   -0.000000   0.000000  -0.000000  -0.000000  -0.000000   0.000000
    18  C    0.000000  -0.000000  -0.000000  -0.000000   0.000000   0.000000
    19  C   -0.000000   0.000000  -0.000000  -0.000000  -0.000000   0.000000
    20  C    0.000000   0.000000  -0.000000   0.000000   0.000000  -0.000000
    21  C    0.000000  -0.000000  -0.000000  -0.000000  -0.000000   0.000000
    22  C   -0.000000  -0.000000  -0.000000   0.000000  -0.000000  -0.000000
    23  H    0.000000  -0.000000  -0.000000  -0.000000   0.000000  -0.000000
    24  H   -0.000000  -0.000000  -0.000000   0.000000   0.000000  -0.000000
    25  H    0.000000   0.000000   0.000000  -0.000000  -0.000000   0.000000
    26  H   -0.000000   0.000000  -0.000000   0.000000   0.000000  -0.000000
    27  H   -0.000000  -0.000000   0.000000   0.000000   0.000000  -0.000000
    28  H    0.000000   0.000000  -0.000000  -0.000000  -0.000000   0.000000
    29  H   -0.000000  -0.000000  -0.000000  -0.000000  -0.000000   0.000000
    30  H   -0.000000   0.000000   0.000000   0.000000   0.000000  -0.000000
    31  H    0.000000  -0.000000  -0.000000  -0.000000   0.000000  -0.000000
    32  H   -0.000000   0.000000   0.000000   0.000000  -0.000000  -0.000000
    33  H    0.000000  -0.000000  -0.000000  -0.000000  -0.000000   0.000000
    34  H    0.000000  -0.000000   0.000000  -0.000000   0.000000   0.000000
    35  C   -0.000000  -0.000000  -0.000000   0.000000   0.000000  -0.000000
    36  H    0.000000   0.000000   0.000000   0.000000  -0.000000  -0.000000
    37  H   -0.000000  -0.000000  -0.000000   0.000000  -0.000000   0.000000
    38  H   -0.000000   0.000000  -0.000000   0.000000  -0.000000   0.000000
              13         14         15         16         17         18
     1  C    0.000000  -0.000000   0.000000   0.000000  -0.000000   0.000000
     2  C    0.000000   0.000000   0.000000   0.000000   0.000000  -0.000000
     3  H    0.000000   0.000000   0.000000  -0.000000  -0.000000   0.000000
     4  C   -0.000000  -0.000000   0.000000   0.000000   0.000000  -0.000000
     5  H   -0.000000  -0.000000  -0.000000  -0.000000  -0.000000  -0.000000
     6  H    0.000000   0.000000  -0.000000  -0.000000   0.000000   0.000000
     7  H    0.000000   0.000000  -0.000000  -0.000000  -0.000000   0.000000
     8  C   -0.000000  -0.000000  -0.000000  -0.000000   0.000000  -0.000000
     9  O    0.000000  -0.000000   0.000000  -0.000000  -0.000000  -0.000000
    10  O    0.000000  -0.000000  -0.000000  -0.000000  -0.000000  -0.000000
    11  C   -0.000000   0.000000  -0.000000   0.000000  -0.000000   0.000000
    12  H    0.000000  -0.000000   0.000000   0.000000   0.000000   0.000000
    13  H   -0.000000   0.000000  -0.000000  -0.000000  -0.000000  -0.000000
    14  B    0.000000   0.000000   0.000000   0.000000   0.000000   0.000000
    15  O   -0.000000   0.000000  -0.000000  -0.000000   0.000000   0.000000
    16  O   -0.000000   0.000000  -0.000000  -0.000000  -0.000000  -0.000000
    17  C   -0.000000   0.000000   0.000000  -0.000000  -0.000000   0.000000
    18  C   -0.000000   0.000000   0.000000  -0.000000   0.000000  -0.000000
    19  C   -0.000000  -0.000000   0.000000   0.000000  -0.000000   0.000000
    20  C    0.000000   0.000000   0.000000   0.000000   0.000000  -0.000000
    21  C   -0.000000   0.000000   0.000000   0.000000   0.000000  -0.000000
    22  C    0.000000  -0.000000   0.000000   0.000000  -0.000000   0.000000
    23  H    0.000000   0.000000  -0.000000   0.000000  -0.000000  -0.000000
    24  H    0.000000  -0.000000   0.000000   0.000000   0.000000   0.000000
    25  H   -0.000000   0.000000  -0.000000  -0.000000   0.000000  -0.000000
    26  H    0.000000   0.000000  -0.000000  -0.000000  -0.000000   0.000000
    27  H    0.000000  -0.000000  -0.000000  -0.000000  -0.000000   0.000000
    28  H   -0.000000   0.000000   0.000000  -0.000000  -0.000000  -0.000000
    29  H   -0.000000  -0.000000  -0.000000   0.000000   0.000000   0.000000
    30  H    0.000000  -0.000000  -0.000000  -0.000000  -0.000000   0.000000
    31  H    0.000000   0.000000   0.000000  -0.000000  -0.000000  -0.000000
    32  H    0.000000  -0.000000  -0.000000  -0.000000  -0.000000   0.000000
    33  H   -0.000000   0.000000  -0.000000  -0.000000   0.000000  -0.000000
    34  H   -0.000000   0.000000   0.000000  -0.000000   0.000000  -0.000000
    35  C    0.000000   0.000000   0.000000   0.000000   0.000000   0.000000
    36  H    0.000000  -0.000000  -0.000000  -0.000000  -0.000000  -0.000000
    37  H   -0.000000   0.000000   0.000000   0.000000   0.000000   0.000000
    38  H   -0.000000   0.000000   0.000000   0.000000   0.000000   0.000000
              19         20         21         22         23         24
     1  C   -0.000000  -0.000000  -0.000000  -0.000000   0.000000  -0.000000
     2  C    0.000000   0.000000   0.000000   0.000000  -0.000000   0.000000
     3  H   -0.000000   0.000000   0.000000  -0.000000   0.000000  -0.000000
     4  C    0.000000   0.000000   0.000000   0.000000  -0.000000  -0.000000
     5  H    0.000000  -0.000000  -0.000000  -0.000000  -0.000000   0.000000
     6  H   -0.000000   0.000000   0.000000  -0.000000   0.000000  -0.000000
     7  H   -0.000000   0.000000   0.000000  -0.000000   0.000000  -0.000000
     8  C    0.000000   0.000000  -0.000000  -0.000000  -0.000000  -0.000000
     9  O   -0.000000  -0.000000  -0.000000  -0.000000  -0.000000  -0.000000
    10  O   -0.000000   0.000000  -0.000000   0.000000  -0.000000   0.000000
    11  C   -0.000000   0.000000  -0.000000  -0.000000   0.000000   0.000000
    12  H    0.000000  -0.000000   0.000000  -0.000000  -0.000000  -0.000000
    13  H   -0.000000   0.000000  -0.000000   0.000000   0.000000   0.000000
    14  B   -0.000000   0.000000   0.000000  -0.000000   0.000000  -0.000000
    15  O    0.000000   0.000000   0.000000   0.000000  -0.000000   0.000000
    16  O    0.000000   0.000000   0.000000   0.000000   0.000000   0.000000
    17  C   -0.000000   0.000000   0.000000  -0.000000  -0.000000   0.000000
    18  C    0.000000  -0.000000  -0.000000   0.000000  -0.000000   0.000000
    19  C   -0.000000   0.000000   0.000000  -0.000000   0.000000  -0.000000
    20  C    0.000000  -0.000000  -0.000000   0.000000  -0.000000   0.000000
    21  C    0.000000  -0.000000  -0.000000   0.000000   0.000000   0.000000
    22  C   -0.000000   0.000000   0.000000  -0.000000  -0.000000  -0.000000
    23  H    0.000000  -0.000000   0.000000  -0.000000   0.000000  -0.000000
    24  H   -0.000000   0.000000   0.000000  -0.000000  -0.000000   0.000000
    25  H   -0.000000  -0.000000  -0.000000   0.000000  -0.000000   0.000000
    26  H   -0.000000   0.000000   0.000000  -0.000000   0.000000  -0.000000
    27  H   -0.000000  -0.000000   0.000000  -0.000000   0.000000  -0.000000
    28  H   -0.000000  -0.000000  -0.000000   0.000000  -0.000000   0.000000
    29  H   -0.000000   0.000000  -0.000000  -0.000000  -0.000000   0.000000
    30  H   -0.000000   0.000000   0.000000  -0.000000  -0.000000  -0.000000
    31  H    0.000000  -0.000000   0.000000  -0.000000   0.000000  -0.000000
    32  H   -0.000000   0.000000  -0.000000  -0.000000  -0.000000   0.000000
    33  H    0.000000  -0.000000  -0.000000   0.000000  -0.000000   0.000000
    34  H    0.000000  -0.000000  -0.000000  -0.000000   0.000000   0.000000
    35  C    0.000000  -0.000000   0.000000  -0.000000   0.000000  -0.000000
    36  H   -0.000000   0.000000  -0.000000   0.000000   0.000000   0.000000
    37  H    0.000000  -0.000000   0.000000  -0.000000   0.000000   0.000000
    38  H    0.000000  -0.000000   0.000000   0.000000  -0.000000  -0.000000
              25         26         27         28         29         30
     1  C    0.000000   0.000000   0.000000  -0.000000  -0.000000   0.000000
     2  C   -0.000000   0.000000  -0.000000   0.000000   0.000000   0.000000
     3  H    0.000000  -0.000000  -0.000000   0.000000   0.000000  -0.000000
     4  C   -0.000000   0.000000  -0.000000   0.000000   0.000000  -0.000000
     5  H   -0.000000   0.000000   0.000000  -0.000000  -0.000000   0.000000
     6  H    0.000000  -0.000000   0.000000   0.000000   0.000000   0.000000
     7  H    0.000000  -0.000000  -0.000000   0.000000  -0.000000  -0.000000
     8  C    0.000000   0.000000  -0.000000   0.000000  -0.000000   0.000000
     9  O    0.000000  -0.000000   0.000000  -0.000000  -0.000000   0.000000
    10  O   -0.000000   0.000000   0.000000  -0.000000  -0.000000   0.000000
    11  C   -0.000000   0.000000   0.000000  -0.000000  -0.000000   0.000000
    12  H    0.000000  -0.000000  -0.000000   0.000000   0.000000  -0.000000
    13  H   -0.000000   0.000000   0.000000  -0.000000  -0.000000   0.000000
    14  B    0.000000   0.000000  -0.000000   0.000000  -0.000000  -0.000000
    15  O   -0.000000  -0.000000  -0.000000   0.000000  -0.000000  -0.000000
    16  O   -0.000000  -0.000000  -0.000000  -0.000000   0.000000  -0.000000
    17  C    0.000000  -0.000000  -0.000000  -0.000000   0.000000  -0.000000
    18  C   -0.000000   0.000000   0.000000  -0.000000   0.000000   0.000000
    19  C   -0.000000  -0.000000  -0.000000  -0.000000  -0.000000  -0.000000
    20  C   -0.000000   0.000000  -0.000000  -0.000000   0.000000   0.000000
    21  C   -0.000000   0.000000   0.000000  -0.000000  -0.000000   0.000000
    22  C    0.000000  -0.000000  -0.000000   0.000000  -0.000000  -0.000000
    23  H   -0.000000   0.000000   0.000000  -0.000000  -0.000000  -0.000000
    24  H    0.000000  -0.000000  -0.000000   0.000000   0.000000  -0.000000
    25  H    0.000000   0.000000   0.000000  -0.000000   0.000000   0.000000
    26  H    0.000000   0.000000  -0.000000  -0.000000  -0.000000  -0.000000
    27  H    0.000000  -0.000000  -0.000000   0.000000  -0.000000  -0.000000
    28  H   -0.000000  -0.000000   0.000000   0.000000   0.000000   0.000000
    29  H    0.000000  -0.000000  -0.000000   0.000000   0.000000   0.000000
    30  H    0.000000  -0.000000  -0.000000   0.000000   0.000000  -0.000000
    31  H   -0.000000   0.000000   0.000000  -0.000000  -0.000000  -0.000000
    32  H    0.000000  -0.000000  -0.000000   0.000000   0.000000   0.000000
    33  H   -0.000000   0.000000   0.000000  -0.000000  -0.000000   0.000000
    34  H   -0.000000   0.000000   0.000000  -0.000000  -0.000000   0.000000
    35  C    0.000000  -0.000000  -0.000000   0.000000   0.000000  -0.000000
    36  H   -0.000000   0.000000   0.000000  -0.000000  -0.000000   0.000000
    37  H    0.000000  -0.000000   0.000000  -0.000000   0.000000  -0.000000
    38  H    0.000000  -0.000000  -0.000000   0.000000   0.000000  -0.000000
              31         32         33         34         35         36
     1  C    0.000000  -0.000000   0.000000   0.000000  -0.000000   0.000000
     2  C   -0.000000   0.000000  -0.000000  -0.000000  -0.000000   0.000000
     3  H    0.000000   0.000000   0.000000   0.000000  -0.000000   0.000000
     4  C   -0.000000  -0.000000   0.000000  -0.000000  -0.000000  -0.000000
     5  H   -0.000000   0.000000  -0.000000  -0.000000   0.000000  -0.000000
     6  H    0.000000   0.000000   0.000000   0.000000  -0.000000   0.000000
     7  H    0.000000  -0.000000   0.000000   0.000000  -0.000000   0.000000
     8  C   -0.000000   0.000000  -0.000000  -0.000000  -0.000000   0.000000
     9  O   -0.000000   0.000000  -0.000000   0.000000  -0.000000   0.000000
    10  O   -0.000000   0.000000  -0.000000  -0.000000   0.000000   0.000000
    11  C    0.000000  -0.000000  -0.000000   0.000000   0.000000  -0.000000
    12  H   -0.000000  -0.000000   0.000000   0.000000  -0.000000  -0.000000
    13  H    0.000000   0.000000  -0.000000  -0.000000   0.000000   0.000000
    14  B    0.000000  -0.000000   0.000000   0.000000   0.000000  -0.000000
    15  O    0.000000  -0.000000  -0.000000   0.000000   0.000000  -0.000000
    16  O   -0.000000  -0.000000  -0.000000  -0.000000   0.000000  -0.000000
    17  C   -0.000000  -0.000000   0.000000   0.000000   0.000000  -0.000000
    18  C   -0.000000   0.000000  -0.000000  -0.000000   0.000000  -0.000000
    19  C    0.000000  -0.000000   0.000000   0.000000   0.000000  -0.000000
    20  C   -0.000000   0.000000  -0.000000  -0.000000  -0.000000   0.000000
    21  C    0.000000  -0.000000  -0.000000  -0.000000   0.000000  -0.000000
    22  C   -0.000000  -0.000000   0.000000  -0.000000  -0.000000   0.000000
    23  H    0.000000  -0.000000  -0.000000   0.000000   0.000000   0.000000
    24  H   -0.000000   0.000000   0.000000   0.000000  -0.000000   0.000000
    25  H   -0.000000   0.000000  -0.000000  -0.000000   0.000000  -0.000000
    26  H    0.000000  -0.000000   0.000000   0.000000  -0.000000   0.000000
    27  H    0.000000  -0.000000   0.000000   0.000000  -0.000000   0.000000
    28  H   -0.000000   0.000000  -0.000000  -0.000000   0.000000  -0.000000
    29  H   -0.000000   0.000000  -0.000000  -0.000000   0.000000  -0.000000
    30  H   -0.000000   0.000000   0.000000   0.000000  -0.000000   0.000000
    31  H    0.000000  -0.000000   0.000000   0.000000   0.000000   0.000000
    32  H   -0.000000   0.000000  -0.000000  -0.000000  -0.000000   0.000000
    33  H    0.000000  -0.000000   0.000000  -0.000000   0.000000  -0.000000
    34  H    0.000000  -0.000000  -0.000000   0.000000   0.000000  -0.000000
    35  C    0.000000  -0.000000   0.000000   0.000000  -0.000000   0.000000
    36  H    0.000000   0.000000  -0.000000  -0.000000   0.000000   0.000000
    37  H    0.000000  -0.000000   0.000000   0.000000  -0.000000  -0.000000
    38  H   -0.000000  -0.000000   0.000000  -0.000000  -0.000000  -0.000000
              37         38
     1  C    0.000000   0.000000
     2  C    0.000000  -0.000000
     3  H   -0.000000  -0.000000
     4  C   -0.000000   0.000000
     5  H    0.000000   0.000000
     6  H    0.000000  -0.000000
     7  H   -0.000000  -0.000000
     8  C   -0.000000   0.000000
     9  O   -0.000000  -0.000000
    10  O    0.000000   0.000000
    11  C   -0.000000  -0.000000
    12  H    0.000000   0.000000
    13  H   -0.000000  -0.000000
    14  B    0.000000   0.000000
    15  O    0.000000   0.000000
    16  O    0.000000   0.000000
    17  C    0.000000   0.000000
    18  C    0.000000   0.000000
    19  C    0.000000   0.000000
    20  C   -0.000000  -0.000000
    21  C    0.000000   0.000000
    22  C   -0.000000   0.000000
    23  H    0.000000  -0.000000
    24  H    0.000000  -0.000000
    25  H    0.000000   0.000000
    26  H   -0.000000  -0.000000
    27  H    0.000000  -0.000000
    28  H   -0.000000   0.000000
    29  H    0.000000   0.000000
    30  H   -0.000000  -0.000000
    31  H    0.000000  -0.000000
    32  H   -0.000000  -0.000000
    33  H    0.000000   0.000000
    34  H    0.000000  -0.000000
    35  C   -0.000000  -0.000000
    36  H   -0.000000  -0.000000
    37  H    0.000000  -0.000000
    38  H   -0.000000   0.000000
 Mulliken charges and spin densities:
               1          2
     1  C   -0.059393  -0.000002
     2  C   -0.102792   0.000001
     3  H    0.031417   0.000000
     4  C    0.020293   0.000000
     5  H    0.071248  -0.000000
     6  H    0.029977  -0.000000
     7  H    0.041597  -0.000000
     8  C    0.242391  -0.000001
     9  O   -0.320371   0.000002
    10  O   -0.284840  -0.000000
    11  C    0.113684   0.000000
    12  H    0.026939  -0.000000
    13  H    0.027031  -0.000000
    14  B    0.118367   0.000000
    15  O   -0.217080  -0.000000
    16  O   -0.224547  -0.000000
    17  C   -0.087506  -0.000000
    18  C   -0.088986  -0.000000
    19  C    0.065885  -0.000000
    20  C    0.069586  -0.000000
    21  C    0.064974  -0.000000
    22  C    0.069048  -0.000000
    23  H    0.029154   0.000000
    24  H    0.025642   0.000000
    25  H    0.027035  -0.000000
    26  H    0.023250   0.000000
    27  H    0.032670  -0.000000
    28  H    0.024317   0.000000
    29  H    0.023500   0.000000
    30  H    0.027875  -0.000000
    31  H    0.027005   0.000000
    32  H    0.023232   0.000000
    33  H    0.024304   0.000000
    34  H    0.034058   0.000000
    35  C   -0.023354  -0.000000
    36  H    0.031769   0.000000
    37  H    0.030775   0.000000
    38  H    0.031846   0.000000
 Sum of Mulliken charges =  -0.00000  -0.00000
 Mulliken charges and spin densities with hydrogens summed into heavy atoms:
               1          2
     1  C   -0.059393  -0.000002
     2  C   -0.071375   0.000001
     4  C    0.163114  -0.000000
     8  C    0.242391  -0.000001
     9  O   -0.320371   0.000002
    10  O   -0.284840  -0.000000
    11  C    0.167654   0.000000
    14  B    0.118367   0.000000
    15  O   -0.217080  -0.000000
    16  O   -0.224547  -0.000000
    17  C   -0.087506  -0.000000
    18  C   -0.088986  -0.000000
    19  C    0.147716  -0.000000
    20  C    0.149823  -0.000000
    21  C    0.143355  -0.000000
    22  C    0.150642   0.000000
    35  C    0.071037  -0.000000
 Electronic spatial extent (au):  <R**2>=          10062.8365
 Charge=             -0.0000 electrons
 Dipole moment (field-independent basis, Debye):
    X=             -1.8008    Y=             -1.9214    Z=             -1.3999  Tot=              2.9823
 Quadrupole moment (field-independent basis, Debye-Ang):
   XX=            -76.7749   YY=            -99.1471   ZZ=           -105.6802
   XY=              8.0412   XZ=              3.3344   YZ=             -5.7193
 Traceless Quadrupole moment (field-independent basis, Debye-Ang):
   XX=             17.0925   YY=             -5.2797   ZZ=            -11.8128
   XY=              8.0412   XZ=              3.3344   YZ=             -5.7193
 Octapole moment (field-independent basis, Debye-Ang**2):
  XXX=            639.5331  YYY=           -373.5406  ZZZ=            -77.4871  XYY=            296.9039
  XXY=           -157.6460  XXZ=            -25.4391  XZZ=            283.9850  YZZ=           -156.9127
  YYZ=            -53.1717  XYZ=              8.4151
 Hexadecapole moment (field-independent basis, Debye-Ang**3):
 XXXX=          -6893.9450 YYYY=          -3892.5574 ZZZZ=           -832.6747 XXXY=             69.7979
 XXXZ=            276.7550 YYYX=            146.9862 YYYZ=             63.3104 ZZZX=            316.4616
 ZZZY=            184.4624 XXYY=          -2081.8896 XXZZ=          -1499.6321 YYZZ=           -921.5109
 XXYZ=             58.6510 YYXZ=            141.1061 ZZXY=             28.3177
 N-N= 1.259610182284D+03 E-N=-4.375784960440D+03  KE= 7.902586672023D+02

 Atomic contributions to Alpha molecular orbitals:
 Alpha occ 46 OE=-0.405 is C20-p=0.2103 C22-p=0.1341 H28-s=0.1267
 Alpha occ 47 OE=-0.400 is C21-p=0.1706 H29-s=0.1110 C19-p=0.1065
 Alpha occ 48 OE=-0.400 is C19-p=0.1470 C21-p=0.1023
 Alpha occ 49 OE=-0.395 is C35-p=0.1627 C11-p=0.1306 O9-p=0.1163
 Alpha occ 50 OE=-0.392 is C35-p=0.2200 H37-s=0.1520
 Alpha occ 51 OE=-0.384 is C35-p=0.1976 H37-s=0.1378
 Alpha occ 52 OE=-0.377 is C20-p=0.1553 C22-p=0.1116
 Alpha occ 53 OE=-0.372 is C19-p=0.1623 C21-p=0.1499 H24-s=0.1210 H29-s=0.1119
 Alpha occ 54 OE=-0.368 is C19-p=0.1254 C21-p=0.1206
 Alpha occ 55 OE=-0.357 is C35-p=0.0755
 Alpha occ 56 OE=-0.354 is C20-p=0.0718
 Alpha occ 57 OE=-0.350 is C35-p=0.0907
 Alpha occ 58 OE=-0.344 is O10-p=0.2915 C11-p=0.1562 C35-p=0.1065
 Alpha occ 59 OE=-0.342 is O16-p=0.1937 O15-p=0.1741 B14-p=0.1377
 Alpha occ 60 OE=-0.340 is O15-p=0.3371 O16-p=0.3206
 Alpha occ 61 OE=-0.316 is C18-p=0.1760 C17-p=0.1758
 Alpha occ 62 OE=-0.292 is O10-p=0.4707 O9-p=0.2948
 Alpha occ 63 OE=-0.279 is O15-p=0.2994 O16-p=0.2851
 Alpha occ 64 OE=-0.269 is O9-p=0.7544
 Alpha occ 65 OE=-0.192 is C2-p=0.4037 C1-p=0.2657
 Alpha vir 66 OE=-0.138 is C1-p=0.3855 C2-p=0.2661
 Alpha vir 67 OE=0.047 is H34-s=0.1545 H27-s=0.1422 H30-s=0.1035
 Alpha vir 68 OE=0.058 is C8-p=0.4116 O9-p=0.1445 C2-p=0.1096
 Alpha vir 69 OE=0.071 is B14-p=0.2742 H13-s=0.1323 H37-s=0.1208 H12-s=0.1175
 Alpha vir 70 OE=0.072 is B14-p=0.2168 H3-s=0.1442 H13-s=0.1050
 Alpha vir 71 OE=0.082 is H5-s=0.2550 H7-s=0.1936 H6-s=0.1175
 Alpha vir 72 OE=0.086 is H27-s=0.1147 H34-s=0.1090
 Alpha vir 73 OE=0.094 is H29-s=0.2925 H32-s=0.2299 H24-s=0.2005 H28-s=0.1170
 Alpha vir 74 OE=0.100 is H26-s=0.2658 H31-s=0.2233 H32-s=0.1544 H30-s=0.1125
 Alpha vir 75 OE=0.101 is H23-s=0.2317 H28-s=0.2245 H33-s=0.1963
 Alpha vir 76 OE=0.113 is H38-s=0.2295 H12-s=0.2182 H36-s=0.1606 H13-s=0.1259
 Alpha vir 77 OE=0.118 is H3-s=0.3574 H24-s=0.1173
 Alpha vir 78 OE=0.119 is H13-s=0.2071 H36-s=0.1726 H34-s=0.1072
 Alpha vir 79 OE=0.121 is H38-s=0.2634 H12-s=0.2487 H36-s=0.1701 H13-s=0.1422
 Alpha vir 80 OE=0.125 is H3-s=0.2853 H30-s=0.1918 H25-s=0.1908
 Alpha vir 81 OE=0.131 is H37-s=0.3537
 Alpha vir 82 OE=0.132 is H32-s=0.0849
 Alpha vir 83 OE=0.137 is H7-s=0.3375 H5-s=0.2918
 Alpha vir 84 OE=0.142 is H6-s=0.2902 H26-s=0.1517
 Alpha vir 85 OE=0.147 is H23-s=0.1647 H33-s=0.1401 H31-s=0.1059 H37-s=0.1049

 Atomic contributions to Beta  molecular orbitals:
 Beta  occ 46 OE=-0.405 is C20-p=0.2103 C22-p=0.1341 H28-s=0.1267
 Beta  occ 47 OE=-0.400 is C21-p=0.1706 H29-s=0.1110 C19-p=0.1065
 Beta  occ 48 OE=-0.400 is C19-p=0.1470 C21-p=0.1023
 Beta  occ 49 OE=-0.395 is C35-p=0.1627 C11-p=0.1306 O9-p=0.1163
 Beta  occ 50 OE=-0.392 is C35-p=0.2200 H37-s=0.1520
 Beta  occ 51 OE=-0.384 is C35-p=0.1976 H37-s=0.1378
 Beta  occ 52 OE=-0.377 is C20-p=0.1553 C22-p=0.1116
 Beta  occ 53 OE=-0.372 is C19-p=0.1623 C21-p=0.1499 H24-s=0.1210 H29-s=0.1119
 Beta  occ 54 OE=-0.368 is C19-p=0.1254 C21-p=0.1206
 Beta  occ 55 OE=-0.357 is C35-p=0.0755
 Beta  occ 56 OE=-0.354 is C20-p=0.0718
 Beta  occ 57 OE=-0.350 is C35-p=0.0907
 Beta  occ 58 OE=-0.344 is O10-p=0.2915 C11-p=0.1562 C35-p=0.1065
 Beta  occ 59 OE=-0.342 is O16-p=0.1937 O15-p=0.1741 B14-p=0.1377
 Beta  occ 60 OE=-0.340 is O15-p=0.3371 O16-p=0.3206
 Beta  occ 61 OE=-0.316 is C18-p=0.1760 C17-p=0.1758
 Beta  occ 62 OE=-0.292 is O10-p=0.4707 O9-p=0.2948
 Beta  occ 63 OE=-0.279 is O15-p=0.2994 O16-p=0.2851
 Beta  occ 64 OE=-0.269 is O9-p=0.7544
 Beta  occ 65 OE=-0.192 is C2-p=0.4037 C1-p=0.2657
 Beta  vir 66 OE=-0.138 is C1-p=0.3855 C2-p=0.2661
 Beta  vir 67 OE=0.047 is H34-s=0.1545 H27-s=0.1422 H30-s=0.1035
 Beta  vir 68 OE=0.058 is C8-p=0.4116 O9-p=0.1445 C2-p=0.1096
 Beta  vir 69 OE=0.071 is B14-p=0.2742 H13-s=0.1323 H37-s=0.1208 H12-s=0.1175
 Beta  vir 70 OE=0.072 is B14-p=0.2168 H3-s=0.1442 H13-s=0.1050
 Beta  vir 71 OE=0.082 is H5-s=0.2550 H7-s=0.1936 H6-s=0.1175
 Beta  vir 72 OE=0.086 is H27-s=0.1147 H34-s=0.1090
 Beta  vir 73 OE=0.094 is H29-s=0.2925 H32-s=0.2299 H24-s=0.2005 H28-s=0.1170
 Beta  vir 74 OE=0.100 is H26-s=0.2658 H31-s=0.2233 H32-s=0.1544 H30-s=0.1125
 Beta  vir 75 OE=0.101 is H23-s=0.2317 H28-s=0.2245 H33-s=0.1963
 Beta  vir 76 OE=0.113 is H38-s=0.2295 H12-s=0.2182 H36-s=0.1606 H13-s=0.1259
 Beta  vir 77 OE=0.118 is H3-s=0.3574 H24-s=0.1173
 Beta  vir 78 OE=0.119 is H13-s=0.2071 H36-s=0.1726 H34-s=0.1072
 Beta  vir 79 OE=0.121 is H38-s=0.2634 H12-s=0.2487 H36-s=0.1701 H13-s=0.1422
 Beta  vir 80 OE=0.125 is H3-s=0.2853 H30-s=0.1918 H25-s=0.1908
 Beta  vir 81 OE=0.131 is H37-s=0.3537
 Beta  vir 82 OE=0.132 is H32-s=0.0849
 Beta  vir 83 OE=0.137 is H7-s=0.3375 H5-s=0.2918
 Beta  vir 84 OE=0.142 is H6-s=0.2902 H26-s=0.1517
 Beta  vir 85 OE=0.147 is H23-s=0.1647 H33-s=0.1401 H31-s=0.1059 H37-s=0.1049
 
                          Isotropic Fermi Contact Couplings
        Atom                 a.u.       MegaHertz       Gauss      10(-4) cm-1
     1  C(13)             -0.00000      -0.00004      -0.00002      -0.00001
     2  C(13)             -0.00000      -0.00008      -0.00003      -0.00003
     3  H(1)               0.00000       0.00016       0.00006       0.00005
     4  C(13)              0.00000       0.00015       0.00005       0.00005
     5  H(1)              -0.00000      -0.00013      -0.00005      -0.00004
     6  H(1)              -0.00000      -0.00005      -0.00002      -0.00002
     7  H(1)              -0.00000      -0.00021      -0.00007      -0.00007
     8  C(13)             -0.00000      -0.00020      -0.00007      -0.00007
     9  O(17)              0.00000      -0.00021      -0.00008      -0.00007
    10  O(17)             -0.00000       0.00014       0.00005       0.00005
    11  C(13)              0.00000       0.00004       0.00001       0.00001
    12  H(1)              -0.00000      -0.00002      -0.00001      -0.00001
    13  H(1)              -0.00000      -0.00003      -0.00001      -0.00001
    14  B(11)              0.00000       0.00007       0.00002       0.00002
    15  O(17)             -0.00000       0.00005       0.00002       0.00002
    16  O(17)             -0.00000       0.00001       0.00000       0.00000
    17  C(13)             -0.00000      -0.00000      -0.00000      -0.00000
    18  C(13)             -0.00000      -0.00000      -0.00000      -0.00000
    19  C(13)             -0.00000      -0.00000      -0.00000      -0.00000
    20  C(13)             -0.00000      -0.00000      -0.00000      -0.00000
    21  C(13)             -0.00000      -0.00000      -0.00000      -0.00000
    22  C(13)             -0.00000      -0.00000      -0.00000      -0.00000
    23  H(1)               0.00000       0.00000       0.00000       0.00000
    24  H(1)               0.00000       0.00000       0.00000       0.00000
    25  H(1)              -0.00000      -0.00000      -0.00000      -0.00000
    26  H(1)               0.00000       0.00000       0.00000       0.00000
    27  H(1)              -0.00000      -0.00000      -0.00000      -0.00000
    28  H(1)               0.00000       0.00000       0.00000       0.00000
    29  H(1)               0.00000       0.00000       0.00000       0.00000
    30  H(1)              -0.00000      -0.00000      -0.00000      -0.00000
    31  H(1)               0.00000       0.00000       0.00000       0.00000
    32  H(1)               0.00000       0.00000       0.00000       0.00000
    33  H(1)               0.00000       0.00000       0.00000       0.00000
    34  H(1)               0.00000       0.00000       0.00000       0.00000
    35  C(13)             -0.00000      -0.00001      -0.00000      -0.00000
    36  H(1)               0.00000       0.00000       0.00000       0.00000
    37  H(1)               0.00000       0.00001       0.00000       0.00000
    38  H(1)               0.00000       0.00001       0.00000       0.00000
 --------------------------------------------------------
       Center         ----  Spin Dipole Couplings  ----
                      3XX-RR        3YY-RR        3ZZ-RR
 --------------------------------------------------------
     1   Atom        0.000001     -0.000001      0.000000
     2   Atom        0.000000     -0.000001      0.000000
     3   Atom        0.000000     -0.000000     -0.000000
     4   Atom        0.000000     -0.000000      0.000000
     5   Atom       -0.000000      0.000000      0.000000
     6   Atom        0.000000      0.000000     -0.000000
     7   Atom        0.000000      0.000000     -0.000000
     8   Atom       -0.000000      0.000000      0.000000
     9   Atom        0.000003     -0.000002     -0.000001
    10   Atom       -0.000001      0.000001      0.000001
    11   Atom       -0.000000      0.000000     -0.000000
    12   Atom        0.000000     -0.000000     -0.000000
    13   Atom        0.000000     -0.000000      0.000000
    14   Atom        0.000000     -0.000000     -0.000000
    15   Atom        0.000001     -0.000000     -0.000000
    16   Atom        0.000000     -0.000000     -0.000000
    17   Atom       -0.000000      0.000000      0.000000
    18   Atom       -0.000000      0.000000     -0.000000
    19   Atom        0.000000     -0.000000     -0.000000
    20   Atom       -0.000000      0.000000     -0.000000
    21   Atom        0.000000     -0.000000     -0.000000
    22   Atom       -0.000000      0.000000      0.000000
    23   Atom        0.000000      0.000000     -0.000000
    24   Atom        0.000000     -0.000000      0.000000
    25   Atom       -0.000000      0.000000      0.000000
    26   Atom       -0.000000      0.000000     -0.000000
    27   Atom       -0.000000      0.000000      0.000000
    28   Atom       -0.000000      0.000000     -0.000000
    29   Atom        0.000000     -0.000000      0.000000
    30   Atom       -0.000000      0.000000      0.000000
    31   Atom       -0.000000      0.000000      0.000000
    32   Atom       -0.000000      0.000000      0.000000
    33   Atom       -0.000000      0.000000     -0.000000
    34   Atom       -0.000000      0.000000      0.000000
    35   Atom        0.000000     -0.000000      0.000000
    36   Atom        0.000000     -0.000000     -0.000000
    37   Atom        0.000000     -0.000000      0.000000
    38   Atom       -0.000000     -0.000000      0.000000
 --------------------------------------------------------
                        XY            XZ            YZ
 --------------------------------------------------------
     1   Atom        0.000001      0.000001     -0.000001
     2   Atom       -0.000000      0.000001     -0.000000
     3   Atom       -0.000000     -0.000000      0.000000
     4   Atom       -0.000000      0.000000     -0.000000
     5   Atom        0.000000     -0.000000      0.000000
     6   Atom        0.000000     -0.000000     -0.000000
     7   Atom       -0.000000     -0.000000      0.000000
     8   Atom        0.000000     -0.000001      0.000000
     9   Atom       -0.000003      0.000004     -0.000002
    10   Atom        0.000000     -0.000001      0.000000
    11   Atom        0.000000      0.000000      0.000000
    12   Atom        0.000000     -0.000000     -0.000000
    13   Atom        0.000000      0.000000     -0.000000
    14   Atom       -0.000000     -0.000000     -0.000000
    15   Atom        0.000000     -0.000000     -0.000001
    16   Atom        0.000000      0.000000     -0.000000
    17   Atom       -0.000000      0.000000      0.000000
    18   Atom       -0.000000     -0.000000      0.000000
    19   Atom        0.000000      0.000000     -0.000000
    20   Atom        0.000000     -0.000000     -0.000000
    21   Atom       -0.000000     -0.000000     -0.000000
    22   Atom       -0.000000      0.000000      0.000000
    23   Atom        0.000000      0.000000     -0.000000
    24   Atom        0.000000      0.000000      0.000000
    25   Atom        0.000000      0.000000     -0.000000
    26   Atom       -0.000000     -0.000000     -0.000000
    27   Atom        0.000000     -0.000000      0.000000
    28   Atom        0.000000     -0.000000      0.000000
    29   Atom       -0.000000     -0.000000      0.000000
    30   Atom       -0.000000     -0.000000     -0.000000
    31   Atom       -0.000000     -0.000000     -0.000000
    32   Atom       -0.000000      0.000000      0.000000
    33   Atom        0.000000      0.000000     -0.000000
    34   Atom       -0.000000      0.000000      0.000000
    35   Atom       -0.000000      0.000000      0.000000
    36   Atom       -0.000000     -0.000000      0.000000
    37   Atom        0.000000     -0.000000     -0.000000
    38   Atom       -0.000000     -0.000000      0.000000
 --------------------------------------------------------


 ---------------------------------------------------------------------------------
              Anisotropic Spin Dipole Couplings in Principal Axis System
 ---------------------------------------------------------------------------------

       Atom             a.u.   MegaHertz   Gauss  10(-4) cm-1        Axes

              Baa    -0.0000    -0.000    -0.000    -0.000 -0.3310  0.7546  0.5666
     1 C(13)  Bbb     0.0000     0.000     0.000     0.000 -0.2984 -0.6534  0.6958
              Bcc     0.0000     0.000     0.000     0.000  0.8952  0.0612  0.4414
 
              Baa    -0.0000    -0.000    -0.000    -0.000 -0.6688 -0.0129  0.7434
     2 C(13)  Bbb    -0.0000    -0.000    -0.000    -0.000 -0.0008  0.9999  0.0166
              Bcc     0.0000     0.000     0.000     0.000  0.7435 -0.0105  0.6687
 
              Baa    -0.0000    -0.000    -0.000    -0.000  0.2498  0.8449 -0.4731
     3 H(1)   Bbb    -0.0000    -0.000    -0.000    -0.000  0.2524  0.4149  0.8742
              Bcc     0.0000     0.000     0.000     0.000  0.9348 -0.3378 -0.1096
 
              Baa    -0.0000    -0.000    -0.000    -0.000 -0.1418  0.8100  0.5690
     4 C(13)  Bbb     0.0000     0.000     0.000     0.000  0.9461  0.2800 -0.1628
              Bcc     0.0000     0.000     0.000     0.000  0.2912 -0.5153  0.8060
 
              Baa    -0.0000    -0.000    -0.000    -0.000  0.9095 -0.1297  0.3951
     5 H(1)   Bbb    -0.0000    -0.000    -0.000    -0.000 -0.4120 -0.4093  0.8141
              Bcc     0.0000     0.000     0.000     0.000 -0.0561  0.9031  0.4257
 
              Baa    -0.0000    -0.000    -0.000    -0.000  0.6638 -0.3190  0.6764
     6 H(1)   Bbb    -0.0000    -0.000    -0.000    -0.000 -0.3907  0.6233  0.6774
              Bcc     0.0000     0.000     0.000     0.000  0.6377  0.7140 -0.2891
 
              Baa    -0.0000    -0.000    -0.000    -0.000  0.5812  0.0685  0.8108
     7 H(1)   Bbb    -0.0000    -0.000    -0.000    -0.000  0.5299  0.7243 -0.4411
              Bcc     0.0000     0.000     0.000     0.000 -0.6175  0.6861  0.3847
 
              Baa    -0.0000    -0.000    -0.000    -0.000  0.7897 -0.2347  0.5668
     8 C(13)  Bbb     0.0000     0.000     0.000     0.000  0.4788  0.8134 -0.3303
              Bcc     0.0000     0.000     0.000     0.000 -0.3835  0.5322  0.7547
 
              Baa    -0.0000     0.000     0.000     0.000  0.4514  0.8879 -0.0882
     9 O(17)  Bbb    -0.0000     0.000     0.000     0.000 -0.4164  0.2970  0.8593
              Bcc     0.0000    -0.000    -0.000    -0.000  0.7892 -0.3512  0.5039
 
              Baa    -0.0000     0.000     0.000     0.000  0.8971 -0.1661  0.4093
    10 O(17)  Bbb     0.0000    -0.000    -0.000    -0.000 -0.0327  0.8991  0.4365
              Bcc     0.0000    -0.000    -0.000    -0.000 -0.4406 -0.4050  0.8012
 
              Baa    -0.0000    -0.000    -0.000    -0.000 -0.0800 -0.0553  0.9953
    11 C(13)  Bbb    -0.0000    -0.000    -0.000    -0.000  0.9929 -0.0927  0.0747
              Bcc     0.0000     0.000     0.000     0.000  0.0882  0.9942  0.0623
 
              Baa    -0.0000    -0.000    -0.000    -0.000 -0.0379  0.7692  0.6379
    12 H(1)   Bbb     0.0000     0.000     0.000     0.000  0.8749 -0.2829  0.3930
              Bcc     0.0000     0.000     0.000     0.000 -0.4827 -0.5730  0.6623
 
              Baa    -0.0000    -0.000    -0.000    -0.000 -0.3350  0.8150  0.4729
    13 H(1)   Bbb     0.0000     0.000     0.000     0.000  0.6998 -0.1209  0.7040
              Bcc     0.0000     0.000     0.000     0.000  0.6309  0.5668 -0.5298
 
              Baa    -0.0000    -0.000    -0.000    -0.000  0.4359  0.6086  0.6630
    14 B(11)  Bbb     0.0000     0.000     0.000     0.000  0.0452  0.7210 -0.6915
              Bcc     0.0000     0.000     0.000     0.000  0.8989 -0.3314 -0.2868
 
              Baa    -0.0000     0.000     0.000     0.000  0.0181  0.7823  0.6226
    15 O(17)  Bbb     0.0000    -0.000    -0.000    -0.000  0.4460 -0.5636  0.6953
              Bcc     0.0000    -0.000    -0.000    -0.000  0.8949  0.2651 -0.3591
 
              Baa    -0.0000     0.000     0.000     0.000 -0.1674  0.7981  0.5789
    16 O(17)  Bbb     0.0000    -0.000    -0.000    -0.000 -0.2032 -0.6025  0.7718
              Bcc     0.0000    -0.000    -0.000    -0.000  0.9647  0.0116  0.2630
 
              Baa    -0.0000    -0.000    -0.000    -0.000  0.9640  0.1515 -0.2187
    17 C(13)  Bbb     0.0000     0.000     0.000     0.000  0.2137  0.0484  0.9757
              Bcc     0.0000     0.000     0.000     0.000 -0.1584  0.9873 -0.0142
 
              Baa    -0.0000    -0.000    -0.000    -0.000  0.7622  0.0630  0.6443
    18 C(13)  Bbb     0.0000     0.000     0.000     0.000 -0.5835 -0.3643  0.7259
              Bcc     0.0000     0.000     0.000     0.000 -0.2804  0.9292  0.2409
 
              Baa    -0.0000    -0.000    -0.000    -0.000 -0.5591  0.6294  0.5397
    19 C(13)  Bbb     0.0000     0.000     0.000     0.000  0.2923 -0.4596  0.8387
              Bcc     0.0000     0.000     0.000     0.000  0.7759  0.6266  0.0730
 
              Baa    -0.0000    -0.000    -0.000    -0.000  0.7586 -0.1148  0.6414
    20 C(13)  Bbb     0.0000     0.000     0.000     0.000 -0.1787  0.9100  0.3742
              Bcc     0.0000     0.000     0.000     0.000 -0.6266 -0.3984  0.6697
 
              Baa    -0.0000    -0.000    -0.000    -0.000  0.3549  0.7777  0.5190
    21 C(13)  Bbb     0.0000     0.000     0.000     0.000 -0.1166 -0.5139  0.8499
              Bcc     0.0000     0.000     0.000     0.000  0.9276 -0.3621 -0.0917
 
              Baa    -0.0000    -0.000    -0.000    -0.000  0.8159  0.2821 -0.5048
    22 C(13)  Bbb     0.0000     0.000     0.000     0.000 -0.3394  0.9404 -0.0230
              Bcc     0.0000     0.000     0.000     0.000  0.4682  0.1901  0.8630
 
              Baa    -0.0000    -0.000    -0.000    -0.000  0.6571 -0.6426 -0.3941
    23 H(1)   Bbb    -0.0000    -0.000    -0.000    -0.000  0.3216 -0.2339  0.9176
              Bcc     0.0000     0.000     0.000     0.000  0.6818  0.7296 -0.0530
 
              Baa    -0.0000    -0.000    -0.000    -0.000 -0.4928  0.8701 -0.0001
    24 H(1)   Bbb     0.0000     0.000     0.000     0.000 -0.3335 -0.1887  0.9237
              Bcc     0.0000     0.000     0.000     0.000  0.8037  0.4552  0.3832
 
              Baa    -0.0000    -0.000    -0.000    -0.000  0.8685 -0.4477 -0.2127
    25 H(1)   Bbb     0.0000     0.000     0.000     0.000  0.1283 -0.2116  0.9689
              Bcc     0.0000     0.000     0.000     0.000  0.4788  0.8688  0.1263
 
              Baa    -0.0000    -0.000    -0.000    -0.000  0.5794  0.2408  0.7787
    26 H(1)   Bbb     0.0000     0.000     0.000     0.000  0.6900 -0.6534 -0.3114
              Bcc     0.0000     0.000     0.000     0.000  0.4338  0.7177 -0.5447
 
              Baa    -0.0000    -0.000    -0.000    -0.000  0.9320 -0.0597  0.3575
    27 H(1)   Bbb     0.0000     0.000     0.000     0.000 -0.3493 -0.4108  0.8421
              Bcc     0.0000     0.000     0.000     0.000 -0.0965  0.9098  0.4038
 
              Baa    -0.0000    -0.000    -0.000    -0.000  0.6175 -0.4964  0.6101
    28 H(1)   Bbb     0.0000     0.000     0.000     0.000  0.7676  0.2111 -0.6051
              Bcc     0.0000     0.000     0.000     0.000  0.1716  0.8420  0.5114
 
              Baa    -0.0000    -0.000    -0.000    -0.000  0.4689  0.8824  0.0376
    29 H(1)   Bbb     0.0000     0.000     0.000     0.000  0.7693 -0.4290  0.4735
              Bcc     0.0000     0.000     0.000     0.000 -0.4339  0.1931  0.8800
 
              Baa    -0.0000    -0.000    -0.000    -0.000  0.8525  0.4480  0.2695
    30 H(1)   Bbb     0.0000     0.000     0.000     0.000 -0.4937  0.8594  0.1331
              Bcc     0.0000     0.000     0.000     0.000 -0.1720 -0.2465  0.9538
 
              Baa    -0.0000    -0.000    -0.000    -0.000  0.5339  0.6213  0.5735
    31 H(1)   Bbb     0.0000     0.000     0.000     0.000  0.8347 -0.2788 -0.4750
              Bcc     0.0000     0.000     0.000     0.000 -0.1352  0.7323 -0.6674
 
              Baa    -0.0000    -0.000    -0.000    -0.000  0.7879  0.4124 -0.4572
    32 H(1)   Bbb     0.0000     0.000     0.000     0.000  0.6157 -0.5258  0.5869
              Bcc     0.0000     0.000     0.000     0.000 -0.0016  0.7440  0.6682
 
              Baa    -0.0000    -0.000    -0.000    -0.000  0.8222 -0.1431 -0.5509
    33 H(1)   Bbb     0.0000     0.000     0.000     0.000  0.5088 -0.2491  0.8241
              Bcc     0.0000     0.000     0.000     0.000  0.2552  0.9578  0.1320
 
              Baa    -0.0000    -0.000    -0.000    -0.000  0.9632  0.1097 -0.2455
    34 H(1)   Bbb     0.0000     0.000     0.000     0.000  0.2680 -0.4662  0.8431
              Bcc     0.0000     0.000     0.000     0.000  0.0219  0.8779  0.4784
 
              Baa    -0.0000    -0.000    -0.000    -0.000  0.5299  0.7319 -0.4284
    35 C(13)  Bbb     0.0000     0.000     0.000     0.000 -0.6044  0.6803  0.4146
              Bcc     0.0000     0.000     0.000     0.000  0.5949  0.0392  0.8029
 
              Baa    -0.0000    -0.000    -0.000    -0.000  0.2597 -0.6578  0.7069
    36 H(1)   Bbb    -0.0000    -0.000    -0.000    -0.000  0.6518  0.6596  0.3743
              Bcc     0.0000     0.000     0.000     0.000  0.7126 -0.3635 -0.6001
 
              Baa    -0.0000    -0.000    -0.000    -0.000  0.0095  0.9688  0.2476
    37 H(1)   Bbb     0.0000     0.000     0.000     0.000  0.8478 -0.1391  0.5117
              Bcc     0.0000     0.000     0.000     0.000 -0.5302 -0.2051  0.8227
 
              Baa    -0.0000    -0.000    -0.000    -0.000  0.8219  0.5669 -0.0563
    38 H(1)   Bbb    -0.0000    -0.000    -0.000    -0.000 -0.5547  0.7739 -0.3055
              Bcc     0.0000     0.000     0.000     0.000 -0.1296  0.2824  0.9505
 

 ---------------------------------------------------------------------------------

 No NMR shielding tensors so no spin-rotation constants.
 Leave Link  601 at Tue Aug 18 20:52:13 2026, MaxMem=  2684354560 cpu:               9.6 elap:               0.4
 (Enter /mnt/data/applications/G16/g16/l9999.exe)
 1\1\GINC-KIMIK2194\SP\UB3LYP\Gen\C12H21B1O4\ASOLE\18-Aug-2026\0\\#p b3
 lyp/gen EmpiricalDispersion=GD3BJ pseudo=read scrf=(solvent=acetonitri
 le,pcm,read) nosymm pop=(Orbitals=20) geom=checkpoint guess=read\\Titl
 e Card Required\\0,1\C,0,-1.28308,0.59828,0.6766\C,0,-0.61773,1.61222,
 -0.13327\H,0,-0.11423,1.35848,-1.0727\C,0,-0.48915,-0.09172,1.74772\H,
 0,-0.13495,0.64533,2.49399\H,0,-1.08769,-0.8544,2.26466\H,0,0.4188,-0.
 56644,1.33247\C,0,-0.63046,3.00635,0.27483\O,0,-1.18242,3.43149,1.2858
 6\O,0,0.03867,3.79844,-0.59763\C,0,0.06882,5.20733,-0.27625\H,0,-0.966
 42,5.57679,-0.20151\H,0,0.53984,5.33672,0.71136\B,0,-2.78993,0.35096,0
 .49796\O,0,-3.55517,0.9927,-0.45074\O,0,-3.50966,-0.52309,1.28172\C,0,
 -4.95371,0.69943,-0.13935\C,0,-4.84149,-0.63512,0.6856\C,0,-5.4712,1.8
 7807,0.68776\C,0,-5.72889,0.58295,-1.44413\C,0,-4.82306,-1.88733,-0.19
 293\C,0,-5.86198,-0.78358,1.80531\H,0,-4.92275,1.97137,1.63666\H,0,-5.
 32413,2.80574,0.11536\H,0,-6.54318,1.7734,0.90995\H,0,-5.27218,-0.1481
 6,-2.12344\H,0,-6.769,0.28013,-1.24821\H,0,-5.74842,1.55895,-1.95175\H
 ,0,-4.53139,-2.75053,0.42324\H,0,-5.81402,-2.08898,-0.62523\H,0,-4.096
 35,-1.78916,-1.01278\H,0,-5.70447,-1.73987,2.32621\H,0,-5.77665,0.0262
 8,2.54113\H,0,-6.88431,-0.78227,1.397\C,0,0.84473,5.90514,-1.37243\H,0
 ,0.35932,5.76007,-2.35009\H,0,0.8921,6.98536,-1.16546\H,0,1.87382,5.51
 799,-1.43245\\Version=AM64L-G16RevA.03\HF=-795.788142\S2=0.\S2-1=0.\S2
 A=0.\RMSD=5.573e-09\Dipole=-0.7084763,-0.7559366,-0.5507727\Quadrupole
 =12.7078693,-3.9253098,-8.7825595,5.9784489,2.4790599,-4.2521243\PG=C0
 1 [X(C12H21B1O4)]\\@


 The juvenile sea squirt wanders through the sea searching
 for a suitable rock or hunk of coral to cling to and make
 its home for life.  For this task it has a rudimentary
 nervous system.  When it finds its spot and takes root, it
 doesn't need its brain any more so it eats it.
 It's rather like getting tenure.

                               -- source unknown
 Job cpu time:       0 days  1 hours  5 minutes 50.7 seconds.
 Elapsed time:       0 days  0 hours  2 minutes 52.5 seconds.
 File lengths (MBytes):  RWF=    534 Int=      0 D2E=      0 Chk=     11 Scr=      1
 Normal termination of Gaussian 16 at Tue Aug 18 20:52:13 2026.
