%mem=20GB
%chk=TX.chk
#p opt freq b3lyp/gen EmpiricalDispersion=GD3BJ pseudo=read scrf=(solvent=acetonitrile,pcm) nosymm pop=(Orbitals=20)

Title Card Required

0 1
C      -9.14563     -0.38528      0.00813
C      -7.75898     -0.46528      0.01980
C      -6.98230      0.70961      0.01471
C      -7.60777      1.97326     -0.00232
C      -9.01825      2.02330     -0.01394
C      -9.78353      0.86714     -0.00885
C      -6.87858      3.26514     -0.00887
C      -5.39522      3.27402      0.00320
C      -4.59540      2.11283      0.02055
C      -3.19114      2.21987      0.03076
H      -2.58131      1.31431      0.04407
C      -2.58641      3.47032      0.02389
C      -3.37033      4.63692      0.00672
C      -4.75273      4.53072     -0.00339
H      -9.73635     -1.30345      0.01227
H      -7.26460     -1.43865      0.03295
H      -9.48165      3.00982     -0.02705
H     -10.87301      0.92845     -0.01796
H      -1.49685      3.53968      0.03192
H      -2.89401      5.61871      0.00139
H      -5.38901      5.41563     -0.01680
S      -5.23591      0.47060      0.03097
O      -7.50433      4.32945     -0.02457

-C S O H 0
cc-pVDZ
****



