 Entering Gaussian System, Link 0=g16
 Initial command:
 /mnt/data/applications/G16/g16/l1.exe "/scratch/Gau-7582.inp" -scrdir="/scratch/"
 Entering Link 1 = /mnt/data/applications/G16/g16/l1.exe PID=      7583.
  
 Copyright (c) 1988,1990,1992,1993,1995,1998,2003,2009,2016,
            Gaussian, Inc.  All Rights Reserved.
  
 This is part of the Gaussian(R) 16 program.  It is based on
 the Gaussian(R) 09 system (copyright 2009, Gaussian, Inc.),
 the Gaussian(R) 03 system (copyright 2003, Gaussian, Inc.),
 the Gaussian(R) 98 system (copyright 1998, Gaussian, Inc.),
 the Gaussian(R) 94 system (copyright 1995, Gaussian, Inc.),
 the Gaussian 92(TM) system (copyright 1992, Gaussian, Inc.),
 the Gaussian 90(TM) system (copyright 1990, Gaussian, Inc.),
 the Gaussian 88(TM) system (copyright 1988, Gaussian, Inc.),
 the Gaussian 86(TM) system (copyright 1986, Carnegie Mellon
 University), and the Gaussian 82(TM) system (copyright 1983,
 Carnegie Mellon University). Gaussian is a federally registered
 trademark of Gaussian, Inc.
  
 This software contains proprietary and confidential information,
 including trade secrets, belonging to Gaussian, Inc.
  
 This software is provided under written license and may be
 used, copied, transmitted, or stored only in accord with that
 written license.
  
 The following legend is applicable only to US Government
 contracts under FAR:
  
                    RESTRICTED RIGHTS LEGEND
  
 Use, reproduction and disclosure by the US Government is
 subject to restrictions as set forth in subparagraphs (a)
 and (c) of the Commercial Computer Software - Restricted
 Rights clause in FAR 52.227-19.
  
 Gaussian, Inc.
 340 Quinnipiac St., Bldg. 40, Wallingford CT 06492
  
  
 ---------------------------------------------------------------
 Warning -- This program may not be used in any manner that
 competes with the business of Gaussian, Inc. or will provide
 assistance to any competitor of Gaussian, Inc.  The licensee
 of this program is prohibited from giving any competitor of
 Gaussian, Inc. access to this program.  By using this program,
 the user acknowledges that Gaussian, Inc. is engaged in the
 business of creating and licensing software in the field of
 computational chemistry and represents and warrants to the
 licensee that it is not a competitor of Gaussian, Inc. and that
 it will not use this program in any manner prohibited above.
 ---------------------------------------------------------------
  

 Cite this work as:
 Gaussian 16, Revision A.03,
 M. J. Frisch, G. W. Trucks, H. B. Schlegel, G. E. Scuseria, 
 M. A. Robb, J. R. Cheeseman, G. Scalmani, V. Barone, 
 G. A. Petersson, H. Nakatsuji, X. Li, M. Caricato, A. V. Marenich, 
 J. Bloino, B. G. Janesko, R. Gomperts, B. Mennucci, H. P. Hratchian, 
 J. V. Ortiz, A. F. Izmaylov, J. L. Sonnenberg, D. Williams-Young, 
 F. Ding, F. Lipparini, F. Egidi, J. Goings, B. Peng, A. Petrone, 
 T. Henderson, D. Ranasinghe, V. G. Zakrzewski, J. Gao, N. Rega, 
 G. Zheng, W. Liang, M. Hada, M. Ehara, K. Toyota, R. Fukuda, 
 J. Hasegawa, M. Ishida, T. Nakajima, Y. Honda, O. Kitao, H. Nakai, 
 T. Vreven, K. Throssell, J. A. Montgomery, Jr., J. E. Peralta, 
 F. Ogliaro, M. J. Bearpark, J. J. Heyd, E. N. Brothers, K. N. Kudin, 
 V. N. Staroverov, T. A. Keith, R. Kobayashi, J. Normand, 
 K. Raghavachari, A. P. Rendell, J. C. Burant, S. S. Iyengar, 
 J. Tomasi, M. Cossi, J. M. Millam, M. Klene, C. Adamo, R. Cammi, 
 J. W. Ochterski, R. L. Martin, K. Morokuma, O. Farkas, 
 J. B. Foresman, and D. J. Fox, Gaussian, Inc., Wallingford CT, 2016.
 
 ******************************************
 Gaussian 16:  AM64L-G16RevA.03 25-Dec-2016
                18-Aug-2026 
 ******************************************
 %mem=20GB
 %chk=TX.chk
 ----------------------------------------------------------------------
 #p opt freq b3lyp/gen EmpiricalDispersion=GD3BJ pseudo=read scrf=(solv
 ent=acetonitrile,pcm) nosymm pop=(Orbitals=20)
 ----------------------------------------------------------------------
 1/18=20,19=15,26=3,38=1/1,3;
 2/9=110,12=2,15=1,17=6,18=5,40=1/2;
 3/5=7,11=2,16=1,17=8,25=1,30=1,70=2201,71=1,72=2,74=-5,124=41/1,2,3;
 4//1;
 5/5=2,38=5,53=2/2;
 6/7=2,8=2,9=2,10=2,28=1,96=20/1;
 7/30=1/1,2,3,16;
 1/18=20,19=15,26=3/3(2);
 2/9=110,15=1/2;
 99//99;
 2/9=110,15=1/2;
 3/5=7,6=1,11=2,16=1,17=8,25=1,30=1,70=2205,71=1,72=2,74=-5,82=7,124=41/1,2,3;
 4/5=5,16=3,69=1/1;
 5/5=2,38=5,53=2/2;
 7/30=1/1,2,3,16;
 1/18=20,19=15,26=3/3(-5);
 2/9=110,15=1/2;
 6/7=2,8=2,9=2,10=2,19=2,28=1,96=20/1;
 99/9=1/99;
 Leave Link    1 at Tue Aug 18 12:15:52 2026, MaxMem=  2684354560 cpu:               0.0 elap:               0.1
 (Enter /mnt/data/applications/G16/g16/l101.exe)
 -------------------
 Title Card Required
 -------------------
 Symbolic Z-matrix:
 Charge =  0 Multiplicity = 1
 C                    -9.14563  -0.38528   0.00813 
 C                    -7.75898  -0.46528   0.0198 
 C                    -6.9823    0.70961   0.01471 
 C                    -7.60777   1.97326  -0.00232 
 C                    -9.01825   2.0233   -0.01394 
 C                    -9.78353   0.86714  -0.00885 
 C                    -6.87858   3.26514  -0.00887 
 C                    -5.39522   3.27402   0.0032 
 C                    -4.5954    2.11283   0.02055 
 C                    -3.19114   2.21987   0.03076 
 H                    -2.58131   1.31431   0.04407 
 C                    -2.58641   3.47032   0.02389 
 C                    -3.37033   4.63692   0.00672 
 C                    -4.75273   4.53072  -0.00339 
 H                    -9.73635  -1.30345   0.01227 
 H                    -7.2646   -1.43865   0.03295 
 H                    -9.48165   3.00982  -0.02705 
 H                    -10.87301   0.92845  -0.01796 
 H                    -1.49685   3.53968   0.03192 
 H                    -2.89401   5.61871   0.00139 
 H                    -5.38901   5.41563  -0.0168 
 S                    -5.23591   0.4706    0.03097 
 O                    -7.50433   4.32945  -0.02457 
 
 ITRead=  0  0  0  0  0  0  0  0  0  0  0  0  0  0  0  0  0  0  0  0
 ITRead=  0  0  0
 MicOpt= -1 -1 -1 -1 -1 -1 -1 -1 -1 -1 -1 -1 -1 -1 -1 -1 -1 -1 -1 -1
 MicOpt= -1 -1 -1
 NAtoms=     23 NQM=       23 NQMF=       0 NMMI=      0 NMMIF=      0
                NMic=       0 NMicF=      0.
                    Isotopes and Nuclear Properties:
 (Nuclear quadrupole moments (NQMom) in fm**2, nuclear magnetic moments (NMagM)
  in nuclear magnetons)

  Atom         1           2           3           4           5           6           7           8           9          10
 IAtWgt=          12          12          12          12          12          12          12          12          12          12
 AtmWgt=  12.0000000  12.0000000  12.0000000  12.0000000  12.0000000  12.0000000  12.0000000  12.0000000  12.0000000  12.0000000
 NucSpn=           0           0           0           0           0           0           0           0           0           0
 AtZEff=  -0.0000000  -0.0000000  -0.0000000  -0.0000000  -0.0000000  -0.0000000  -0.0000000  -0.0000000  -0.0000000  -0.0000000
 NQMom=    0.0000000   0.0000000   0.0000000   0.0000000   0.0000000   0.0000000   0.0000000   0.0000000   0.0000000   0.0000000
 NMagM=    0.0000000   0.0000000   0.0000000   0.0000000   0.0000000   0.0000000   0.0000000   0.0000000   0.0000000   0.0000000
 AtZNuc=   6.0000000   6.0000000   6.0000000   6.0000000   6.0000000   6.0000000   6.0000000   6.0000000   6.0000000   6.0000000

  Atom        11          12          13          14          15          16          17          18          19          20
 IAtWgt=           1          12          12          12           1           1           1           1           1           1
 AtmWgt=   1.0078250  12.0000000  12.0000000  12.0000000   1.0078250   1.0078250   1.0078250   1.0078250   1.0078250   1.0078250
 NucSpn=           1           0           0           0           1           1           1           1           1           1
 AtZEff=  -0.0000000  -0.0000000  -0.0000000  -0.0000000  -0.0000000  -0.0000000  -0.0000000  -0.0000000  -0.0000000  -0.0000000
 NQMom=    0.0000000   0.0000000   0.0000000   0.0000000   0.0000000   0.0000000   0.0000000   0.0000000   0.0000000   0.0000000
 NMagM=    2.7928460   0.0000000   0.0000000   0.0000000   2.7928460   2.7928460   2.7928460   2.7928460   2.7928460   2.7928460
 AtZNuc=   1.0000000   6.0000000   6.0000000   6.0000000   1.0000000   1.0000000   1.0000000   1.0000000   1.0000000   1.0000000

  Atom        21          22          23
 IAtWgt=           1          32          16
 AtmWgt=   1.0078250  31.9720718  15.9949146
 NucSpn=           1           0           0
 AtZEff=  -0.0000000  -0.0000000  -0.0000000
 NQMom=    0.0000000   0.0000000   0.0000000
 NMagM=    2.7928460   0.0000000   0.0000000
 AtZNuc=   1.0000000  16.0000000   8.0000000
 Leave Link  101 at Tue Aug 18 12:15:53 2026, MaxMem=  2684354560 cpu:               0.3 elap:               0.3
 (Enter /mnt/data/applications/G16/g16/l103.exe)

 GradGradGradGradGradGradGradGradGradGradGradGradGradGradGradGradGradGrad
 Berny optimization.
 Initialization pass.
                           ----------------------------
                           !    Initial Parameters    !
                           ! (Angstroms and Degrees)  !
 --------------------------                            --------------------------
 ! Name  Definition              Value          Derivative Info.                !
 --------------------------------------------------------------------------------
 ! R1    R(1,2)                  1.389          estimate D2E/DX2                !
 ! R2    R(1,6)                  1.4056         estimate D2E/DX2                !
 ! R3    R(1,15)                 1.0918         estimate D2E/DX2                !
 ! R4    R(2,3)                  1.4084         estimate D2E/DX2                !
 ! R5    R(2,16)                 1.0918         estimate D2E/DX2                !
 ! R6    R(3,4)                  1.4101         estimate D2E/DX2                !
 ! R7    R(3,22)                 1.7627         estimate D2E/DX2                !
 ! R8    R(4,5)                  1.4114         estimate D2E/DX2                !
 ! R9    R(4,7)                  1.4835         estimate D2E/DX2                !
 ! R10   R(5,6)                  1.3865         estimate D2E/DX2                !
 ! R11   R(5,17)                 1.09           estimate D2E/DX2                !
 ! R12   R(6,18)                 1.0912         estimate D2E/DX2                !
 ! R13   R(7,8)                  1.4834         estimate D2E/DX2                !
 ! R14   R(7,23)                 1.2347         estimate D2E/DX2                !
 ! R15   R(8,9)                  1.4101         estimate D2E/DX2                !
 ! R16   R(8,14)                 1.4114         estimate D2E/DX2                !
 ! R17   R(9,10)                 1.4084         estimate D2E/DX2                !
 ! R18   R(9,22)                 1.7627         estimate D2E/DX2                !
 ! R19   R(10,11)                1.0918         estimate D2E/DX2                !
 ! R20   R(10,12)                1.389          estimate D2E/DX2                !
 ! R21   R(12,13)                1.4056         estimate D2E/DX2                !
 ! R22   R(12,19)                1.0918         estimate D2E/DX2                !
 ! R23   R(13,14)                1.3865         estimate D2E/DX2                !
 ! R24   R(13,20)                1.0912         estimate D2E/DX2                !
 ! R25   R(14,21)                1.09           estimate D2E/DX2                !
 ! A1    A(2,1,6)              120.2963         estimate D2E/DX2                !
 ! A2    A(2,1,15)             119.4505         estimate D2E/DX2                !
 ! A3    A(6,1,15)             120.2532         estimate D2E/DX2                !
 ! A4    A(1,2,3)              120.162          estimate D2E/DX2                !
 ! A5    A(1,2,16)             120.2313         estimate D2E/DX2                !
 ! A6    A(3,2,16)             119.6067         estimate D2E/DX2                !
 ! A7    A(2,3,4)              120.1988         estimate D2E/DX2                !
 ! A8    A(2,3,22)             115.6708         estimate D2E/DX2                !
 ! A9    A(4,3,22)             124.1304         estimate D2E/DX2                !
 ! A10   A(3,4,5)              118.3691         estimate D2E/DX2                !
 ! A11   A(3,4,7)              124.2242         estimate D2E/DX2                !
 ! A12   A(5,4,7)              117.4067         estimate D2E/DX2                !
 ! A13   A(4,5,6)              121.4659         estimate D2E/DX2                !
 ! A14   A(4,5,17)             117.196          estimate D2E/DX2                !
 ! A15   A(6,5,17)             121.3381         estimate D2E/DX2                !
 ! A16   A(1,6,5)              119.5079         estimate D2E/DX2                !
 ! A17   A(1,6,18)             120.2153         estimate D2E/DX2                !
 ! A18   A(5,6,18)             120.2769         estimate D2E/DX2                !
 ! A19   A(4,7,8)              119.7814         estimate D2E/DX2                !
 ! A20   A(4,7,23)             120.1056         estimate D2E/DX2                !
 ! A21   A(8,7,23)             120.113          estimate D2E/DX2                !
 ! A22   A(7,8,9)              124.2185         estimate D2E/DX2                !
 ! A23   A(7,8,14)             117.4177         estimate D2E/DX2                !
 ! A24   A(9,8,14)             118.3638         estimate D2E/DX2                !
 ! A25   A(8,9,10)             120.2024         estimate D2E/DX2                !
 ! A26   A(8,9,22)             124.1356         estimate D2E/DX2                !
 ! A27   A(10,9,22)            115.662          estimate D2E/DX2                !
 ! A28   A(9,10,11)            119.601          estimate D2E/DX2                !
 ! A29   A(9,10,12)            120.1642         estimate D2E/DX2                !
 ! A30   A(11,10,12)           120.2348         estimate D2E/DX2                !
 ! A31   A(10,12,13)           120.2923         estimate D2E/DX2                !
 ! A32   A(10,12,19)           119.4477         estimate D2E/DX2                !
 ! A33   A(13,12,19)           120.26           estimate D2E/DX2                !
 ! A34   A(12,13,14)           119.5095         estimate D2E/DX2                !
 ! A35   A(12,13,20)           120.2206         estimate D2E/DX2                !
 ! A36   A(14,13,20)           120.2699         estimate D2E/DX2                !
 ! A37   A(8,14,13)            121.4679         estimate D2E/DX2                !
 ! A38   A(8,14,21)            117.2053         estimate D2E/DX2                !
 ! A39   A(13,14,21)           121.3269         estimate D2E/DX2                !
 ! A40   A(3,22,9)             103.5099         estimate D2E/DX2                !
 ! D1    D(6,1,2,3)              0.0011         estimate D2E/DX2                !
 ! D2    D(6,1,2,16)          -179.9978         estimate D2E/DX2                !
 ! D3    D(15,1,2,3)          -179.9979         estimate D2E/DX2                !
 ! D4    D(15,1,2,16)            0.0031         estimate D2E/DX2                !
 ! D5    D(2,1,6,5)              0.0031         estimate D2E/DX2                !
 ! D6    D(2,1,6,18)          -179.9973         estimate D2E/DX2                !
 ! D7    D(15,1,6,5)          -179.9979         estimate D2E/DX2                !
 ! D8    D(15,1,6,18)            0.0017         estimate D2E/DX2                !
 ! D9    D(1,2,3,4)             -0.003          estimate D2E/DX2                !
 ! D10   D(1,2,3,22)           179.9912         estimate D2E/DX2                !
 ! D11   D(16,2,3,4)           179.9959         estimate D2E/DX2                !
 ! D12   D(16,2,3,22)           -0.0099         estimate D2E/DX2                !
 ! D13   D(2,3,4,5)              0.0007         estimate D2E/DX2                !
 ! D14   D(2,3,4,7)            179.9984         estimate D2E/DX2                !
 ! D15   D(22,3,4,5)          -179.993          estimate D2E/DX2                !
 ! D16   D(22,3,4,7)             0.0047         estimate D2E/DX2                !
 ! D17   D(2,3,22,9)          -179.9915         estimate D2E/DX2                !
 ! D18   D(4,3,22,9)             0.0024         estimate D2E/DX2                !
 ! D19   D(3,4,5,6)              0.0036         estimate D2E/DX2                !
 ! D20   D(3,4,5,17)          -179.9993         estimate D2E/DX2                !
 ! D21   D(7,4,5,6)           -179.9943         estimate D2E/DX2                !
 ! D22   D(7,4,5,17)             0.0028         estimate D2E/DX2                !
 ! D23   D(3,4,7,8)             -0.0171         estimate D2E/DX2                !
 ! D24   D(3,4,7,23)           179.9694         estimate D2E/DX2                !
 ! D25   D(5,4,7,8)            179.9806         estimate D2E/DX2                !
 ! D26   D(5,4,7,23)            -0.0329         estimate D2E/DX2                !
 ! D27   D(4,5,6,1)             -0.0055         estimate D2E/DX2                !
 ! D28   D(4,5,6,18)           179.9949         estimate D2E/DX2                !
 ! D29   D(17,5,6,1)           179.9975         estimate D2E/DX2                !
 ! D30   D(17,5,6,18)           -0.0021         estimate D2E/DX2                !
 ! D31   D(4,7,8,9)              0.0228         estimate D2E/DX2                !
 ! D32   D(4,7,8,14)          -179.9849         estimate D2E/DX2                !
 ! D33   D(23,7,8,9)          -179.9637         estimate D2E/DX2                !
 ! D34   D(23,7,8,14)            0.0286         estimate D2E/DX2                !
 ! D35   D(7,8,9,10)           179.9859         estimate D2E/DX2                !
 ! D36   D(7,8,9,22)            -0.0156         estimate D2E/DX2                !
 ! D37   D(14,8,9,10)           -0.0063         estimate D2E/DX2                !
 ! D38   D(14,8,9,22)          179.9922         estimate D2E/DX2                !
 ! D39   D(7,8,14,13)         -179.9896         estimate D2E/DX2                !
 ! D40   D(7,8,14,21)            0.0089         estimate D2E/DX2                !
 ! D41   D(9,8,14,13)            0.0032         estimate D2E/DX2                !
 ! D42   D(9,8,14,21)         -179.9983         estimate D2E/DX2                !
 ! D43   D(8,9,10,11)         -179.9934         estimate D2E/DX2                !
 ! D44   D(8,9,10,12)            0.0048         estimate D2E/DX2                !
 ! D45   D(22,9,10,11)           0.008          estimate D2E/DX2                !
 ! D46   D(22,9,10,12)        -179.9939         estimate D2E/DX2                !
 ! D47   D(8,9,22,3)             0.0028         estimate D2E/DX2                !
 ! D48   D(10,9,22,3)         -179.9986         estimate D2E/DX2                !
 ! D49   D(9,10,12,13)           0.0001         estimate D2E/DX2                !
 ! D50   D(9,10,12,19)        -179.9988         estimate D2E/DX2                !
 ! D51   D(11,10,12,13)        179.9983         estimate D2E/DX2                !
 ! D52   D(11,10,12,19)         -0.0006         estimate D2E/DX2                !
 ! D53   D(10,12,13,14)         -0.0033         estimate D2E/DX2                !
 ! D54   D(10,12,13,20)        179.9968         estimate D2E/DX2                !
 ! D55   D(19,12,13,14)        179.9956         estimate D2E/DX2                !
 ! D56   D(19,12,13,20)         -0.0043         estimate D2E/DX2                !
 ! D57   D(12,13,14,8)           0.0016         estimate D2E/DX2                !
 ! D58   D(12,13,14,21)       -179.9968         estimate D2E/DX2                !
 ! D59   D(20,13,14,8)        -179.9985         estimate D2E/DX2                !
 ! D60   D(20,13,14,21)          0.003          estimate D2E/DX2                !
 --------------------------------------------------------------------------------
 Trust Radius=3.00D-01 FncErr=1.00D-07 GrdErr=1.00D-06 EigMax=2.50D+02 EigMin=1.00D-04
 Number of steps in this run=    135 maximum allowed number of steps=    138.
 GradGradGradGradGradGradGradGradGradGradGradGradGradGradGradGradGradGrad

 Leave Link  103 at Tue Aug 18 12:15:53 2026, MaxMem=  2684354560 cpu:               0.0 elap:               0.0
 (Enter /mnt/data/applications/G16/g16/l202.exe)
                          Input orientation:                          
 ---------------------------------------------------------------------
 Center     Atomic      Atomic             Coordinates (Angstroms)
 Number     Number       Type             X           Y           Z
 ---------------------------------------------------------------------
      1          6           0       -9.145630   -0.385280    0.008130
      2          6           0       -7.758980   -0.465280    0.019800
      3          6           0       -6.982300    0.709610    0.014710
      4          6           0       -7.607770    1.973260   -0.002320
      5          6           0       -9.018250    2.023300   -0.013940
      6          6           0       -9.783530    0.867140   -0.008850
      7          6           0       -6.878580    3.265140   -0.008870
      8          6           0       -5.395220    3.274020    0.003200
      9          6           0       -4.595400    2.112830    0.020550
     10          6           0       -3.191140    2.219870    0.030760
     11          1           0       -2.581310    1.314310    0.044070
     12          6           0       -2.586410    3.470320    0.023890
     13          6           0       -3.370330    4.636920    0.006720
     14          6           0       -4.752730    4.530720   -0.003390
     15          1           0       -9.736350   -1.303450    0.012270
     16          1           0       -7.264600   -1.438650    0.032950
     17          1           0       -9.481650    3.009820   -0.027050
     18          1           0      -10.873010    0.928450   -0.017960
     19          1           0       -1.496850    3.539680    0.031920
     20          1           0       -2.894010    5.618710    0.001390
     21          1           0       -5.389010    5.415630   -0.016800
     22         16           0       -5.235910    0.470600    0.030970
     23          8           0       -7.504330    4.329450   -0.024570
 ---------------------------------------------------------------------
                    Distance matrix (angstroms):
                    1          2          3          4          5
     1  C    0.000000
     2  C    1.389005   0.000000
     3  C    2.424629   1.408412   0.000000
     4  C    2.815641   2.443324   1.410076   0.000000
     5  C    2.412047   2.789253   2.423158   1.411415   0.000000
     6  C    1.405618   2.423833   2.805755   2.440794   1.386501
     7  C    4.297135   3.833009   2.557743   1.483481   2.473940
     8  C    5.239855   4.423799   3.015817   2.566590   3.832876
     9  C    5.190886   4.081040   2.768818   3.015688   4.423891
    10  C    6.499482   5.298614   4.080936   4.423633   5.830596
    11  H    6.780870   5.475016   4.442436   5.069681   6.476128
    12  C    7.608500   6.499573   5.190901   5.239841   6.592713
    13  C    7.653534   6.729997   5.335743   5.005104   6.223378
    14  C    6.592781   5.830788   4.424047   3.832996   4.947922
    15  H    1.091789   2.147691   3.411335   3.907415   3.403472
    16  H    2.156033   1.091803   2.166806   3.429306   3.881055
    17  H    3.411869   3.878931   3.396978   2.141610   1.090015
    18  H    2.170348   3.411904   3.896997   3.428362   2.153798
    19  H    8.597076   7.433312   6.172500   6.308580   7.672872
    20  H    8.667796   7.789943   6.388549   5.958931   7.101656
    21  H    6.911105   6.340599   4.968520   4.095487   4.967826
    22  S    4.002370   2.691074   1.762745   2.807991   4.088886
    23  O    4.992356   4.801693   3.657499   2.358564   2.758694
                    6          7          8          9         10
     6  C    0.000000
     7  C    3.766847   0.000000
     8  C    5.005046   1.483436   0.000000
     9  C    5.335663   2.557654   1.410098   0.000000
    10  C    6.729863   3.832933   2.443350   1.408371   0.000000
    11  H    7.216283   4.719647   3.429318   2.166736   1.091837
    12  C    7.653506   4.297196   2.815737   2.424630   1.389018
    13  C    7.439127   3.766941   2.440838   2.805712   2.423802
    14  C    6.223407   2.474058   1.411429   2.423122   2.789222
    15  H    2.171205   5.388813   6.308623   6.172553   7.433297
    16  H    3.415175   4.719788   5.069983   4.442724   5.475203
    17  H    2.163918   2.615625   4.095073   4.968128   6.340180
    18  H    1.091242   4.627707   5.958887   6.388476   7.789818
    19  H    8.707077   5.388882   3.907517   3.411311   2.147677
    20  H    8.369170   4.627764   3.428356   3.896959   3.411929
    21  H    6.324605   2.616006   2.141712   3.397013   3.878889
    22  S    4.565050   3.241821   2.808080   1.762748   2.690916
    23  O    4.145189   1.234733   2.358612   3.657501   4.801770
                   11         12         13         14         15
    11  H    0.000000
    12  C    2.156110   0.000000
    13  C    3.415214   1.405625   0.000000
    14  C    3.881058   2.412081   1.386510   0.000000
    15  H    7.618942   8.597131   8.707137   7.672956   0.000000
    16  H    5.432506   6.781116   7.216549   6.476433   2.475531
    17  H    7.105949   6.910788   6.324304   4.967533   4.320962
    18  H    8.300905   8.667791   8.369203   7.101717   2.504853
    19  H    2.475575   1.091795   2.171289   3.403551   9.557492
    20  H    4.315954   2.170416   1.091247   2.153737   9.733141
    21  H    4.970685   3.411811   2.163796   1.089999   8.002890
    22  S    2.785484   4.002277   4.564997   4.088914   4.837516
    23  O    5.773379   4.992634   4.145536   2.759033   6.059112
                   16         17         18         19         20
    16  H    0.000000
    17  H    4.970694   0.000000
    18  H    4.315829   2.503611   0.000000
    19  H    7.619102   8.002578   9.733108   0.000000
    20  H    8.301168   7.085486   9.255450   2.505066   0.000000
    21  H    7.106438   4.747392   7.085834   4.320934   2.503317
    22  S    2.785825   4.947455   5.655875   4.837336   5.655829
    23  O    5.773366   2.377230   4.786946   6.059434   4.787266
                   21         22         23
    21  H    0.000000
    22  S    4.947630   0.000000
    23  O    2.377904   4.476554   0.000000
 Symmetry turned off by external request.
 Stoichiometry    C13H8OS
 Framework group  C1[X(C13H8OS)]
 Deg. of freedom    63
 Full point group                 C1      NOp   1
 Rotational constants (GHZ):           1.2174964           0.4226740           0.3137504
 Leave Link  202 at Tue Aug 18 12:15:53 2026, MaxMem=  2684354560 cpu:               0.0 elap:               0.0
 (Enter /mnt/data/applications/G16/g16/l301.exe)
 General basis read from cards:  (5D, 7F)
 Centers:       1      2      3      4      5      6      7      8      9     10
 Centers:      12     13     14     22     23     11     15     16     17     18
 Centers:      19     20     21
 cc-pVDZ
 ****
 ======================================================================================================
                                       Pseudopotential Parameters
 ======================================================================================================
  Center     Atomic      Valence      Angular      Power
  Number     Number     Electrons     Momentum     of R      Exponent        Coefficient   SO-Coeffient
 ======================================================================================================
    1          6
                                   No pseudopotential on this center.
    2          6
                                   No pseudopotential on this center.
    3          6
                                   No pseudopotential on this center.
    4          6
                                   No pseudopotential on this center.
    5          6
                                   No pseudopotential on this center.
    6          6
                                   No pseudopotential on this center.
    7          6
                                   No pseudopotential on this center.
    8          6
                                   No pseudopotential on this center.
    9          6
                                   No pseudopotential on this center.
   10          6
                                   No pseudopotential on this center.
   11          1
                                   No pseudopotential on this center.
   12          6
                                   No pseudopotential on this center.
   13          6
                                   No pseudopotential on this center.
   14          6
                                   No pseudopotential on this center.
   15          1
                                   No pseudopotential on this center.
   16          1
                                   No pseudopotential on this center.
   17          1
                                   No pseudopotential on this center.
   18          1
                                   No pseudopotential on this center.
   19          1
                                   No pseudopotential on this center.
   20          1
                                   No pseudopotential on this center.
   21          1
                                   No pseudopotential on this center.
   22         16
                                   No pseudopotential on this center.
   23          8
                                   No pseudopotential on this center.
 ======================================================================================================
 Ernie: Thresh=  0.10000D-02 Tol=  0.10000D-05 Strict=F.
 Ernie:  38 primitive shells out of 398 were deleted.
   254 basis functions,   589 primitive gaussians,   269 cartesian basis functions
    55 alpha electrons       55 beta electrons
       nuclear repulsion energy       991.4075582406 Hartrees.
 IExCor=  402 DFT=T Ex+Corr=B3LYP ExCW=0 ScaHFX=  0.200000
 ScaDFX=  0.800000  0.720000  1.000000  0.810000 ScalE2=  1.000000  1.000000
 IRadAn=      5 IRanWt=     -1 IRanGd=            0 ICorTp=0 IEmpDi=141
 NAtoms=   23 NActive=   23 NUniq=   23 SFac= 1.00D+00 NAtFMM=   60 NAOKFM=F Big=F
 Integral buffers will be    131072 words long.
 Raffenetti 2 integral format.
 Two-electron integral symmetry is turned off.
 R6Disp:  Grimme-D3(BJ) Dispersion energy=       -0.0581024690 Hartrees.
 Nuclear repulsion after empirical dispersion term =      991.3494557716 Hartrees.
 ------------------------------------------------------------------------------
 Polarizable Continuum Model (PCM)
 =================================
 Model                : PCM.
 Atomic radii         : UFF (Universal Force Field).
 Polarization charges : Total charges.
 Charge compensation  : None.
 Solution method      : On-the-fly selection.
 Cavity type          : Scaled VdW (van der Waals Surface) (Alpha=1.100).
 Cavity algorithm     : GePol (No added spheres)
                        Default sphere list used, NSphG=   23.
                        Lebedev-Laikov grids with approx.  5.0 points / Ang**2.
                        Smoothing algorithm: York/Karplus (Gamma=1.0000).
                        Polarization charges: spherical gaussians, with
                                              point-specific exponents (IZeta= 3).
                        Self-potential: point-specific (ISelfS= 7).
                        Self-field    : sphere-specific E.n sum rule (ISelfD= 2).
 1st derivatives      : Analytical E(r).r(x)/FMM algorithm (CHGder, D1EAlg=3).
                        Cavity 1st derivative terms included.
 Solvent              : Acetonitrile, Eps=  35.688000 Eps(inf)=   1.806874
 ------------------------------------------------------------------------------
 GePol: Number of generator spheres                  =      23
 GePol: Total number of spheres                      =      23
 GePol: Number of exposed spheres                    =      23 (100.00%)
 GePol: Number of points                             =    1989
 GePol: Average weight of points                     =       0.13
 GePol: Minimum weight of points                     =   0.78D-10
 GePol: Maximum weight of points                     =    0.20577
 GePol: Number of points with low weight             =      96
 GePol: Fraction of low-weight points (<1% of avg)   =       4.83%
 GePol: Cavity surface area                          =    255.926 Ang**2
 GePol: Cavity volume                                =    277.038 Ang**3
 Leave Link  301 at Tue Aug 18 12:15:54 2026, MaxMem=  2684354560 cpu:               0.1 elap:               0.1
 (Enter /mnt/data/applications/G16/g16/l302.exe)
 NPDir=0 NMtPBC=     1 NCelOv=     1 NCel=       1 NClECP=     1 NCelD=      1
         NCelK=      1 NCelE2=     1 NClLst=     1 CellRange=     0.0.
 One-electron integrals computed using PRISM.
   1 Symmetry operations used in ECPInt.
 ECPInt:  NShTT=    6786 NPrTT=   65756 LenC2=    6458 LenP2D=   34293.
 LDataN:  DoStor=T MaxTD1= 4 Len=   56
 NBasis=   254 RedAO= T EigKep=  2.46D-04  NBF=   254
 NBsUse=   254 1.00D-06 EigRej= -1.00D+00 NBFU=   254
 Precomputing XC quadrature grid using
 IXCGrd= 4 IRadAn=           5 IRanWt=          -1 IRanGd=           0 AccXCQ= 0.00D+00.
 Generated NRdTot=       0 NPtTot=           0 NUsed=           0 NTot=          32
 NSgBfM=   268   268   268   268   268 MxSgAt=    23 MxSgA2=    23.
 Leave Link  302 at Tue Aug 18 12:15:55 2026, MaxMem=  2684354560 cpu:               1.1 elap:               1.1
 (Enter /mnt/data/applications/G16/g16/l303.exe)
 DipDrv:  MaxL=1.
 Leave Link  303 at Tue Aug 18 12:15:55 2026, MaxMem=  2684354560 cpu:               0.1 elap:               0.1
 (Enter /mnt/data/applications/G16/g16/l401.exe)
 ExpMin= 1.22D-01 ExpMax= 1.11D+05 ExpMxC= 1.07D+03 IAcc=3 IRadAn=         5 AccDes= 0.00D+00
 Harris functional with IExCor=  402 and IRadAn=       5 diagonalized for initial guess.
 HarFok:  IExCor=  402 AccDes= 0.00D+00 IRadAn=         5 IDoV= 1 UseB2=F ITyADJ=14
 ICtDFT=  3500011 ScaDFX=  1.000000  1.000000  1.000000  1.000000
 FoFCou: FMM=F IPFlag=           0 FMFlag=      100000 FMFlg1=           0
         NFxFlg=           0 DoJE=T BraDBF=F KetDBF=T FulRan=T
         wScrn=  0.000000 ICntrl=       500 IOpCl=  0 I1Cent=   200000004 NGrid=           0
         NMat0=    1 NMatS0=      1 NMatT0=    0 NMatD0=    1 NMtDS0=    0 NMtDT0=    0
 Symmetry not used in FoFCou.
 Harris En= -973.686475028739    
 JPrj=0 DoOrth=F DoCkMO=F.
 Leave Link  401 at Tue Aug 18 12:16:12 2026, MaxMem=  2684354560 cpu:              16.0 elap:              16.1
 (Enter /mnt/data/applications/G16/g16/l502.exe)
 Keep R1 ints in memory in canonical form, NReq=534252659.
 FoFCou: FMM=F IPFlag=           0 FMFlag=           0 FMFlg1=           0
         NFxFlg=           0 DoJE=F BraDBF=F KetDBF=F FulRan=T
         wScrn=  0.000000 ICntrl=       600 IOpCl=  0 I1Cent=           0 NGrid=           0
         NMat0=    1 NMatS0=  32385 NMatT0=    0 NMatD0=    1 NMtDS0=    0 NMtDT0=    0
 Symmetry not used in FoFCou.
 Two-electron integral symmetry not used.
 Closed shell SCF:
 Using DIIS extrapolation, IDIIS=  1040.
 NGot=  2684354560 LenX=  2159795735 LenY=  2159722933
 Requested convergence on RMS density matrix=1.00D-08 within 128 cycles.
 Requested convergence on MAX density matrix=1.00D-06.
 Requested convergence on             energy=1.00D-06.
 No special actions if energy rises.

 Cycle   1  Pass 1  IDiag  1:
 Inv3:  Mode=1 IEnd=    11868363.
 Iteration    1 A*A^-1 deviation from unit magnitude is 1.78D-15 for    358.
 Iteration    1 A*A^-1 deviation from orthogonality  is 1.06D-15 for   1144    237.
 Iteration    1 A^-1*A deviation from unit magnitude is 1.67D-15 for    667.
 Iteration    1 A^-1*A deviation from orthogonality  is 7.82D-16 for   1012    812.
 E= -973.387621971326    
 DIIS: error= 4.21D-02 at cycle   1 NSaved=   1.
 NSaved= 1 IEnMin= 1 EnMin= -973.387621971326     IErMin= 1 ErrMin= 4.21D-02
 ErrMax= 4.21D-02  0.00D+00 EMaxC= 1.00D-01 BMatC= 3.22D-01 BMatP= 3.22D-01
 IDIUse=3 WtCom= 5.79D-01 WtEn= 4.21D-01
 Coeff-Com:  0.100D+01
 Coeff-En:   0.100D+01
 Coeff:      0.100D+01
 Gap=     0.239 Goal=   None    Shift=    0.000
 GapD=    0.239 DampG=1.000 DampE=0.500 DampFc=0.5000 IDamp=-1.
 Damping current iteration by 5.00D-01
 RMSDP=8.11D-03 MaxDP=2.21D-01              OVMax= 3.64D-01

 Cycle   2  Pass 1  IDiag  1:
 E= -973.508743150838     Delta-E=       -0.121121179511 Rises=F Damp=T
 DIIS: error= 1.45D-02 at cycle   2 NSaved=   2.
 NSaved= 2 IEnMin= 2 EnMin= -973.508743150838     IErMin= 2 ErrMin= 1.45D-02
 ErrMax= 1.45D-02  0.00D+00 EMaxC= 1.00D-01 BMatC= 4.17D-02 BMatP= 3.22D-01
 IDIUse=3 WtCom= 8.55D-01 WtEn= 1.45D-01
 Coeff-Com:  0.196D+00 0.804D+00
 Coeff-En:   0.289D+00 0.711D+00
 Coeff:      0.209D+00 0.791D+00
 Gap=     0.314 Goal=   None    Shift=    0.000
 RMSDP=2.68D-03 MaxDP=1.02D-01 DE=-1.21D-01 OVMax= 2.55D-01

 Cycle   3  Pass 1  IDiag  1:
 E= -973.719046549710     Delta-E=       -0.210303398873 Rises=F Damp=F
 DIIS: error= 1.53D-02 at cycle   3 NSaved=   3.
 NSaved= 3 IEnMin= 3 EnMin= -973.719046549710     IErMin= 2 ErrMin= 1.45D-02
 ErrMax= 1.53D-02  0.00D+00 EMaxC= 1.00D-01 BMatC= 3.57D-02 BMatP= 4.17D-02
 IDIUse=3 WtCom= 8.47D-01 WtEn= 1.53D-01
 Coeff-Com:  0.672D-01 0.477D+00 0.456D+00
 Coeff-En:   0.000D+00 0.000D+00 0.100D+01
 Coeff:      0.569D-01 0.404D+00 0.539D+00
 Gap=     0.143 Goal=   None    Shift=    0.000
 RMSDP=1.36D-03 MaxDP=6.07D-02 DE=-2.10D-01 OVMax= 7.85D-02

 Cycle   4  Pass 1  IDiag  1:
 E= -973.742277277020     Delta-E=       -0.023230727309 Rises=F Damp=F
 DIIS: error= 8.67D-03 at cycle   4 NSaved=   4.
 NSaved= 4 IEnMin= 4 EnMin= -973.742277277020     IErMin= 4 ErrMin= 8.67D-03
 ErrMax= 8.67D-03  0.00D+00 EMaxC= 1.00D-01 BMatC= 1.14D-02 BMatP= 3.57D-02
 IDIUse=3 WtCom= 9.13D-01 WtEn= 8.67D-02
 Coeff-Com:  0.157D-01 0.929D-01 0.357D+00 0.535D+00
 Coeff-En:   0.000D+00 0.000D+00 0.270D+00 0.730D+00
 Coeff:      0.143D-01 0.848D-01 0.349D+00 0.552D+00
 Gap=     0.147 Goal=   None    Shift=    0.000
 RMSDP=5.85D-04 MaxDP=2.36D-02 DE=-2.32D-02 OVMax= 3.25D-02

 Cycle   5  Pass 1  IDiag  1:
 E= -973.751931400934     Delta-E=       -0.009654123914 Rises=F Damp=F
 DIIS: error= 9.33D-04 at cycle   5 NSaved=   5.
 NSaved= 5 IEnMin= 5 EnMin= -973.751931400934     IErMin= 5 ErrMin= 9.33D-04
 ErrMax= 9.33D-04  0.00D+00 EMaxC= 1.00D-01 BMatC= 2.37D-04 BMatP= 1.14D-02
 IDIUse=3 WtCom= 9.91D-01 WtEn= 9.33D-03
 Coeff-Com:  0.176D-02-0.195D-02 0.104D+00 0.238D+00 0.659D+00
 Coeff-En:   0.000D+00 0.000D+00 0.000D+00 0.000D+00 0.100D+01
 Coeff:      0.175D-02-0.193D-02 0.103D+00 0.236D+00 0.662D+00
 Gap=     0.146 Goal=   None    Shift=    0.000
 RMSDP=1.03D-04 MaxDP=4.16D-03 DE=-9.65D-03 OVMax= 5.23D-03

 Cycle   6  Pass 1  IDiag  1:
 E= -973.752139617092     Delta-E=       -0.000208216158 Rises=F Damp=F
 DIIS: error= 3.63D-04 at cycle   6 NSaved=   6.
 NSaved= 6 IEnMin= 6 EnMin= -973.752139617092     IErMin= 6 ErrMin= 3.63D-04
 ErrMax= 3.63D-04  0.00D+00 EMaxC= 1.00D-01 BMatC= 3.53D-05 BMatP= 2.37D-04
 IDIUse=3 WtCom= 9.96D-01 WtEn= 3.63D-03
 Coeff-Com:  0.239D-03-0.743D-02 0.347D-01 0.981D-01 0.377D+00 0.497D+00
 Coeff-En:   0.000D+00 0.000D+00 0.000D+00 0.000D+00 0.426D-01 0.957D+00
 Coeff:      0.238D-03-0.740D-02 0.346D-01 0.977D-01 0.376D+00 0.499D+00
 Gap=     0.146 Goal=   None    Shift=    0.000
 RMSDP=3.01D-05 MaxDP=9.97D-04 DE=-2.08D-04 OVMax= 2.72D-03

 Cycle   7  Pass 1  IDiag  1:
 E= -973.752175585914     Delta-E=       -0.000035968823 Rises=F Damp=F
 DIIS: error= 1.27D-04 at cycle   7 NSaved=   7.
 NSaved= 7 IEnMin= 7 EnMin= -973.752175585914     IErMin= 7 ErrMin= 1.27D-04
 ErrMax= 1.27D-04  0.00D+00 EMaxC= 1.00D-01 BMatC= 2.85D-06 BMatP= 3.53D-05
 IDIUse=3 WtCom= 9.99D-01 WtEn= 1.27D-03
 Coeff-Com:  0.426D-04-0.394D-02 0.807D-02 0.275D-01 0.134D+00 0.268D+00
 Coeff-Com:  0.566D+00
 Coeff-En:   0.000D+00 0.000D+00 0.000D+00 0.000D+00 0.000D+00 0.000D+00
 Coeff-En:   0.100D+01
 Coeff:      0.425D-04-0.393D-02 0.806D-02 0.275D-01 0.134D+00 0.268D+00
 Coeff:      0.567D+00
 Gap=     0.146 Goal=   None    Shift=    0.000
 RMSDP=7.72D-06 MaxDP=2.32D-04 DE=-3.60D-05 OVMax= 5.20D-04

 Cycle   8  Pass 1  IDiag  1:
 E= -973.752178630713     Delta-E=       -0.000003044799 Rises=F Damp=F
 DIIS: error= 2.45D-05 at cycle   8 NSaved=   8.
 NSaved= 8 IEnMin= 8 EnMin= -973.752178630713     IErMin= 8 ErrMin= 2.45D-05
 ErrMax= 2.45D-05  0.00D+00 EMaxC= 1.00D-01 BMatC= 1.11D-07 BMatP= 2.85D-06
 IDIUse=1 WtCom= 1.00D+00 WtEn= 0.00D+00
 Coeff-Com:  0.951D-04-0.661D-03-0.190D-03-0.620D-04 0.793D-02 0.396D-01
 Coeff-Com:  0.184D+00 0.769D+00
 Coeff:      0.951D-04-0.661D-03-0.190D-03-0.620D-04 0.793D-02 0.396D-01
 Coeff:      0.184D+00 0.769D+00
 Gap=     0.146 Goal=   None    Shift=    0.000
 RMSDP=2.17D-06 MaxDP=8.43D-05 DE=-3.04D-06 OVMax= 2.73D-04

 Cycle   9  Pass 1  IDiag  1:
 E= -973.752178743114     Delta-E=       -0.000000112401 Rises=F Damp=F
 DIIS: error= 8.90D-06 at cycle   9 NSaved=   9.
 NSaved= 9 IEnMin= 9 EnMin= -973.752178743114     IErMin= 9 ErrMin= 8.90D-06
 ErrMax= 8.90D-06  0.00D+00 EMaxC= 1.00D-01 BMatC= 2.23D-08 BMatP= 1.11D-07
 IDIUse=1 WtCom= 1.00D+00 WtEn= 0.00D+00
 Coeff-Com:  0.551D-04-0.124D-03-0.793D-03-0.236D-02-0.659D-02-0.316D-03
 Coeff-Com:  0.433D-01 0.391D+00 0.576D+00
 Coeff:      0.551D-04-0.124D-03-0.793D-03-0.236D-02-0.659D-02-0.316D-03
 Coeff:      0.433D-01 0.391D+00 0.576D+00
 Gap=     0.146 Goal=   None    Shift=    0.000
 RMSDP=7.93D-07 MaxDP=2.68D-05 DE=-1.12D-07 OVMax= 4.51D-05

 Cycle  10  Pass 1  IDiag  1:
 E= -973.752178768144     Delta-E=       -0.000000025030 Rises=F Damp=F
 DIIS: error= 1.80D-06 at cycle  10 NSaved=  10.
 NSaved=10 IEnMin=10 EnMin= -973.752178768144     IErMin=10 ErrMin= 1.80D-06
 ErrMax= 1.80D-06  0.00D+00 EMaxC= 1.00D-01 BMatC= 8.98D-10 BMatP= 2.23D-08
 IDIUse=1 WtCom= 1.00D+00 WtEn= 0.00D+00
 Coeff-Com:  0.146D-04 0.288D-04-0.294D-03-0.972D-03-0.369D-02-0.436D-02
 Coeff-Com: -0.526D-02 0.724D-01 0.190D+00 0.752D+00
 Coeff:      0.146D-04 0.288D-04-0.294D-03-0.972D-03-0.369D-02-0.436D-02
 Coeff:     -0.526D-02 0.724D-01 0.190D+00 0.752D+00
 Gap=     0.146 Goal=   None    Shift=    0.000
 RMSDP=3.19D-07 MaxDP=8.94D-06 DE=-2.50D-08 OVMax= 2.09D-05

 Cycle  11  Pass 1  IDiag  1:
 E= -973.752178768879     Delta-E=       -0.000000000735 Rises=F Damp=F
 DIIS: error= 1.19D-06 at cycle  11 NSaved=  11.
 NSaved=11 IEnMin=11 EnMin= -973.752178768879     IErMin=11 ErrMin= 1.19D-06
 ErrMax= 1.19D-06  0.00D+00 EMaxC= 1.00D-01 BMatC= 4.30D-10 BMatP= 8.98D-10
 IDIUse=1 WtCom= 1.00D+00 WtEn= 0.00D+00
 Coeff-Com:  0.384D-05 0.215D-04-0.481D-04-0.213D-03-0.105D-02-0.174D-02
 Coeff-Com: -0.651D-02 0.426D-02 0.452D-01 0.460D+00 0.500D+00
 Coeff:      0.384D-05 0.215D-04-0.481D-04-0.213D-03-0.105D-02-0.174D-02
 Coeff:     -0.651D-02 0.426D-02 0.452D-01 0.460D+00 0.500D+00
 Gap=     0.146 Goal=   None    Shift=    0.000
 RMSDP=1.16D-07 MaxDP=3.59D-06 DE=-7.35D-10 OVMax= 1.22D-05

 Cycle  12  Pass 1  IDiag  1:
 E= -973.752178769377     Delta-E=       -0.000000000498 Rises=F Damp=F
 DIIS: error= 2.81D-07 at cycle  12 NSaved=  12.
 NSaved=12 IEnMin=12 EnMin= -973.752178769377     IErMin=12 ErrMin= 2.81D-07
 ErrMax= 2.81D-07  0.00D+00 EMaxC= 1.00D-01 BMatC= 1.26D-11 BMatP= 4.30D-10
 IDIUse=1 WtCom= 1.00D+00 WtEn= 0.00D+00
 Coeff-Com:  0.931D-07 0.619D-05 0.112D-05-0.111D-04-0.128D-03-0.326D-03
 Coeff-Com: -0.220D-02-0.460D-02-0.106D-02 0.101D+00 0.189D+00 0.718D+00
 Coeff:      0.931D-07 0.619D-05 0.112D-05-0.111D-04-0.128D-03-0.326D-03
 Coeff:     -0.220D-02-0.460D-02-0.106D-02 0.101D+00 0.189D+00 0.718D+00
 Gap=     0.146 Goal=   None    Shift=    0.000
 RMSDP=2.38D-08 MaxDP=7.06D-07 DE=-4.98D-10 OVMax= 2.53D-06

 Cycle  13  Pass 1  IDiag  1:
 E= -973.752178769382     Delta-E=       -0.000000000005 Rises=F Damp=F
 DIIS: error= 1.22D-07 at cycle  13 NSaved=  13.
 NSaved=13 IEnMin=13 EnMin= -973.752178769382     IErMin=13 ErrMin= 1.22D-07
 ErrMax= 1.22D-07  0.00D+00 EMaxC= 1.00D-01 BMatC= 3.92D-12 BMatP= 1.26D-11
 IDIUse=1 WtCom= 1.00D+00 WtEn= 0.00D+00
 Coeff-Com: -0.527D-06 0.928D-06 0.665D-05 0.205D-04 0.576D-04 0.141D-04
 Coeff-Com: -0.590D-03-0.363D-02-0.685D-02-0.156D-03 0.508D-01 0.426D+00
 Coeff-Com:  0.535D+00
 Coeff:     -0.527D-06 0.928D-06 0.665D-05 0.205D-04 0.576D-04 0.141D-04
 Coeff:     -0.590D-03-0.363D-02-0.685D-02-0.156D-03 0.508D-01 0.426D+00
 Coeff:      0.535D+00
 Gap=     0.146 Goal=   None    Shift=    0.000
 RMSDP=9.16D-09 MaxDP=2.31D-07 DE=-4.77D-12 OVMax= 9.11D-07

 Error on total polarization charges =  0.01282
 SCF Done:  E(RB3LYP) =  -973.752178769     A.U. after   13 cycles
            NFock= 13  Conv=0.92D-08     -V/T= 2.0049
 KE= 9.689595081963D+02 PE=-4.266559081462D+03 EE= 1.332497938725D+03
 Leave Link  502 at Tue Aug 18 12:23:12 2026, MaxMem=  2684354560 cpu:             418.9 elap:             419.6
 (Enter /mnt/data/applications/G16/g16/l601.exe)
 Copying SCF densities to generalized density rwf, IOpCl= 0 IROHF=0.

 **********************************************************************

            Population analysis using the SCF density.

 **********************************************************************

 Alpha  occ. eigenvalues --  -88.91537 -19.12857 -10.28134 -10.24692 -10.24691
 Alpha  occ. eigenvalues --  -10.21382 -10.21380 -10.21065 -10.21063 -10.20976
 Alpha  occ. eigenvalues --  -10.20975 -10.20536 -10.20536 -10.20243 -10.20242
 Alpha  occ. eigenvalues --   -7.97822  -5.94215  -5.93802  -5.93315  -1.03895
 Alpha  occ. eigenvalues --   -0.89701  -0.87494  -0.82145  -0.78393  -0.77063
 Alpha  occ. eigenvalues --   -0.76426  -0.71999  -0.66216  -0.63473  -0.61169
 Alpha  occ. eigenvalues --   -0.60208  -0.55769  -0.54485  -0.49957  -0.47896
 Alpha  occ. eigenvalues --   -0.47781  -0.47283  -0.44512  -0.44092  -0.43444
 Alpha  occ. eigenvalues --   -0.43101  -0.42782  -0.39795  -0.38769  -0.37816
 Alpha  occ. eigenvalues --   -0.37796  -0.36641  -0.35530  -0.34069  -0.32848
 Alpha  occ. eigenvalues --   -0.27817  -0.27068  -0.27019  -0.26295  -0.22503
 Alpha virt. eigenvalues --   -0.07883  -0.03754  -0.01890  -0.01814   0.01886
 Alpha virt. eigenvalues --    0.05080   0.05822   0.08034   0.09098   0.10285
 Alpha virt. eigenvalues --    0.10696   0.12796   0.13011   0.14672   0.14908
 Alpha virt. eigenvalues --    0.15213   0.17093   0.20174   0.23099   0.24341
 Alpha virt. eigenvalues --    0.25350   0.28093   0.28633   0.28699   0.30705
 Alpha virt. eigenvalues --    0.32239   0.32974   0.38454   0.39226   0.40991
 Alpha virt. eigenvalues --    0.41076   0.42857   0.44744   0.44926   0.45263
 Alpha virt. eigenvalues --    0.45937   0.46458   0.47686   0.47938   0.48032
 Alpha virt. eigenvalues --    0.48143   0.48581   0.49088   0.49915   0.50282
 Alpha virt. eigenvalues --    0.50662   0.51045   0.51210   0.52045   0.52806
 Alpha virt. eigenvalues --    0.55348   0.55790   0.56621   0.57643   0.58670
 Alpha virt. eigenvalues --    0.61419   0.62352   0.62551   0.63019   0.63199
 Alpha virt. eigenvalues --    0.63288   0.64428   0.65736   0.65840   0.66893
 Alpha virt. eigenvalues --    0.68625   0.70198   0.71045   0.72159   0.74461
 Alpha virt. eigenvalues --    0.74688   0.74942   0.79998   0.82477   0.82749
 Alpha virt. eigenvalues --    0.84967   0.86727   0.87253   0.87619   0.89466
 Alpha virt. eigenvalues --    0.90011   0.91166   0.91360   0.92231   0.93481
 Alpha virt. eigenvalues --    0.96574   0.96638   0.96774   0.97630   0.98848
 Alpha virt. eigenvalues --    1.00576   1.01577   1.01671   1.02222   1.03252
 Alpha virt. eigenvalues --    1.04111   1.05116   1.05560   1.07032   1.08666
 Alpha virt. eigenvalues --    1.11896   1.14008   1.15835   1.16264   1.18694
 Alpha virt. eigenvalues --    1.20242   1.20290   1.27550   1.30108   1.32157
 Alpha virt. eigenvalues --    1.34009   1.34645   1.37239   1.40008   1.42884
 Alpha virt. eigenvalues --    1.44516   1.45981   1.46576   1.47041   1.47681
 Alpha virt. eigenvalues --    1.48958   1.49777   1.50406   1.50688   1.50848
 Alpha virt. eigenvalues --    1.54055   1.58581   1.60710   1.60777   1.61594
 Alpha virt. eigenvalues --    1.62389   1.63156   1.63880   1.64419   1.65685
 Alpha virt. eigenvalues --    1.66336   1.67213   1.68809   1.69185   1.72837
 Alpha virt. eigenvalues --    1.73450   1.75055   1.75698   1.77038   1.78334
 Alpha virt. eigenvalues --    1.78528   1.78615   1.79735   1.80418   1.82709
 Alpha virt. eigenvalues --    1.83059   1.83702   1.85187   1.85203   1.86323
 Alpha virt. eigenvalues --    1.90161   1.90836   1.93780   1.94545   1.94722
 Alpha virt. eigenvalues --    1.95930   1.98810   2.00020   2.01328   2.05688
 Alpha virt. eigenvalues --    2.08112   2.12148   2.16176   2.16458   2.17587
 Alpha virt. eigenvalues --    2.19292   2.20702   2.22510   2.28411   2.35026
 Alpha virt. eigenvalues --    2.36049   2.37004   2.38523   2.42208   2.43052
 Alpha virt. eigenvalues --    2.46035   2.54342   2.55459   2.63892   2.64570
 Alpha virt. eigenvalues --    2.69554   2.70167   2.71704   2.74262   2.76120
 Alpha virt. eigenvalues --    2.76840   2.81160   2.81809   2.99349   3.06145
 Alpha virt. eigenvalues --    3.33292   3.42245   3.47374   3.56245
          Condensed to atoms (all electrons):
               1          2          3          4          5          6
     1  C    4.732796   0.505877   0.016634  -0.082775   0.021564   0.443516
     2  C    0.505877   4.748473   0.439477   0.019478  -0.079835   0.010726
     3  C    0.016634   0.439477   5.361255   0.339259  -0.058212  -0.083740
     4  C   -0.082775   0.019478   0.339259   5.430252   0.363571   0.012832
     5  C    0.021564  -0.079835  -0.058212   0.363571   4.912039   0.436849
     6  C    0.443516   0.010726  -0.083740   0.012832   0.436849   4.822711
     7  C   -0.000720   0.007570  -0.060940   0.159005  -0.063035   0.013320
     8  C    0.000020  -0.000250  -0.044939  -0.023187   0.023125  -0.000552
     9  C   -0.000130   0.001705  -0.013502  -0.044938   0.000125   0.000075
    10  C    0.000001  -0.000234   0.001705  -0.000249   0.000042   0.000000
    11  H   -0.000000  -0.000007   0.000420   0.000035  -0.000002   0.000000
    12  C    0.000000   0.000001  -0.000130   0.000020   0.000001  -0.000000
    13  C   -0.000000   0.000000   0.000075  -0.000552  -0.000005   0.000000
    14  C    0.000001   0.000042   0.000126   0.023118  -0.001183  -0.000005
    15  H    0.394857  -0.042771   0.010805  -0.000004   0.009517  -0.050885
    16  H   -0.045259   0.392414  -0.052310   0.012691  -0.000528   0.009941
    17  H    0.010352  -0.001014   0.015145  -0.048299   0.392268  -0.057275
    18  H   -0.051363   0.009425   0.000514   0.009410  -0.042820   0.395530
    19  H    0.000000  -0.000000   0.000003   0.000001   0.000000  -0.000000
    20  H    0.000000   0.000000  -0.000001   0.000002  -0.000000  -0.000000
    21  H    0.000000   0.000002  -0.000189   0.003422  -0.000150  -0.000003
    22  S    0.005093  -0.087075   0.325143  -0.080602   0.007747  -0.000210
    23  O   -0.000002  -0.000069   0.004331  -0.126803   0.014952   0.001430
               7          8          9         10         11         12
     1  C   -0.000720   0.000020  -0.000130   0.000001  -0.000000   0.000000
     2  C    0.007570  -0.000250   0.001705  -0.000234  -0.000007   0.000001
     3  C   -0.060940  -0.044939  -0.013502   0.001705   0.000420  -0.000130
     4  C    0.159005  -0.023187  -0.044938  -0.000249   0.000035   0.000020
     5  C   -0.063035   0.023125   0.000125   0.000042  -0.000002   0.000001
     6  C    0.013320  -0.000552   0.000075   0.000000   0.000000  -0.000000
     7  C    5.089170   0.159032  -0.060965   0.007571  -0.000164  -0.000720
     8  C    0.159032   5.430238   0.339184   0.019470   0.012690  -0.082769
     9  C   -0.060965   0.339184   5.361264   0.439509  -0.052322   0.016618
    10  C    0.007571   0.019470   0.439509   4.748392   0.392396   0.505916
    11  H   -0.000164   0.012690  -0.052322   0.392396   0.711845  -0.045233
    12  C   -0.000720  -0.082769   0.016618   0.505916  -0.045233   4.732899
    13  C    0.013317   0.012840  -0.083746   0.010718   0.009938   0.443448
    14  C   -0.063065   0.363600  -0.058165  -0.079812  -0.000528   0.021556
    15  H    0.000027   0.000001   0.000003  -0.000000  -0.000000   0.000000
    16  H   -0.000164   0.000034   0.000419  -0.000007   0.000010  -0.000000
    17  H   -0.032084   0.003428  -0.000189   0.000002  -0.000000   0.000000
    18  H   -0.000348   0.000002  -0.000001   0.000000   0.000000   0.000000
    19  H    0.000027  -0.000003   0.010805  -0.042737  -0.014958   0.394842
    20  H   -0.000348   0.009409   0.000513   0.009424  -0.000236  -0.051408
    21  H   -0.032066  -0.048270   0.015147  -0.001014   0.000052   0.010353
    22  S   -0.028494  -0.080585   0.325171  -0.087083  -0.007038   0.005094
    23  O    0.787486  -0.126760   0.004333  -0.000069   0.000001  -0.000002
              13         14         15         16         17         18
     1  C   -0.000000   0.000001   0.394857  -0.045259   0.010352  -0.051363
     2  C    0.000000   0.000042  -0.042771   0.392414  -0.001014   0.009425
     3  C    0.000075   0.000126   0.010805  -0.052310   0.015145   0.000514
     4  C   -0.000552   0.023118  -0.000004   0.012691  -0.048299   0.009410
     5  C   -0.000005  -0.001183   0.009517  -0.000528   0.392268  -0.042820
     6  C    0.000000  -0.000005  -0.050885   0.009941  -0.057275   0.395530
     7  C    0.013317  -0.063065   0.000027  -0.000164  -0.032084  -0.000348
     8  C    0.012840   0.363600   0.000001   0.000034   0.003428   0.000002
     9  C   -0.083746  -0.058165   0.000003   0.000419  -0.000189  -0.000001
    10  C    0.010718  -0.079812  -0.000000  -0.000007   0.000002   0.000000
    11  H    0.009938  -0.000528  -0.000000   0.000010  -0.000000   0.000000
    12  C    0.443448   0.021556   0.000000  -0.000000   0.000000   0.000000
    13  C    4.822724   0.436959  -0.000000   0.000000  -0.000003  -0.000000
    14  C    0.436959   4.911753   0.000000  -0.000002  -0.000150  -0.000000
    15  H   -0.000000   0.000000   0.709182  -0.014962  -0.000224  -0.013924
    16  H    0.000000  -0.000002  -0.014962   0.711856   0.000052  -0.000236
    17  H   -0.000003  -0.000150  -0.000224   0.000052   0.733837  -0.014090
    18  H   -0.000000  -0.000000  -0.013924  -0.000236  -0.014090   0.715957
    19  H   -0.050898   0.009512  -0.000000  -0.000000   0.000000   0.000000
    20  H    0.395524  -0.042762   0.000000   0.000000  -0.000000  -0.000000
    21  H   -0.057269   0.392316   0.000000  -0.000000  -0.000065  -0.000000
    22  S   -0.000209   0.007743  -0.000234  -0.007040  -0.000117   0.000030
    23  O    0.001427   0.014951   0.000000   0.000001   0.030346  -0.000010
              19         20         21         22         23
     1  C    0.000000   0.000000   0.000000   0.005093  -0.000002
     2  C   -0.000000   0.000000   0.000002  -0.087075  -0.000069
     3  C    0.000003  -0.000001  -0.000189   0.325143   0.004331
     4  C    0.000001   0.000002   0.003422  -0.080602  -0.126803
     5  C    0.000000  -0.000000  -0.000150   0.007747   0.014952
     6  C   -0.000000  -0.000000  -0.000003  -0.000210   0.001430
     7  C    0.000027  -0.000348  -0.032066  -0.028494   0.787486
     8  C   -0.000003   0.009409  -0.048270  -0.080585  -0.126760
     9  C    0.010805   0.000513   0.015147   0.325171   0.004333
    10  C   -0.042737   0.009424  -0.001014  -0.087083  -0.000069
    11  H   -0.014958  -0.000236   0.000052  -0.007038   0.000001
    12  C    0.394842  -0.051408   0.010353   0.005094  -0.000002
    13  C   -0.050898   0.395524  -0.057269  -0.000209   0.001427
    14  C    0.009512  -0.042762   0.392316   0.007743   0.014951
    15  H   -0.000000   0.000000   0.000000  -0.000234   0.000000
    16  H   -0.000000   0.000000  -0.000000  -0.007040   0.000001
    17  H    0.000000  -0.000000  -0.000065  -0.000117   0.030346
    18  H    0.000000  -0.000000  -0.000000   0.000030  -0.000010
    19  H    0.709156  -0.013916  -0.000224  -0.000234   0.000000
    20  H   -0.013916   0.715945  -0.014097   0.000030  -0.000010
    21  H   -0.000224  -0.014097   0.733695  -0.000117   0.030290
    22  S   -0.000234   0.000030  -0.000117  15.586236  -0.000001
    23  O    0.000000  -0.000010   0.030290  -0.000001   7.628370
 Mulliken charges:
               1
     1  C    0.049537
     2  C    0.076064
     3  C   -0.200929
     4  C    0.034314
     5  C    0.063971
     6  C    0.045740
     7  C    0.106588
     8  C    0.034241
     9  C   -0.200912
    10  C    0.076056
    11  H   -0.006899
    12  C    0.049515
    13  C    0.045712
    14  C    0.063995
    15  H   -0.001387
    16  H   -0.006910
    17  H   -0.031921
    18  H   -0.008077
    19  H   -0.001376
    20  H   -0.008069
    21  H   -0.031815
    22  S    0.116753
    23  O   -0.264192
 Sum of Mulliken charges =  -0.00000
 Mulliken charges with hydrogens summed into heavy atoms:
               1
     1  C    0.048150
     2  C    0.069154
     3  C   -0.200929
     4  C    0.034314
     5  C    0.032050
     6  C    0.037663
     7  C    0.106588
     8  C    0.034241
     9  C   -0.200912
    10  C    0.069156
    12  C    0.048139
    13  C    0.037643
    14  C    0.032181
    22  S    0.116753
    23  O   -0.264192
 Electronic spatial extent (au):  <R**2>=          20058.0329
 Charge=             -0.0000 electrons
 Dipole moment (field-independent basis, Debye):
    X=              1.8458    Y=             -3.1392    Z=              0.0463  Tot=              3.6419
 Quadrupole moment (field-independent basis, Debye-Ang):
   XX=            -96.8629   YY=           -100.5035   ZZ=            -96.8672
   XY=             35.2967   XZ=             -0.2062   YZ=              0.0818
 Traceless Quadrupole moment (field-independent basis, Debye-Ang):
   XX=              1.2150   YY=             -2.4256   ZZ=              1.2106
   XY=             35.2967   XZ=             -0.2062   YZ=              0.0818
 Octapole moment (field-independent basis, Debye-Ang**2):
  XXX=           1593.9628  YYY=           -608.1760  ZZZ=             -2.5359  XYY=            687.3931
  XXY=           -477.8348  XXZ=              0.3616  XZZ=            596.7207  YZZ=           -197.8958
  YYZ=             -0.2222  XYZ=             -0.4236
 Hexadecapole moment (field-independent basis, Debye-Ang**3):
 XXXX=         -21295.8837 YYYY=          -4137.8998 ZZZZ=           -106.3782 XXXY=           5222.0887
 XXXZ=              3.1664 YYYX=           3641.8895 YYYZ=              0.8758 ZZZX=              9.0430
 ZZZY=             -1.3324 XXYY=          -5667.9633 XXZZ=          -4199.0444 YYZZ=           -726.4576
 XXYZ=              2.5348 YYXZ=             -1.4683 ZZXY=           1038.5505
 N-N= 9.913494557716D+02 E-N=-4.266559063871D+03  KE= 9.689595081963D+02

 Atomic contributions to Alpha molecular orbitals:
 Alpha occ 36 OE=-0.478 is C12-p=0.1083 C1-p=0.1083 C13-p=0.1027 C6-p=0.1025
 Alpha occ 37 OE=-0.473 is S22-p=0.0794
 Alpha occ 38 OE=-0.445 is H11-s=0.1000
 Alpha occ 39 OE=-0.441 is C5-p=0.1024 C14-p=0.1023 C2-p=0.1020 C10-p=0.1019
 Alpha occ 40 OE=-0.434 is C7-p=0.2209 O23-p=0.1435 C8-p=0.1140 C4-p=0.1140
 Alpha occ 41 OE=-0.431 is O23-p=0.4137 C7-p=0.1505
 Alpha occ 42 OE=-0.428 is C9-p=0.0880
 Alpha occ 43 OE=-0.398 is H20-s=0.1118 H18-s=0.1118
 Alpha occ 44 OE=-0.388 is C9-p=0.1030 C3-p=0.1029
 Alpha occ 45 OE=-0.378 is O23-p=0.3034 C7-p=0.1787 S22-p=0.1344
 Alpha occ 46 OE=-0.378 is S22-p=0.1512
 Alpha occ 47 OE=-0.366 is C6-p=0.0747
 Alpha occ 48 OE=-0.355 is S22-p=0.0974
 Alpha occ 49 OE=-0.341 is S22-p=0.3315
 Alpha occ 50 OE=-0.328 is S22-p=0.2973 C13-p=0.1334 C6-p=0.1334
 Alpha occ 51 OE=-0.278 is C6-p=0.1474 C13-p=0.1474 C3-p=0.1427 C9-p=0.1426 C14-p=0.1075 C5-p=0.1074
 Alpha occ 52 OE=-0.271 is C12-p=0.1605 C8-p=0.1581 C1-p=0.1563 C4-p=0.1535
 Alpha occ 53 OE=-0.270 is O23-p=0.1913 C4-p=0.1151 C8-p=0.1104 C2-p=0.1012
 Alpha occ 54 OE=-0.263 is O23-p=0.6971
 Alpha occ 55 OE=-0.225 is S22-p=0.3767
 Alpha vir 56 OE=-0.079 is C7-p=0.1959 O23-p=0.1567
 Alpha vir 57 OE=-0.038 is C13-p=0.1364 C6-p=0.1363 C3-p=0.1327 C9-p=0.1326 C4-p=0.1065 C8-p=0.1064
 Alpha vir 58 OE=-0.019 is C2-p=0.1547 C10-p=0.1546 C5-p=0.1499 C14-p=0.1497
 Alpha vir 59 OE=-0.018 is C9-p=0.1290 C3-p=0.1290 C10-p=0.1012 C2-p=0.1011
 Alpha vir 60 OE=0.019 is S22-p=0.4915
 Alpha vir 61 OE=0.051 is C7-p=0.2160 C1-p=0.1305 C12-p=0.1305
 Alpha vir 62 OE=0.058 is H19-s=0.1510 H15-s=0.1509 S22-p=0.1131
 Alpha vir 63 OE=0.080 is H19-s=0.2338 H15-s=0.2336 H20-s=0.2134 H18-s=0.2133
 Alpha vir 64 OE=0.091 is S22-p=0.2384 H11-s=0.1100 H16-s=0.1099 H18-s=0.1061 H20-s=0.1058
 Alpha vir 65 OE=0.103 is H17-s=0.2009 H21-s=0.2001 H16-s=0.1941 H11-s=0.1934 H18-s=0.1213 H20-s=0.1212
 Alpha vir 66 OE=0.107 is H21-s=0.1852 H17-s=0.1848 H11-s=0.1837 H16-s=0.1831 H20-s=0.1154 H18-s=0.1145
 Alpha vir 67 OE=0.128 is H17-s=0.1926 H21-s=0.1924 H16-s=0.1511 H11-s=0.1509
 Alpha vir 68 OE=0.130 is C6-p=0.0949
 Alpha vir 69 OE=0.147 is H19-s=0.2640 H15-s=0.2623 H18-s=0.1488 H20-s=0.1478
 Alpha vir 70 OE=0.149 is H21-s=0.2525 H17-s=0.2502 H16-s=0.1672 H11-s=0.1657
 Alpha vir 71 OE=0.152 is H18-s=0.2027 H20-s=0.2026 H15-s=0.1962 H19-s=0.1958 H16-s=0.1127 H11-s=0.1125 H21-s=0.1112 H17-s=0.1111
 Alpha vir 72 OE=0.171 is C7-p=0.1516 C4-p=0.1366 C8-p=0.1366
 Alpha vir 73 OE=0.202 is C3-p=0.2476 C9-p=0.2475
 Alpha vir 74 OE=0.231 is C4-p=0.1144 C8-p=0.1144 C7-p=0.1002
 Alpha vir 75 OE=0.243 is C7-p=0.2621
 
 No NMR shielding tensors so no spin-rotation constants.
 Leave Link  601 at Tue Aug 18 12:23:12 2026, MaxMem=  2684354560 cpu:               0.3 elap:               0.3
 (Enter /mnt/data/applications/G16/g16/l701.exe)
 ... and contract with generalized density number  0.
 Compute integral first derivatives.
 R6Disp: Adding Grimme-D3(BJ) dispersion energy 1st derivatives to the gradient.
   1 Symmetry operations used in ECPInt.
 ECPInt:  NShTT=    6786 NPrTT=   65756 LenC2=    6458 LenP2D=   34293.
 LDataN:  DoStor=T MaxTD1= 5 Len=  102
 D1PCM: PCM CHGder 1st derivatives, ID1Alg=3 FixD1E=F DoIter=F DoCFld=F I1PDM=0.
 GePol: Maximum number of non-zero 1st derivatives   =     247
 Leave Link  701 at Tue Aug 18 12:23:26 2026, MaxMem=  2684354560 cpu:              13.4 elap:              13.4
 (Enter /mnt/data/applications/G16/g16/l702.exe)
 L702 exits ... SP integral derivatives will be done elsewhere.
 Leave Link  702 at Tue Aug 18 12:23:27 2026, MaxMem=  2684354560 cpu:               0.0 elap:               0.0
 (Enter /mnt/data/applications/G16/g16/l703.exe)
 Integral derivatives from FoFJK, PRISM(SPDF).
 Compute integral first derivatives, UseDBF=F ICtDFT=           0.
 Calling FoFJK, ICntrl=      2127 FMM=F ISym2X=0 I1Cent= 0 IOpClX= 0 NMat=1 NMatS=1 NMatT=0.
 FoFJK:  IHMeth= 1 ICntrl=    2127 DoSepK=F KAlg= 0 I1Cent=           0 FoldK=F
 IRaf=         0 NMat=       1 IRICut=       1 DoRegI=T DoRafI=F ISym2E= 0 IDoP0=0 IntGTp=1.
 FoFCou: FMM=F IPFlag=           0 FMFlag=      100000 FMFlg1=         800
         NFxFlg=           0 DoJE=F BraDBF=F KetDBF=F FulRan=T
         wScrn=  0.000000 ICntrl=      2127 IOpCl=  0 I1Cent=           0 NGrid=           0
         NMat0=    1 NMatS0=      1 NMatT0=    0 NMatD0=    1 NMtDS0=    0 NMtDT0=    0
 Symmetry not used in FoFCou.
 Leave Link  703 at Tue Aug 18 12:25:24 2026, MaxMem=  2684354560 cpu:             117.2 elap:             117.3
 (Enter /mnt/data/applications/G16/g16/l716.exe)
 Dipole        = 7.26180098D-01-1.23505328D+00 1.82161135D-02
 -------------------------------------------------------------------
 Center     Atomic                   Forces (Hartrees/Bohr)
 Number     Number              X              Y              Z
 -------------------------------------------------------------------
      1        6           0.000067659    0.000055517    0.000000853
      2        6          -0.000321034   -0.000093991   -0.000005302
      3        6          -0.000136180    0.000196740    0.000003788
      4        6           0.000076806   -0.000233043    0.000009640
      5        6          -0.000304280   -0.000342834    0.000003060
      6        6           0.000062597    0.000060167   -0.000002292
      7        6          -0.000364528    0.000623227   -0.000047662
      8        6           0.000168222   -0.000188055    0.000010336
      9        6          -0.000107842    0.000215636    0.000003984
     10        6           0.000239677    0.000227265   -0.000001276
     11        1          -0.000145716    0.000077335    0.000000656
     12        6          -0.000076258   -0.000039318    0.000000517
     13        6          -0.000086492   -0.000018512   -0.000000897
     14        6           0.000449701    0.000100705    0.000002646
     15        1           0.000060924    0.000147300   -0.000001130
     16        1           0.000001399    0.000165859    0.000000295
     17        1           0.000178216   -0.000120117    0.000001508
     18        1           0.000152105   -0.000040637    0.000000285
     19        1          -0.000157562    0.000015923   -0.000000037
     20        1          -0.000036094   -0.000157329    0.000000112
     21        1           0.000018845   -0.000212640    0.000002035
     22       16           0.000055900   -0.000094149   -0.000002696
     23        8           0.000203935   -0.000345049    0.000021577
 -------------------------------------------------------------------
 Cartesian Forces:  Max     0.000623227 RMS     0.000164092
 Leave Link  716 at Tue Aug 18 12:25:25 2026, MaxMem=  2684354560 cpu:               0.0 elap:               0.2
 (Enter /mnt/data/applications/G16/g16/l103.exe)

 GradGradGradGradGradGradGradGradGradGradGradGradGradGradGradGradGradGrad
 Berny optimization.
 FormGI is forming the generalized inverse of G from B-inverse, IUseBI=4.
 Internal  Forces:  Max     0.000401051 RMS     0.000100968
 Search for a local minimum.
 Step number   1 out of a maximum of  135
 All quantities printed in internal units (Hartrees-Bohrs-Radians)
 RMS Force = .10097D-03 SwitMx=.10000D-02 MixMth= 2
 Mixed Optimization -- En-DIIS/RFO-DIIS
 Second derivative matrix not updated -- first step.
 ITU=  0
     Eigenvalues ---    0.00934   0.00985   0.01458   0.01558   0.01679
     Eigenvalues ---    0.01720   0.01810   0.01828   0.02052   0.02054
     Eigenvalues ---    0.02063   0.02063   0.02108   0.02108   0.02127
     Eigenvalues ---    0.02127   0.02143   0.02144   0.02185   0.02185
     Eigenvalues ---    0.16000   0.16000   0.16000   0.16000   0.16000
     Eigenvalues ---    0.16000   0.16000   0.16000   0.22000   0.22000
     Eigenvalues ---    0.22555   0.22597   0.24479   0.24503   0.25000
     Eigenvalues ---    0.25000   0.25000   0.25000   0.29023   0.29025
     Eigenvalues ---    0.33608   0.33782   0.34601   0.34605   0.34606
     Eigenvalues ---    0.34607   0.34669   0.34670   0.34811   0.34813
     Eigenvalues ---    0.38675   0.40614   0.41106   0.41108   0.43509
     Eigenvalues ---    0.44014   0.44338   0.44439   0.46423   0.46427
     Eigenvalues ---    0.47390   0.47396   0.89143
 RFO step:  Lambda=-3.55086646D-06 EMin= 9.33938011D-03
 Linear search not attempted -- first point.
 Iteration  1 RMS(Cart)=  0.00054535 RMS(Int)=  0.00000016
 Iteration  2 RMS(Cart)=  0.00000026 RMS(Int)=  0.00000005
 ITry= 1 IFail=0 DXMaxC= 1.73D-03 DCOld= 1.00D+10 DXMaxT= 3.00D-01 DXLimC= 3.00D+00 Rises=F
 Variable       Old X    -DE/DX   Delta X   Delta X   Delta X     New X
                                 (Linear)    (Quad)   (Total)
    R1        2.62484  -0.00025   0.00000  -0.00053  -0.00053   2.62431
    R2        2.65623  -0.00027   0.00000  -0.00062  -0.00062   2.65561
    R3        2.06318  -0.00016   0.00000  -0.00045  -0.00045   2.06273
    R4        2.66151   0.00001   0.00000   0.00004   0.00004   2.66155
    R5        2.06321  -0.00015   0.00000  -0.00042  -0.00042   2.06279
    R6        2.66466  -0.00024   0.00000  -0.00053  -0.00053   2.66413
    R7        3.33110   0.00007   0.00000   0.00022   0.00022   3.33132
    R8        2.66719   0.00002   0.00000   0.00005   0.00005   2.66724
    R9        2.80337   0.00025   0.00000   0.00076   0.00076   2.80413
   R10        2.62011  -0.00027   0.00000  -0.00057  -0.00057   2.61954
   R11        2.05983  -0.00019   0.00000  -0.00053  -0.00053   2.05930
   R12        2.06215  -0.00015   0.00000  -0.00045  -0.00045   2.06170
   R13        2.80329   0.00025   0.00000   0.00076   0.00076   2.80404
   R14        2.33331  -0.00040   0.00000  -0.00045  -0.00045   2.33286
   R15        2.66470  -0.00024   0.00000  -0.00053  -0.00053   2.66416
   R16        2.66721   0.00002   0.00000   0.00006   0.00006   2.66727
   R17        2.66143   0.00001   0.00000   0.00004   0.00004   2.66148
   R18        3.33111   0.00007   0.00000   0.00021   0.00021   3.33132
   R19        2.06327  -0.00015   0.00000  -0.00042  -0.00042   2.06285
   R20        2.62486  -0.00025   0.00000  -0.00053  -0.00053   2.62434
   R21        2.65625  -0.00026   0.00000  -0.00060  -0.00060   2.65565
   R22        2.06319  -0.00016   0.00000  -0.00045  -0.00045   2.06274
   R23        2.62012  -0.00027   0.00000  -0.00057  -0.00057   2.61955
   R24        2.06216  -0.00016   0.00000  -0.00045  -0.00045   2.06171
   R25        2.05980  -0.00018   0.00000  -0.00053  -0.00053   2.05927
    A1        2.09957  -0.00001   0.00000  -0.00012  -0.00012   2.09945
    A2        2.08480   0.00003   0.00000   0.00023   0.00023   2.08504
    A3        2.09881  -0.00002   0.00000  -0.00011  -0.00011   2.09870
    A4        2.09722   0.00007   0.00000   0.00031   0.00031   2.09753
    A5        2.09843   0.00005   0.00000   0.00034   0.00034   2.09878
    A6        2.08753  -0.00011   0.00000  -0.00065  -0.00065   2.08688
    A7        2.09787  -0.00003   0.00000  -0.00007  -0.00007   2.09780
    A8        2.01884  -0.00001   0.00000  -0.00006  -0.00006   2.01877
    A9        2.16648   0.00004   0.00000   0.00013   0.00013   2.16661
   A10        2.06593  -0.00014   0.00000  -0.00052  -0.00052   2.06541
   A11        2.16812   0.00003   0.00000   0.00013   0.00013   2.16825
   A12        2.04913   0.00011   0.00000   0.00039   0.00039   2.04953
   A13        2.11998   0.00013   0.00000   0.00058   0.00058   2.12056
   A14        2.04546  -0.00018   0.00000  -0.00100  -0.00100   2.04446
   A15        2.11775   0.00005   0.00000   0.00041   0.00041   2.11816
   A16        2.08581  -0.00002   0.00000  -0.00019  -0.00019   2.08562
   A17        2.09815  -0.00002   0.00000  -0.00012  -0.00012   2.09803
   A18        2.09923   0.00005   0.00000   0.00031   0.00031   2.09954
   A19        2.09058  -0.00012   0.00000  -0.00044  -0.00044   2.09014
   A20        2.09624   0.00006   0.00000   0.00022   0.00022   2.09646
   A21        2.09637   0.00006   0.00000   0.00022   0.00022   2.09659
   A22        2.16802   0.00003   0.00000   0.00014   0.00014   2.16816
   A23        2.04933   0.00010   0.00000   0.00038   0.00038   2.04970
   A24        2.06584  -0.00013   0.00000  -0.00051  -0.00051   2.06532
   A25        2.09793  -0.00003   0.00000  -0.00006  -0.00006   2.09787
   A26        2.16657   0.00004   0.00000   0.00012   0.00012   2.16670
   A27        2.01868  -0.00001   0.00000  -0.00006  -0.00006   2.01862
   A28        2.08743  -0.00011   0.00000  -0.00064  -0.00064   2.08679
   A29        2.09726   0.00007   0.00000   0.00030   0.00030   2.09756
   A30        2.09849   0.00005   0.00000   0.00035   0.00035   2.09884
   A31        2.09950  -0.00001   0.00000  -0.00011  -0.00011   2.09938
   A32        2.08476   0.00003   0.00000   0.00023   0.00023   2.08499
   A33        2.09893  -0.00002   0.00000  -0.00012  -0.00012   2.09881
   A34        2.08583  -0.00002   0.00000  -0.00018  -0.00018   2.08565
   A35        2.09825  -0.00002   0.00000  -0.00013  -0.00013   2.09811
   A36        2.09911   0.00005   0.00000   0.00032   0.00032   2.09942
   A37        2.12001   0.00013   0.00000   0.00058   0.00058   2.12059
   A38        2.04562  -0.00018   0.00000  -0.00099  -0.00099   2.04463
   A39        2.11755   0.00005   0.00000   0.00042   0.00042   2.11797
   A40        1.80659  -0.00001   0.00000  -0.00008  -0.00008   1.80651
    D1        0.00002   0.00000   0.00000   0.00001   0.00001   0.00003
    D2       -3.14155  -0.00000   0.00000  -0.00004  -0.00004   3.14159
    D3       -3.14156   0.00000   0.00000   0.00001   0.00001  -3.14154
    D4        0.00005  -0.00000   0.00000  -0.00004  -0.00004   0.00002
    D5        0.00005  -0.00000   0.00000  -0.00001  -0.00001   0.00005
    D6       -3.14155  -0.00000   0.00000  -0.00001  -0.00001  -3.14155
    D7       -3.14156  -0.00000   0.00000  -0.00001  -0.00001  -3.14157
    D8        0.00003  -0.00000   0.00000  -0.00001  -0.00001   0.00002
    D9       -0.00005  -0.00000   0.00000  -0.00004  -0.00004  -0.00010
   D10        3.14144  -0.00000   0.00000  -0.00002  -0.00002   3.14142
   D11        3.14152   0.00000   0.00000   0.00001   0.00001   3.14153
   D12       -0.00017   0.00000   0.00000   0.00003   0.00003  -0.00014
   D13        0.00001   0.00000   0.00000   0.00007   0.00007   0.00009
   D14        3.14156   0.00000   0.00000   0.00010   0.00010  -3.14152
   D15       -3.14147   0.00000   0.00000   0.00004   0.00004  -3.14143
   D16        0.00008   0.00000   0.00000   0.00007   0.00007   0.00015
   D17       -3.14145   0.00000   0.00000   0.00028   0.00028  -3.14116
   D18        0.00004   0.00000   0.00000   0.00031   0.00031   0.00035
   D19        0.00006  -0.00000   0.00000  -0.00007  -0.00007  -0.00001
   D20       -3.14158  -0.00000   0.00000  -0.00001  -0.00001  -3.14159
   D21       -3.14149  -0.00000   0.00000  -0.00009  -0.00009  -3.14159
   D22        0.00005  -0.00000   0.00000  -0.00003  -0.00003   0.00002
   D23       -0.00030  -0.00000   0.00000  -0.00048  -0.00048  -0.00078
   D24        3.14106   0.00001   0.00000   0.00085   0.00085  -3.14128
   D25        3.14125  -0.00000   0.00000  -0.00046  -0.00046   3.14079
   D26       -0.00057   0.00001   0.00000   0.00088   0.00088   0.00030
   D27       -0.00010   0.00000   0.00000   0.00004   0.00004  -0.00006
   D28        3.14150   0.00000   0.00000   0.00004   0.00004   3.14154
   D29        3.14155  -0.00000   0.00000  -0.00002  -0.00002   3.14153
   D30       -0.00004  -0.00000   0.00000  -0.00002  -0.00002  -0.00006
   D31        0.00040   0.00000   0.00000   0.00044   0.00044   0.00084
   D32       -3.14133   0.00000   0.00000   0.00043   0.00043  -3.14090
   D33       -3.14096  -0.00001   0.00000  -0.00089  -0.00089   3.14134
   D34        0.00050  -0.00001   0.00000  -0.00091  -0.00091  -0.00041
   D35        3.14135  -0.00000   0.00000  -0.00003  -0.00003   3.14132
   D36       -0.00027   0.00000   0.00000   0.00001   0.00001  -0.00027
   D37       -0.00011  -0.00000   0.00000  -0.00001  -0.00001  -0.00012
   D38        3.14146   0.00000   0.00000   0.00002   0.00002   3.14148
   D39       -3.14141   0.00000   0.00000   0.00005   0.00005  -3.14136
   D40        0.00016   0.00000   0.00000   0.00002   0.00002   0.00017
   D41        0.00006   0.00000   0.00000   0.00003   0.00003   0.00009
   D42       -3.14156   0.00000   0.00000   0.00000   0.00000  -3.14156
   D43       -3.14148  -0.00000   0.00000  -0.00003  -0.00003  -3.14150
   D44        0.00008   0.00000   0.00000   0.00000   0.00000   0.00008
   D45        0.00014  -0.00000   0.00000  -0.00006  -0.00006   0.00008
   D46       -3.14149  -0.00000   0.00000  -0.00003  -0.00003  -3.14152
   D47        0.00005  -0.00000   0.00000  -0.00034  -0.00034  -0.00030
   D48       -3.14157  -0.00000   0.00000  -0.00031  -0.00031   3.14131
   D49        0.00000  -0.00000   0.00000  -0.00001  -0.00001  -0.00000
   D50       -3.14157  -0.00000   0.00000  -0.00001  -0.00001  -3.14158
   D51        3.14156   0.00000   0.00000   0.00002   0.00002   3.14159
   D52       -0.00001   0.00000   0.00000   0.00002   0.00002   0.00001
   D53       -0.00006   0.00000   0.00000   0.00002   0.00002  -0.00003
   D54        3.14154   0.00000   0.00000   0.00002   0.00002   3.14156
   D55        3.14152   0.00000   0.00000   0.00003   0.00003   3.14154
   D56       -0.00007   0.00000   0.00000   0.00003   0.00003  -0.00005
   D57        0.00003  -0.00000   0.00000  -0.00004  -0.00004  -0.00001
   D58       -3.14154  -0.00000   0.00000  -0.00001  -0.00001  -3.14154
   D59       -3.14157  -0.00000   0.00000  -0.00004  -0.00004   3.14158
   D60        0.00005  -0.00000   0.00000  -0.00001  -0.00001   0.00005
         Item               Value     Threshold  Converged?
 Maximum Force            0.000401     0.000450     YES
 RMS     Force            0.000101     0.000300     YES
 Maximum Displacement     0.001732     0.001800     YES
 RMS     Displacement     0.000545     0.001200     YES
 Predicted change in Energy=-1.775425D-06
 Optimization completed.
    -- Stationary point found.
                           ----------------------------
                           !   Optimized Parameters   !
                           ! (Angstroms and Degrees)  !
 --------------------------                            --------------------------
 ! Name  Definition              Value          Derivative Info.                !
 --------------------------------------------------------------------------------
 ! R1    R(1,2)                  1.389          -DE/DX =   -0.0002              !
 ! R2    R(1,6)                  1.4056         -DE/DX =   -0.0003              !
 ! R3    R(1,15)                 1.0918         -DE/DX =   -0.0002              !
 ! R4    R(2,3)                  1.4084         -DE/DX =    0.0                 !
 ! R5    R(2,16)                 1.0918         -DE/DX =   -0.0001              !
 ! R6    R(3,4)                  1.4101         -DE/DX =   -0.0002              !
 ! R7    R(3,22)                 1.7627         -DE/DX =    0.0001              !
 ! R8    R(4,5)                  1.4114         -DE/DX =    0.0                 !
 ! R9    R(4,7)                  1.4835         -DE/DX =    0.0003              !
 ! R10   R(5,6)                  1.3865         -DE/DX =   -0.0003              !
 ! R11   R(5,17)                 1.09           -DE/DX =   -0.0002              !
 ! R12   R(6,18)                 1.0912         -DE/DX =   -0.0002              !
 ! R13   R(7,8)                  1.4834         -DE/DX =    0.0003              !
 ! R14   R(7,23)                 1.2347         -DE/DX =   -0.0004              !
 ! R15   R(8,9)                  1.4101         -DE/DX =   -0.0002              !
 ! R16   R(8,14)                 1.4114         -DE/DX =    0.0                 !
 ! R17   R(9,10)                 1.4084         -DE/DX =    0.0                 !
 ! R18   R(9,22)                 1.7627         -DE/DX =    0.0001              !
 ! R19   R(10,11)                1.0918         -DE/DX =   -0.0001              !
 ! R20   R(10,12)                1.389          -DE/DX =   -0.0002              !
 ! R21   R(12,13)                1.4056         -DE/DX =   -0.0003              !
 ! R22   R(12,19)                1.0918         -DE/DX =   -0.0002              !
 ! R23   R(13,14)                1.3865         -DE/DX =   -0.0003              !
 ! R24   R(13,20)                1.0912         -DE/DX =   -0.0002              !
 ! R25   R(14,21)                1.09           -DE/DX =   -0.0002              !
 ! A1    A(2,1,6)              120.2963         -DE/DX =    0.0                 !
 ! A2    A(2,1,15)             119.4505         -DE/DX =    0.0                 !
 ! A3    A(6,1,15)             120.2532         -DE/DX =    0.0                 !
 ! A4    A(1,2,3)              120.162          -DE/DX =    0.0001              !
 ! A5    A(1,2,16)             120.2313         -DE/DX =    0.0                 !
 ! A6    A(3,2,16)             119.6067         -DE/DX =   -0.0001              !
 ! A7    A(2,3,4)              120.1988         -DE/DX =    0.0                 !
 ! A8    A(2,3,22)             115.6708         -DE/DX =    0.0                 !
 ! A9    A(4,3,22)             124.1304         -DE/DX =    0.0                 !
 ! A10   A(3,4,5)              118.3691         -DE/DX =   -0.0001              !
 ! A11   A(3,4,7)              124.2242         -DE/DX =    0.0                 !
 ! A12   A(5,4,7)              117.4067         -DE/DX =    0.0001              !
 ! A13   A(4,5,6)              121.4659         -DE/DX =    0.0001              !
 ! A14   A(4,5,17)             117.196          -DE/DX =   -0.0002              !
 ! A15   A(6,5,17)             121.3381         -DE/DX =    0.0                 !
 ! A16   A(1,6,5)              119.5079         -DE/DX =    0.0                 !
 ! A17   A(1,6,18)             120.2153         -DE/DX =    0.0                 !
 ! A18   A(5,6,18)             120.2769         -DE/DX =    0.0                 !
 ! A19   A(4,7,8)              119.7814         -DE/DX =   -0.0001              !
 ! A20   A(4,7,23)             120.1056         -DE/DX =    0.0001              !
 ! A21   A(8,7,23)             120.113          -DE/DX =    0.0001              !
 ! A22   A(7,8,9)              124.2185         -DE/DX =    0.0                 !
 ! A23   A(7,8,14)             117.4177         -DE/DX =    0.0001              !
 ! A24   A(9,8,14)             118.3638         -DE/DX =   -0.0001              !
 ! A25   A(8,9,10)             120.2024         -DE/DX =    0.0                 !
 ! A26   A(8,9,22)             124.1356         -DE/DX =    0.0                 !
 ! A27   A(10,9,22)            115.662          -DE/DX =    0.0                 !
 ! A28   A(9,10,11)            119.601          -DE/DX =   -0.0001              !
 ! A29   A(9,10,12)            120.1642         -DE/DX =    0.0001              !
 ! A30   A(11,10,12)           120.2348         -DE/DX =    0.0                 !
 ! A31   A(10,12,13)           120.2923         -DE/DX =    0.0                 !
 ! A32   A(10,12,19)           119.4477         -DE/DX =    0.0                 !
 ! A33   A(13,12,19)           120.26           -DE/DX =    0.0                 !
 ! A34   A(12,13,14)           119.5095         -DE/DX =    0.0                 !
 ! A35   A(12,13,20)           120.2206         -DE/DX =    0.0                 !
 ! A36   A(14,13,20)           120.2699         -DE/DX =    0.0                 !
 ! A37   A(8,14,13)            121.4679         -DE/DX =    0.0001              !
 ! A38   A(8,14,21)            117.2053         -DE/DX =   -0.0002              !
 ! A39   A(13,14,21)           121.3269         -DE/DX =    0.0                 !
 ! A40   A(3,22,9)             103.5099         -DE/DX =    0.0                 !
 ! D1    D(6,1,2,3)              0.0011         -DE/DX =    0.0                 !
 ! D2    D(6,1,2,16)           180.0022         -DE/DX =    0.0                 !
 ! D3    D(15,1,2,3)          -179.9979         -DE/DX =    0.0                 !
 ! D4    D(15,1,2,16)            0.0031         -DE/DX =    0.0                 !
 ! D5    D(2,1,6,5)              0.0031         -DE/DX =    0.0                 !
 ! D6    D(2,1,6,18)          -179.9973         -DE/DX =    0.0                 !
 ! D7    D(15,1,6,5)          -179.9979         -DE/DX =    0.0                 !
 ! D8    D(15,1,6,18)            0.0017         -DE/DX =    0.0                 !
 ! D9    D(1,2,3,4)             -0.003          -DE/DX =    0.0                 !
 ! D10   D(1,2,3,22)           179.9912         -DE/DX =    0.0                 !
 ! D11   D(16,2,3,4)           179.9959         -DE/DX =    0.0                 !
 ! D12   D(16,2,3,22)           -0.0099         -DE/DX =    0.0                 !
 ! D13   D(2,3,4,5)              0.0007         -DE/DX =    0.0                 !
 ! D14   D(2,3,4,7)           -180.0016         -DE/DX =    0.0                 !
 ! D15   D(22,3,4,5)          -179.993          -DE/DX =    0.0                 !
 ! D16   D(22,3,4,7)             0.0047         -DE/DX =    0.0                 !
 ! D17   D(2,3,22,9)          -179.9915         -DE/DX =    0.0                 !
 ! D18   D(4,3,22,9)             0.0024         -DE/DX =    0.0                 !
 ! D19   D(3,4,5,6)              0.0036         -DE/DX =    0.0                 !
 ! D20   D(3,4,5,17)          -179.9993         -DE/DX =    0.0                 !
 ! D21   D(7,4,5,6)           -179.9943         -DE/DX =    0.0                 !
 ! D22   D(7,4,5,17)             0.0028         -DE/DX =    0.0                 !
 ! D23   D(3,4,7,8)             -0.0171         -DE/DX =    0.0                 !
 ! D24   D(3,4,7,23)          -180.0306         -DE/DX =    0.0                 !
 ! D25   D(5,4,7,8)            179.9806         -DE/DX =    0.0                 !
 ! D26   D(5,4,7,23)            -0.0329         -DE/DX =    0.0                 !
 ! D27   D(4,5,6,1)             -0.0055         -DE/DX =    0.0                 !
 ! D28   D(4,5,6,18)           179.9949         -DE/DX =    0.0                 !
 ! D29   D(17,5,6,1)           179.9975         -DE/DX =    0.0                 !
 ! D30   D(17,5,6,18)           -0.0021         -DE/DX =    0.0                 !
 ! D31   D(4,7,8,9)              0.0228         -DE/DX =    0.0                 !
 ! D32   D(4,7,8,14)          -179.9849         -DE/DX =    0.0                 !
 ! D33   D(23,7,8,9)           180.0363         -DE/DX =    0.0                 !
 ! D34   D(23,7,8,14)            0.0286         -DE/DX =    0.0                 !
 ! D35   D(7,8,9,10)           179.9859         -DE/DX =    0.0                 !
 ! D36   D(7,8,9,22)            -0.0156         -DE/DX =    0.0                 !
 ! D37   D(14,8,9,10)           -0.0063         -DE/DX =    0.0                 !
 ! D38   D(14,8,9,22)          179.9922         -DE/DX =    0.0                 !
 ! D39   D(7,8,14,13)         -179.9896         -DE/DX =    0.0                 !
 ! D40   D(7,8,14,21)            0.0089         -DE/DX =    0.0                 !
 ! D41   D(9,8,14,13)            0.0032         -DE/DX =    0.0                 !
 ! D42   D(9,8,14,21)         -179.9983         -DE/DX =    0.0                 !
 ! D43   D(8,9,10,11)         -179.9934         -DE/DX =    0.0                 !
 ! D44   D(8,9,10,12)            0.0048         -DE/DX =    0.0                 !
 ! D45   D(22,9,10,11)           0.008          -DE/DX =    0.0                 !
 ! D46   D(22,9,10,12)        -179.9939         -DE/DX =    0.0                 !
 ! D47   D(8,9,22,3)             0.0028         -DE/DX =    0.0                 !
 ! D48   D(10,9,22,3)          180.0014         -DE/DX =    0.0                 !
 ! D49   D(9,10,12,13)           0.0001         -DE/DX =    0.0                 !
 ! D50   D(9,10,12,19)        -179.9988         -DE/DX =    0.0                 !
 ! D51   D(11,10,12,13)        179.9983         -DE/DX =    0.0                 !
 ! D52   D(11,10,12,19)         -0.0006         -DE/DX =    0.0                 !
 ! D53   D(10,12,13,14)         -0.0033         -DE/DX =    0.0                 !
 ! D54   D(10,12,13,20)        179.9968         -DE/DX =    0.0                 !
 ! D55   D(19,12,13,14)        179.9956         -DE/DX =    0.0                 !
 ! D56   D(19,12,13,20)         -0.0043         -DE/DX =    0.0                 !
 ! D57   D(12,13,14,8)           0.0016         -DE/DX =    0.0                 !
 ! D58   D(12,13,14,21)       -179.9968         -DE/DX =    0.0                 !
 ! D59   D(20,13,14,8)         180.0015         -DE/DX =    0.0                 !
 ! D60   D(20,13,14,21)          0.003          -DE/DX =    0.0                 !
 --------------------------------------------------------------------------------
 Lowest energy point so far.  Saving SCF results.
 Largest change from initial coordinates is atom    0       0.000 Angstoms.
 GradGradGradGradGradGradGradGradGradGradGradGradGradGradGradGradGradGrad

 Leave Link  103 at Tue Aug 18 12:25:25 2026, MaxMem=  2684354560 cpu:               0.0 elap:               0.0
 (Enter /mnt/data/applications/G16/g16/l202.exe)
                          Input orientation:                          
 ---------------------------------------------------------------------
 Center     Atomic      Atomic             Coordinates (Angstroms)
 Number     Number       Type             X           Y           Z
 ---------------------------------------------------------------------
      1          6           0       -9.145630   -0.385280    0.008130
      2          6           0       -7.758980   -0.465280    0.019800
      3          6           0       -6.982300    0.709610    0.014710
      4          6           0       -7.607770    1.973260   -0.002320
      5          6           0       -9.018250    2.023300   -0.013940
      6          6           0       -9.783530    0.867140   -0.008850
      7          6           0       -6.878580    3.265140   -0.008870
      8          6           0       -5.395220    3.274020    0.003200
      9          6           0       -4.595400    2.112830    0.020550
     10          6           0       -3.191140    2.219870    0.030760
     11          1           0       -2.581310    1.314310    0.044070
     12          6           0       -2.586410    3.470320    0.023890
     13          6           0       -3.370330    4.636920    0.006720
     14          6           0       -4.752730    4.530720   -0.003390
     15          1           0       -9.736350   -1.303450    0.012270
     16          1           0       -7.264600   -1.438650    0.032950
     17          1           0       -9.481650    3.009820   -0.027050
     18          1           0      -10.873010    0.928450   -0.017960
     19          1           0       -1.496850    3.539680    0.031920
     20          1           0       -2.894010    5.618710    0.001390
     21          1           0       -5.389010    5.415630   -0.016800
     22         16           0       -5.235910    0.470600    0.030970
     23          8           0       -7.504330    4.329450   -0.024570
 ---------------------------------------------------------------------
                    Distance matrix (angstroms):
                    1          2          3          4          5
     1  C    0.000000
     2  C    1.389005   0.000000
     3  C    2.424629   1.408412   0.000000
     4  C    2.815641   2.443324   1.410076   0.000000
     5  C    2.412047   2.789253   2.423158   1.411415   0.000000
     6  C    1.405618   2.423833   2.805755   2.440794   1.386501
     7  C    4.297135   3.833009   2.557743   1.483481   2.473940
     8  C    5.239855   4.423799   3.015817   2.566590   3.832876
     9  C    5.190886   4.081040   2.768818   3.015688   4.423891
    10  C    6.499482   5.298614   4.080936   4.423633   5.830596
    11  H    6.780870   5.475016   4.442436   5.069681   6.476128
    12  C    7.608500   6.499573   5.190901   5.239841   6.592713
    13  C    7.653534   6.729997   5.335743   5.005104   6.223378
    14  C    6.592781   5.830788   4.424047   3.832996   4.947922
    15  H    1.091789   2.147691   3.411335   3.907415   3.403472
    16  H    2.156033   1.091803   2.166806   3.429306   3.881055
    17  H    3.411869   3.878931   3.396978   2.141610   1.090015
    18  H    2.170348   3.411904   3.896997   3.428362   2.153798
    19  H    8.597076   7.433312   6.172500   6.308580   7.672872
    20  H    8.667796   7.789943   6.388549   5.958931   7.101656
    21  H    6.911105   6.340599   4.968520   4.095487   4.967826
    22  S    4.002370   2.691074   1.762745   2.807991   4.088886
    23  O    4.992356   4.801693   3.657499   2.358564   2.758694
                    6          7          8          9         10
     6  C    0.000000
     7  C    3.766847   0.000000
     8  C    5.005046   1.483436   0.000000
     9  C    5.335663   2.557654   1.410098   0.000000
    10  C    6.729863   3.832933   2.443350   1.408371   0.000000
    11  H    7.216283   4.719647   3.429318   2.166736   1.091837
    12  C    7.653506   4.297196   2.815737   2.424630   1.389018
    13  C    7.439127   3.766941   2.440838   2.805712   2.423802
    14  C    6.223407   2.474058   1.411429   2.423122   2.789222
    15  H    2.171205   5.388813   6.308623   6.172553   7.433297
    16  H    3.415175   4.719788   5.069983   4.442724   5.475203
    17  H    2.163918   2.615625   4.095073   4.968128   6.340180
    18  H    1.091242   4.627707   5.958887   6.388476   7.789818
    19  H    8.707077   5.388882   3.907517   3.411311   2.147677
    20  H    8.369170   4.627764   3.428356   3.896959   3.411929
    21  H    6.324605   2.616006   2.141712   3.397013   3.878889
    22  S    4.565050   3.241821   2.808080   1.762748   2.690916
    23  O    4.145189   1.234733   2.358612   3.657501   4.801770
                   11         12         13         14         15
    11  H    0.000000
    12  C    2.156110   0.000000
    13  C    3.415214   1.405625   0.000000
    14  C    3.881058   2.412081   1.386510   0.000000
    15  H    7.618942   8.597131   8.707137   7.672956   0.000000
    16  H    5.432506   6.781116   7.216549   6.476433   2.475531
    17  H    7.105949   6.910788   6.324304   4.967533   4.320962
    18  H    8.300905   8.667791   8.369203   7.101717   2.504853
    19  H    2.475575   1.091795   2.171289   3.403551   9.557492
    20  H    4.315954   2.170416   1.091247   2.153737   9.733141
    21  H    4.970685   3.411811   2.163796   1.089999   8.002890
    22  S    2.785484   4.002277   4.564997   4.088914   4.837516
    23  O    5.773379   4.992634   4.145536   2.759033   6.059112
                   16         17         18         19         20
    16  H    0.000000
    17  H    4.970694   0.000000
    18  H    4.315829   2.503611   0.000000
    19  H    7.619102   8.002578   9.733108   0.000000
    20  H    8.301168   7.085486   9.255450   2.505066   0.000000
    21  H    7.106438   4.747392   7.085834   4.320934   2.503317
    22  S    2.785825   4.947455   5.655875   4.837336   5.655829
    23  O    5.773366   2.377230   4.786946   6.059434   4.787266
                   21         22         23
    21  H    0.000000
    22  S    4.947630   0.000000
    23  O    2.377904   4.476554   0.000000
 Symmetry turned off by external request.
 Stoichiometry    C13H8OS
 Framework group  C1[X(C13H8OS)]
 Deg. of freedom    63
 Full point group                 C1      NOp   1
 Rotational constants (GHZ):           1.2174964           0.4226740           0.3137504
 Leave Link  202 at Tue Aug 18 12:25:25 2026, MaxMem=  2684354560 cpu:               0.0 elap:               0.0
 (Enter /mnt/data/applications/G16/g16/l9999.exe)
 1\1\GINC-KIMIK2197\FOpt\RB3LYP\Gen\C13H8O1S1\ASOLE\18-Aug-2026\0\\#p o
 pt freq b3lyp/gen EmpiricalDispersion=GD3BJ pseudo=read scrf=(solvent=
 acetonitrile,pcm) nosymm pop=(Orbitals=20)\\Title Card Required\\0,1\C
 ,-9.14563,-0.38528,0.00813\C,-7.75898,-0.46528,0.0198\C,-6.9823,0.7096
 1,0.01471\C,-7.60777,1.97326,-0.00232\C,-9.01825,2.0233,-0.01394\C,-9.
 78353,0.86714,-0.00885\C,-6.87858,3.26514,-0.00887\C,-5.39522,3.27402,
 0.0032\C,-4.5954,2.11283,0.02055\C,-3.19114,2.21987,0.03076\H,-2.58131
 ,1.31431,0.04407\C,-2.58641,3.47032,0.02389\C,-3.37033,4.63692,0.00672
 \C,-4.75273,4.53072,-0.00339\H,-9.73635,-1.30345,0.01227\H,-7.2646,-1.
 43865,0.03295\H,-9.48165,3.00982,-0.02705\H,-10.87301,0.92845,-0.01796
 \H,-1.49685,3.53968,0.03192\H,-2.89401,5.61871,0.00139\H,-5.38901,5.41
 563,-0.0168\S,-5.23591,0.4706,0.03097\O,-7.50433,4.32945,-0.02457\\Ver
 sion=AM64L-G16RevA.03\HF=-973.7521788\RMSD=9.164e-09\RMSF=1.641e-04\Di
 pole=0.7261801,-1.2350533,0.0182161\Quadrupole=0.903316,-1.8033798,0.9
 000638,26.2421942,-0.1533367,0.0608201\PG=C01 [X(C13H8O1S1)]\\@


    UPON JULIA'S CLOTHES

 WHENAS IN SILKS MY JULIA GOES,
 THEN, THEN, METHINKS, HOW SWEETLY FLOWS
 THAT LIQUEFACTION OF HER CLOTHES.

 NEXT, WHEN I CAST MINE EYES, AND SEE
 THAT BRAVE VIBRATION, EACH WAY FREE,
 O, HOW THAT GLITTERING TAKETH ME!
     -- ROBERT HERRICK, 1648
 Leave Link 9999 at Tue Aug 18 12:25:26 2026, MaxMem=  2684354560 cpu:               0.0 elap:               0.1
 Job cpu time:       0 days  0 hours  9 minutes 27.7 seconds.
 Elapsed time:       0 days  0 hours  9 minutes 28.8 seconds.
 File lengths (MBytes):  RWF=     97 Int=      0 D2E=      0 Chk=      8 Scr=      1
 Normal termination of Gaussian 16 at Tue Aug 18 12:25:26 2026.
 (Enter /mnt/data/applications/G16/g16/l1.exe)
 Link1:  Proceeding to internal job step number  2.
 ------------------------------------------------------------------
 #P Geom=AllCheck Guess=TCheck SCRF=Check GenChk RB3LYP/ChkBas Freq
 ------------------------------------------------------------------
 1/10=4,29=7,30=1,38=1,40=1/1,3;
 2/12=2,15=1,40=1/2;
 3/5=7,6=2,11=2,14=-4,16=1,17=8,25=1,30=1,67=1,70=2,71=2,74=-5,82=7,116=1,124=41,140=1/1,2,3;
 4/5=101/1;
 5/5=2,38=6,98=1/2;
 8/6=4,10=90,11=11/1;
 11/6=1,8=1,9=11,15=111,16=1,31=1/1,2,10;
 10/6=1,31=1/2;
 6/7=2,8=2,9=2,10=2,28=1/1;
 7/8=1,10=1,25=1,30=1/1,2,3,16;
 1/10=4,30=1/3;
 99//99;
 Leave Link    1 at Tue Aug 18 12:25:27 2026, MaxMem=  2684354560 cpu:               0.0 elap:               0.0
 (Enter /mnt/data/applications/G16/g16/l101.exe)
 Structure from the checkpoint file:  "TX.chk"
 -------------------
 Title Card Required
 -------------------
 Charge =  0 Multiplicity = 1
 Redundant internal coordinates found in file.  (old form).
 C,0,-9.14563,-0.38528,0.00813
 C,0,-7.75898,-0.46528,0.0198
 C,0,-6.9823,0.70961,0.01471
 C,0,-7.60777,1.97326,-0.00232
 C,0,-9.01825,2.0233,-0.01394
 C,0,-9.78353,0.86714,-0.00885
 C,0,-6.87858,3.26514,-0.00887
 C,0,-5.39522,3.27402,0.0032
 C,0,-4.5954,2.11283,0.02055
 C,0,-3.19114,2.21987,0.03076
 H,0,-2.58131,1.31431,0.04407
 C,0,-2.58641,3.47032,0.02389
 C,0,-3.37033,4.63692,0.00672
 C,0,-4.75273,4.53072,-0.00339
 H,0,-9.73635,-1.30345,0.01227
 H,0,-7.2646,-1.43865,0.03295
 H,0,-9.48165,3.00982,-0.02705
 H,0,-10.87301,0.92845,-0.01796
 H,0,-1.49685,3.53968,0.03192
 H,0,-2.89401,5.61871,0.00139
 H,0,-5.38901,5.41563,-0.0168
 S,0,-5.23591,0.4706,0.03097
 O,0,-7.50433,4.32945,-0.02457
 Recover connectivity data from disk.
 ITRead=  0  0  0  0  0  0  0  0  0  0  0  0  0  0  0  0  0  0  0  0
 ITRead=  0  0  0
 MicOpt= -1 -1 -1 -1 -1 -1 -1 -1 -1 -1 -1 -1 -1 -1 -1 -1 -1 -1 -1 -1
 MicOpt= -1 -1 -1
 NAtoms=     23 NQM=       23 NQMF=       0 NMMI=      0 NMMIF=      0
                NMic=       0 NMicF=      0.
                    Isotopes and Nuclear Properties:
 (Nuclear quadrupole moments (NQMom) in fm**2, nuclear magnetic moments (NMagM)
  in nuclear magnetons)

  Atom         1           2           3           4           5           6           7           8           9          10
 IAtWgt=          12          12          12          12          12          12          12          12          12          12
 AtmWgt=  12.0000000  12.0000000  12.0000000  12.0000000  12.0000000  12.0000000  12.0000000  12.0000000  12.0000000  12.0000000
 NucSpn=           0           0           0           0           0           0           0           0           0           0
 AtZEff=   3.6000000   3.6000000   3.6000000   3.6000000   3.6000000   3.6000000   3.6000000   3.6000000   3.6000000   3.6000000
 NQMom=    0.0000000   0.0000000   0.0000000   0.0000000   0.0000000   0.0000000   0.0000000   0.0000000   0.0000000   0.0000000
 NMagM=    0.0000000   0.0000000   0.0000000   0.0000000   0.0000000   0.0000000   0.0000000   0.0000000   0.0000000   0.0000000
 AtZNuc=   6.0000000   6.0000000   6.0000000   6.0000000   6.0000000   6.0000000   6.0000000   6.0000000   6.0000000   6.0000000

  Atom        11          12          13          14          15          16          17          18          19          20
 IAtWgt=           1          12          12          12           1           1           1           1           1           1
 AtmWgt=   1.0078250  12.0000000  12.0000000  12.0000000   1.0078250   1.0078250   1.0078250   1.0078250   1.0078250   1.0078250
 NucSpn=           1           0           0           0           1           1           1           1           1           1
 AtZEff=   1.0000000   3.6000000   3.6000000   3.6000000   1.0000000   1.0000000   1.0000000   1.0000000   1.0000000   1.0000000
 NQMom=    0.0000000   0.0000000   0.0000000   0.0000000   0.0000000   0.0000000   0.0000000   0.0000000   0.0000000   0.0000000
 NMagM=    2.7928460   0.0000000   0.0000000   0.0000000   2.7928460   2.7928460   2.7928460   2.7928460   2.7928460   2.7928460
 AtZNuc=   1.0000000   6.0000000   6.0000000   6.0000000   1.0000000   1.0000000   1.0000000   1.0000000   1.0000000   1.0000000

  Atom        21          22          23
 IAtWgt=           1          32          16
 AtmWgt=   1.0078250  31.9720718  15.9949146
 NucSpn=           1           0           0
 AtZEff=   1.0000000  13.6000000   5.6000000
 NQMom=    0.0000000   0.0000000   0.0000000
 NMagM=    2.7928460   0.0000000   0.0000000
 AtZNuc=   1.0000000  16.0000000   8.0000000
 Leave Link  101 at Tue Aug 18 12:25:27 2026, MaxMem=  2684354560 cpu:               0.3 elap:               0.3
 (Enter /mnt/data/applications/G16/g16/l103.exe)

 GradGradGradGradGradGradGradGradGradGradGradGradGradGradGradGradGradGrad
 Berny optimization.
 Initialization pass.
                           ----------------------------
                           !    Initial Parameters    !
                           ! (Angstroms and Degrees)  !
 --------------------------                            --------------------------
 ! Name  Definition              Value          Derivative Info.                !
 --------------------------------------------------------------------------------
 ! R1    R(1,2)                  1.389          calculate D2E/DX2 analytically  !
 ! R2    R(1,6)                  1.4056         calculate D2E/DX2 analytically  !
 ! R3    R(1,15)                 1.0918         calculate D2E/DX2 analytically  !
 ! R4    R(2,3)                  1.4084         calculate D2E/DX2 analytically  !
 ! R5    R(2,16)                 1.0918         calculate D2E/DX2 analytically  !
 ! R6    R(3,4)                  1.4101         calculate D2E/DX2 analytically  !
 ! R7    R(3,22)                 1.7627         calculate D2E/DX2 analytically  !
 ! R8    R(4,5)                  1.4114         calculate D2E/DX2 analytically  !
 ! R9    R(4,7)                  1.4835         calculate D2E/DX2 analytically  !
 ! R10   R(5,6)                  1.3865         calculate D2E/DX2 analytically  !
 ! R11   R(5,17)                 1.09           calculate D2E/DX2 analytically  !
 ! R12   R(6,18)                 1.0912         calculate D2E/DX2 analytically  !
 ! R13   R(7,8)                  1.4834         calculate D2E/DX2 analytically  !
 ! R14   R(7,23)                 1.2347         calculate D2E/DX2 analytically  !
 ! R15   R(8,9)                  1.4101         calculate D2E/DX2 analytically  !
 ! R16   R(8,14)                 1.4114         calculate D2E/DX2 analytically  !
 ! R17   R(9,10)                 1.4084         calculate D2E/DX2 analytically  !
 ! R18   R(9,22)                 1.7627         calculate D2E/DX2 analytically  !
 ! R19   R(10,11)                1.0918         calculate D2E/DX2 analytically  !
 ! R20   R(10,12)                1.389          calculate D2E/DX2 analytically  !
 ! R21   R(12,13)                1.4056         calculate D2E/DX2 analytically  !
 ! R22   R(12,19)                1.0918         calculate D2E/DX2 analytically  !
 ! R23   R(13,14)                1.3865         calculate D2E/DX2 analytically  !
 ! R24   R(13,20)                1.0912         calculate D2E/DX2 analytically  !
 ! R25   R(14,21)                1.09           calculate D2E/DX2 analytically  !
 ! A1    A(2,1,6)              120.2963         calculate D2E/DX2 analytically  !
 ! A2    A(2,1,15)             119.4505         calculate D2E/DX2 analytically  !
 ! A3    A(6,1,15)             120.2532         calculate D2E/DX2 analytically  !
 ! A4    A(1,2,3)              120.162          calculate D2E/DX2 analytically  !
 ! A5    A(1,2,16)             120.2313         calculate D2E/DX2 analytically  !
 ! A6    A(3,2,16)             119.6067         calculate D2E/DX2 analytically  !
 ! A7    A(2,3,4)              120.1988         calculate D2E/DX2 analytically  !
 ! A8    A(2,3,22)             115.6708         calculate D2E/DX2 analytically  !
 ! A9    A(4,3,22)             124.1304         calculate D2E/DX2 analytically  !
 ! A10   A(3,4,5)              118.3691         calculate D2E/DX2 analytically  !
 ! A11   A(3,4,7)              124.2242         calculate D2E/DX2 analytically  !
 ! A12   A(5,4,7)              117.4067         calculate D2E/DX2 analytically  !
 ! A13   A(4,5,6)              121.4659         calculate D2E/DX2 analytically  !
 ! A14   A(4,5,17)             117.196          calculate D2E/DX2 analytically  !
 ! A15   A(6,5,17)             121.3381         calculate D2E/DX2 analytically  !
 ! A16   A(1,6,5)              119.5079         calculate D2E/DX2 analytically  !
 ! A17   A(1,6,18)             120.2153         calculate D2E/DX2 analytically  !
 ! A18   A(5,6,18)             120.2769         calculate D2E/DX2 analytically  !
 ! A19   A(4,7,8)              119.7814         calculate D2E/DX2 analytically  !
 ! A20   A(4,7,23)             120.1056         calculate D2E/DX2 analytically  !
 ! A21   A(8,7,23)             120.113          calculate D2E/DX2 analytically  !
 ! A22   A(7,8,9)              124.2185         calculate D2E/DX2 analytically  !
 ! A23   A(7,8,14)             117.4177         calculate D2E/DX2 analytically  !
 ! A24   A(9,8,14)             118.3638         calculate D2E/DX2 analytically  !
 ! A25   A(8,9,10)             120.2024         calculate D2E/DX2 analytically  !
 ! A26   A(8,9,22)             124.1356         calculate D2E/DX2 analytically  !
 ! A27   A(10,9,22)            115.662          calculate D2E/DX2 analytically  !
 ! A28   A(9,10,11)            119.601          calculate D2E/DX2 analytically  !
 ! A29   A(9,10,12)            120.1642         calculate D2E/DX2 analytically  !
 ! A30   A(11,10,12)           120.2348         calculate D2E/DX2 analytically  !
 ! A31   A(10,12,13)           120.2923         calculate D2E/DX2 analytically  !
 ! A32   A(10,12,19)           119.4477         calculate D2E/DX2 analytically  !
 ! A33   A(13,12,19)           120.26           calculate D2E/DX2 analytically  !
 ! A34   A(12,13,14)           119.5095         calculate D2E/DX2 analytically  !
 ! A35   A(12,13,20)           120.2206         calculate D2E/DX2 analytically  !
 ! A36   A(14,13,20)           120.2699         calculate D2E/DX2 analytically  !
 ! A37   A(8,14,13)            121.4679         calculate D2E/DX2 analytically  !
 ! A38   A(8,14,21)            117.2053         calculate D2E/DX2 analytically  !
 ! A39   A(13,14,21)           121.3269         calculate D2E/DX2 analytically  !
 ! A40   A(3,22,9)             103.5099         calculate D2E/DX2 analytically  !
 ! D1    D(6,1,2,3)              0.0011         calculate D2E/DX2 analytically  !
 ! D2    D(6,1,2,16)          -179.9978         calculate D2E/DX2 analytically  !
 ! D3    D(15,1,2,3)          -179.9979         calculate D2E/DX2 analytically  !
 ! D4    D(15,1,2,16)            0.0031         calculate D2E/DX2 analytically  !
 ! D5    D(2,1,6,5)              0.0031         calculate D2E/DX2 analytically  !
 ! D6    D(2,1,6,18)          -179.9973         calculate D2E/DX2 analytically  !
 ! D7    D(15,1,6,5)          -179.9979         calculate D2E/DX2 analytically  !
 ! D8    D(15,1,6,18)            0.0017         calculate D2E/DX2 analytically  !
 ! D9    D(1,2,3,4)             -0.003          calculate D2E/DX2 analytically  !
 ! D10   D(1,2,3,22)           179.9912         calculate D2E/DX2 analytically  !
 ! D11   D(16,2,3,4)           179.9959         calculate D2E/DX2 analytically  !
 ! D12   D(16,2,3,22)           -0.0099         calculate D2E/DX2 analytically  !
 ! D13   D(2,3,4,5)              0.0007         calculate D2E/DX2 analytically  !
 ! D14   D(2,3,4,7)            179.9984         calculate D2E/DX2 analytically  !
 ! D15   D(22,3,4,5)          -179.993          calculate D2E/DX2 analytically  !
 ! D16   D(22,3,4,7)             0.0047         calculate D2E/DX2 analytically  !
 ! D17   D(2,3,22,9)          -179.9915         calculate D2E/DX2 analytically  !
 ! D18   D(4,3,22,9)             0.0024         calculate D2E/DX2 analytically  !
 ! D19   D(3,4,5,6)              0.0036         calculate D2E/DX2 analytically  !
 ! D20   D(3,4,5,17)          -179.9993         calculate D2E/DX2 analytically  !
 ! D21   D(7,4,5,6)           -179.9943         calculate D2E/DX2 analytically  !
 ! D22   D(7,4,5,17)             0.0028         calculate D2E/DX2 analytically  !
 ! D23   D(3,4,7,8)             -0.0171         calculate D2E/DX2 analytically  !
 ! D24   D(3,4,7,23)           179.9694         calculate D2E/DX2 analytically  !
 ! D25   D(5,4,7,8)            179.9806         calculate D2E/DX2 analytically  !
 ! D26   D(5,4,7,23)            -0.0329         calculate D2E/DX2 analytically  !
 ! D27   D(4,5,6,1)             -0.0055         calculate D2E/DX2 analytically  !
 ! D28   D(4,5,6,18)           179.9949         calculate D2E/DX2 analytically  !
 ! D29   D(17,5,6,1)           179.9975         calculate D2E/DX2 analytically  !
 ! D30   D(17,5,6,18)           -0.0021         calculate D2E/DX2 analytically  !
 ! D31   D(4,7,8,9)              0.0228         calculate D2E/DX2 analytically  !
 ! D32   D(4,7,8,14)          -179.9849         calculate D2E/DX2 analytically  !
 ! D33   D(23,7,8,9)          -179.9637         calculate D2E/DX2 analytically  !
 ! D34   D(23,7,8,14)            0.0286         calculate D2E/DX2 analytically  !
 ! D35   D(7,8,9,10)           179.9859         calculate D2E/DX2 analytically  !
 ! D36   D(7,8,9,22)            -0.0156         calculate D2E/DX2 analytically  !
 ! D37   D(14,8,9,10)           -0.0063         calculate D2E/DX2 analytically  !
 ! D38   D(14,8,9,22)          179.9922         calculate D2E/DX2 analytically  !
 ! D39   D(7,8,14,13)         -179.9896         calculate D2E/DX2 analytically  !
 ! D40   D(7,8,14,21)            0.0089         calculate D2E/DX2 analytically  !
 ! D41   D(9,8,14,13)            0.0032         calculate D2E/DX2 analytically  !
 ! D42   D(9,8,14,21)         -179.9983         calculate D2E/DX2 analytically  !
 ! D43   D(8,9,10,11)         -179.9934         calculate D2E/DX2 analytically  !
 ! D44   D(8,9,10,12)            0.0048         calculate D2E/DX2 analytically  !
 ! D45   D(22,9,10,11)           0.008          calculate D2E/DX2 analytically  !
 ! D46   D(22,9,10,12)        -179.9939         calculate D2E/DX2 analytically  !
 ! D47   D(8,9,22,3)             0.0028         calculate D2E/DX2 analytically  !
 ! D48   D(10,9,22,3)         -179.9986         calculate D2E/DX2 analytically  !
 ! D49   D(9,10,12,13)           0.0001         calculate D2E/DX2 analytically  !
 ! D50   D(9,10,12,19)        -179.9988         calculate D2E/DX2 analytically  !
 ! D51   D(11,10,12,13)        179.9983         calculate D2E/DX2 analytically  !
 ! D52   D(11,10,12,19)         -0.0006         calculate D2E/DX2 analytically  !
 ! D53   D(10,12,13,14)         -0.0033         calculate D2E/DX2 analytically  !
 ! D54   D(10,12,13,20)        179.9968         calculate D2E/DX2 analytically  !
 ! D55   D(19,12,13,14)        179.9956         calculate D2E/DX2 analytically  !
 ! D56   D(19,12,13,20)         -0.0043         calculate D2E/DX2 analytically  !
 ! D57   D(12,13,14,8)           0.0016         calculate D2E/DX2 analytically  !
 ! D58   D(12,13,14,21)       -179.9968         calculate D2E/DX2 analytically  !
 ! D59   D(20,13,14,8)        -179.9985         calculate D2E/DX2 analytically  !
 ! D60   D(20,13,14,21)          0.003          calculate D2E/DX2 analytically  !
 --------------------------------------------------------------------------------
 Trust Radius=3.00D-01 FncErr=1.00D-07 GrdErr=1.00D-07 EigMax=2.50D+02 EigMin=1.00D-04
 Number of steps in this run=      2 maximum allowed number of steps=      2.
 GradGradGradGradGradGradGradGradGradGradGradGradGradGradGradGradGradGrad

 Leave Link  103 at Tue Aug 18 12:25:27 2026, MaxMem=  2684354560 cpu:               0.0 elap:               0.0
 (Enter /mnt/data/applications/G16/g16/l202.exe)
                          Input orientation:                          
 ---------------------------------------------------------------------
 Center     Atomic      Atomic             Coordinates (Angstroms)
 Number     Number       Type             X           Y           Z
 ---------------------------------------------------------------------
      1          6           0       -9.145630   -0.385280    0.008130
      2          6           0       -7.758980   -0.465280    0.019800
      3          6           0       -6.982300    0.709610    0.014710
      4          6           0       -7.607770    1.973260   -0.002320
      5          6           0       -9.018250    2.023300   -0.013940
      6          6           0       -9.783530    0.867140   -0.008850
      7          6           0       -6.878580    3.265140   -0.008870
      8          6           0       -5.395220    3.274020    0.003200
      9          6           0       -4.595400    2.112830    0.020550
     10          6           0       -3.191140    2.219870    0.030760
     11          1           0       -2.581310    1.314310    0.044070
     12          6           0       -2.586410    3.470320    0.023890
     13          6           0       -3.370330    4.636920    0.006720
     14          6           0       -4.752730    4.530720   -0.003390
     15          1           0       -9.736350   -1.303450    0.012270
     16          1           0       -7.264600   -1.438650    0.032950
     17          1           0       -9.481650    3.009820   -0.027050
     18          1           0      -10.873010    0.928450   -0.017960
     19          1           0       -1.496850    3.539680    0.031920
     20          1           0       -2.894010    5.618710    0.001390
     21          1           0       -5.389010    5.415630   -0.016800
     22         16           0       -5.235910    0.470600    0.030970
     23          8           0       -7.504330    4.329450   -0.024570
 ---------------------------------------------------------------------
                    Distance matrix (angstroms):
                    1          2          3          4          5
     1  C    0.000000
     2  C    1.389005   0.000000
     3  C    2.424629   1.408412   0.000000
     4  C    2.815641   2.443324   1.410076   0.000000
     5  C    2.412047   2.789253   2.423158   1.411415   0.000000
     6  C    1.405618   2.423833   2.805755   2.440794   1.386501
     7  C    4.297135   3.833009   2.557743   1.483481   2.473940
     8  C    5.239855   4.423799   3.015817   2.566590   3.832876
     9  C    5.190886   4.081040   2.768818   3.015688   4.423891
    10  C    6.499482   5.298614   4.080936   4.423633   5.830596
    11  H    6.780870   5.475016   4.442436   5.069681   6.476128
    12  C    7.608500   6.499573   5.190901   5.239841   6.592713
    13  C    7.653534   6.729997   5.335743   5.005104   6.223378
    14  C    6.592781   5.830788   4.424047   3.832996   4.947922
    15  H    1.091789   2.147691   3.411335   3.907415   3.403472
    16  H    2.156033   1.091803   2.166806   3.429306   3.881055
    17  H    3.411869   3.878931   3.396978   2.141610   1.090015
    18  H    2.170348   3.411904   3.896997   3.428362   2.153798
    19  H    8.597076   7.433312   6.172500   6.308580   7.672872
    20  H    8.667796   7.789943   6.388549   5.958931   7.101656
    21  H    6.911105   6.340599   4.968520   4.095487   4.967826
    22  S    4.002370   2.691074   1.762745   2.807991   4.088886
    23  O    4.992356   4.801693   3.657499   2.358564   2.758694
                    6          7          8          9         10
     6  C    0.000000
     7  C    3.766847   0.000000
     8  C    5.005046   1.483436   0.000000
     9  C    5.335663   2.557654   1.410098   0.000000
    10  C    6.729863   3.832933   2.443350   1.408371   0.000000
    11  H    7.216283   4.719647   3.429318   2.166736   1.091837
    12  C    7.653506   4.297196   2.815737   2.424630   1.389018
    13  C    7.439127   3.766941   2.440838   2.805712   2.423802
    14  C    6.223407   2.474058   1.411429   2.423122   2.789222
    15  H    2.171205   5.388813   6.308623   6.172553   7.433297
    16  H    3.415175   4.719788   5.069983   4.442724   5.475203
    17  H    2.163918   2.615625   4.095073   4.968128   6.340180
    18  H    1.091242   4.627707   5.958887   6.388476   7.789818
    19  H    8.707077   5.388882   3.907517   3.411311   2.147677
    20  H    8.369170   4.627764   3.428356   3.896959   3.411929
    21  H    6.324605   2.616006   2.141712   3.397013   3.878889
    22  S    4.565050   3.241821   2.808080   1.762748   2.690916
    23  O    4.145189   1.234733   2.358612   3.657501   4.801770
                   11         12         13         14         15
    11  H    0.000000
    12  C    2.156110   0.000000
    13  C    3.415214   1.405625   0.000000
    14  C    3.881058   2.412081   1.386510   0.000000
    15  H    7.618942   8.597131   8.707137   7.672956   0.000000
    16  H    5.432506   6.781116   7.216549   6.476433   2.475531
    17  H    7.105949   6.910788   6.324304   4.967533   4.320962
    18  H    8.300905   8.667791   8.369203   7.101717   2.504853
    19  H    2.475575   1.091795   2.171289   3.403551   9.557492
    20  H    4.315954   2.170416   1.091247   2.153737   9.733141
    21  H    4.970685   3.411811   2.163796   1.089999   8.002890
    22  S    2.785484   4.002277   4.564997   4.088914   4.837516
    23  O    5.773379   4.992634   4.145536   2.759033   6.059112
                   16         17         18         19         20
    16  H    0.000000
    17  H    4.970694   0.000000
    18  H    4.315829   2.503611   0.000000
    19  H    7.619102   8.002578   9.733108   0.000000
    20  H    8.301168   7.085486   9.255450   2.505066   0.000000
    21  H    7.106438   4.747392   7.085834   4.320934   2.503317
    22  S    2.785825   4.947455   5.655875   4.837336   5.655829
    23  O    5.773366   2.377230   4.786946   6.059434   4.787266
                   21         22         23
    21  H    0.000000
    22  S    4.947630   0.000000
    23  O    2.377904   4.476554   0.000000
 Symmetry turned off by external request.
 Stoichiometry    C13H8OS
 Framework group  C1[X(C13H8OS)]
 Deg. of freedom    63
 Full point group                 C1      NOp   1
 Rotational constants (GHZ):           1.2174964           0.4226740           0.3137504
 Leave Link  202 at Tue Aug 18 12:25:27 2026, MaxMem=  2684354560 cpu:               0.0 elap:               0.0
 (Enter /mnt/data/applications/G16/g16/l301.exe)
 Basis read from chk: "TX.chk" (5D, 7F)
 Pseudo-potential data read from chk file.
   254 basis functions,   589 primitive gaussians,   269 cartesian basis functions
    55 alpha electrons       55 beta electrons
       nuclear repulsion energy       991.4075582406 Hartrees.
 IExCor=  402 DFT=T Ex+Corr=B3LYP ExCW=0 ScaHFX=  0.200000
 ScaDFX=  0.800000  0.720000  1.000000  0.810000 ScalE2=  1.000000  1.000000
 IRadAn=      5 IRanWt=     -1 IRanGd=            0 ICorTp=0 IEmpDi=141
 NAtoms=   23 NActive=   23 NUniq=   23 SFac= 1.00D+00 NAtFMM=   60 NAOKFM=F Big=F
 Integral buffers will be    131072 words long.
 Raffenetti 2 integral format.
 Two-electron integral symmetry is turned off.
 R6Disp:  Grimme-D3(BJ) Dispersion energy=       -0.0581024690 Hartrees.
 Nuclear repulsion after empirical dispersion term =      991.3494557716 Hartrees.
 No density basis found on file 20724.
 Force inversion solution in PCM.
 ------------------------------------------------------------------------------
 Polarizable Continuum Model (PCM)
 =================================
 Model                : PCM.
 Atomic radii         : UFF (Universal Force Field).
 Polarization charges : Total charges.
 Charge compensation  : None.
 Solution method      : Matrix inversion.
 Cavity type          : Scaled VdW (van der Waals Surface) (Alpha=1.100).
 Cavity algorithm     : GePol (No added spheres)
                        Default sphere list used, NSphG=   23.
                        Lebedev-Laikov grids with approx.  5.0 points / Ang**2.
                        Smoothing algorithm: York/Karplus (Gamma=1.0000).
                        Polarization charges: spherical gaussians, with
                                              point-specific exponents (IZeta= 3).
                        Self-potential: point-specific (ISelfS= 7).
                        Self-field    : sphere-specific E.n sum rule (ISelfD= 2).
 1st derivatives      : Analytical E(r).r(x)/FMM algorithm (CHGder, D1EAlg=3).
                        Cavity 1st derivative terms included.
 2nd derivatives      : Analytical E(r).r(xy)/FMM algorithm (CHGder, D2EAlg=3).
                        Cavity 2nd derivative terms included.
 Solvent              : Acetonitrile, Eps=  35.688000 Eps(inf)=   1.806874
 ------------------------------------------------------------------------------
 GePol: Number of generator spheres                  =      23
 GePol: Total number of spheres                      =      23
 GePol: Number of exposed spheres                    =      23 (100.00%)
 GePol: Number of points                             =    1989
 GePol: Average weight of points                     =       0.13
 GePol: Minimum weight of points                     =   0.78D-10
 GePol: Maximum weight of points                     =    0.20577
 GePol: Number of points with low weight             =      96
 GePol: Fraction of low-weight points (<1% of avg)   =       4.83%
 GePol: Cavity surface area                          =    255.926 Ang**2
 GePol: Cavity volume                                =    277.038 Ang**3
 Leave Link  301 at Tue Aug 18 12:25:27 2026, MaxMem=  2684354560 cpu:               0.1 elap:               0.1
 (Enter /mnt/data/applications/G16/g16/l302.exe)
 NPDir=0 NMtPBC=     1 NCelOv=     1 NCel=       1 NClECP=     1 NCelD=      1
         NCelK=      1 NCelE2=     1 NClLst=     1 CellRange=     0.0.
 One-electron integrals computed using PRISM.
   1 Symmetry operations used in ECPInt.
 ECPInt:  NShTT=    6786 NPrTT=   65756 LenC2=    6458 LenP2D=   34293.
 LDataN:  DoStor=T MaxTD1= 4 Len=   56
 NBasis=   254 RedAO= T EigKep=  2.46D-04  NBF=   254
 NBsUse=   254 1.00D-06 EigRej= -1.00D+00 NBFU=   254
 Precomputing XC quadrature grid using
 IXCGrd= 4 IRadAn=           5 IRanWt=          -1 IRanGd=           0 AccXCQ= 0.00D+00.
 Generated NRdTot=       0 NPtTot=           0 NUsed=           0 NTot=          32
 NSgBfM=   268   268   268   268   268 MxSgAt=    23 MxSgA2=    23.
 Leave Link  302 at Tue Aug 18 12:25:28 2026, MaxMem=  2684354560 cpu:               1.2 elap:               1.2
 (Enter /mnt/data/applications/G16/g16/l303.exe)
 DipDrv:  MaxL=1.
 Leave Link  303 at Tue Aug 18 12:25:28 2026, MaxMem=  2684354560 cpu:               0.1 elap:               0.1
 (Enter /mnt/data/applications/G16/g16/l401.exe)
 Initial guess from the checkpoint file:  "TX.chk"
 B after Tr=     0.000000    0.000000    0.000000
         Rot=    1.000000    0.000000    0.000000    0.000000 Ang=   0.00 deg.
 Guess basis will be translated and rotated to current coordinates.
 JPrj=2 DoOrth=T DoCkMO=T.
 Leave Link  401 at Tue Aug 18 12:25:29 2026, MaxMem=  2684354560 cpu:               0.2 elap:               0.2
 (Enter /mnt/data/applications/G16/g16/l502.exe)
 Keep R1 ints in memory in canonical form, NReq=534252659.
 FoFCou: FMM=F IPFlag=           0 FMFlag=           0 FMFlg1=           0
         NFxFlg=           0 DoJE=F BraDBF=F KetDBF=F FulRan=T
         wScrn=  0.000000 ICntrl=       600 IOpCl=  0 I1Cent=           0 NGrid=           0
         NMat0=    1 NMatS0=  32385 NMatT0=    0 NMatD0=    1 NMtDS0=    0 NMtDT0=    0
 Symmetry not used in FoFCou.
 Two-electron integral symmetry not used.
 Closed shell SCF:
 Using DIIS extrapolation, IDIIS=  1040.
 NGot=  2684354560 LenX=  2159795735 LenY=  2159722933
 Requested convergence on RMS density matrix=1.00D-08 within 128 cycles.
 Requested convergence on MAX density matrix=1.00D-06.
 Requested convergence on             energy=1.00D-06.
 No special actions if energy rises.

 Cycle   1  Pass 1  IDiag  1:
 Inv3:  Mode=1 IEnd=    11868363.
 Iteration    1 A*A^-1 deviation from unit magnitude is 1.78D-15 for    212.
 Iteration    1 A*A^-1 deviation from orthogonality  is 1.13D-15 for   1258    161.
 Iteration    1 A^-1*A deviation from unit magnitude is 1.78D-15 for    762.
 Iteration    1 A^-1*A deviation from orthogonality  is 9.84D-16 for   1072    823.
 E= -973.752178769422    
 DIIS: error= 1.99D-08 at cycle   1 NSaved=   1.
 NSaved= 1 IEnMin= 1 EnMin= -973.752178769422     IErMin= 1 ErrMin= 1.99D-08
 ErrMax= 1.99D-08  0.00D+00 EMaxC= 1.00D-01 BMatC= 1.04D-13 BMatP= 1.04D-13
 IDIUse=1 WtCom= 1.00D+00 WtEn= 0.00D+00
 Coeff-Com:  0.100D+01
 Coeff:      0.100D+01
 Gap=     0.146 Goal=   None    Shift=    0.000
 RMSDP=3.44D-09 MaxDP=1.20D-07              OVMax= 2.45D-07

 Error on total polarization charges =  0.01282
 SCF Done:  E(RB3LYP) =  -973.752178769     A.U. after    1 cycles
            NFock=  1  Conv=0.34D-08     -V/T= 2.0049
 KE= 9.689595106631D+02 PE=-4.266559066338D+03 EE= 1.332497921133D+03
 Leave Link  502 at Tue Aug 18 12:26:57 2026, MaxMem=  2684354560 cpu:              88.6 elap:              88.7
 (Enter /mnt/data/applications/G16/g16/l801.exe)
 DoSCS=F DFT=T ScalE2(SS,OS)=  1.000000  1.000000
 Range of M.O.s used for correlation:     1   254
 NBasis=   254 NAE=    55 NBE=    55 NFC=     0 NFV=     0
 NROrb=    254 NOA=    55 NOB=    55 NVA=   199 NVB=   199

 **** Warning!!: The largest alpha MO coefficient is  0.12873592D+02

 Leave Link  801 at Tue Aug 18 12:26:58 2026, MaxMem=  2684354560 cpu:               0.0 elap:               0.1
 (Enter /mnt/data/applications/G16/g16/l1101.exe)
 Using compressed storage, NAtomX=    23.
 Will process     24 centers per pass.
   1 Symmetry operations used in ECPInt.
 ECPInt:  NShTT=    6786 NPrTT=   65756 LenC2=    6458 LenP2D=   34293.
 LDataN:  DoStor=T MaxTD1= 5 Len=  102
 R6Disp: Adding Grimme-D3(BJ) dispersion energy 1st derivatives to the gradient.
 Leave Link 1101 at Tue Aug 18 12:26:59 2026, MaxMem=  2684354560 cpu:               0.4 elap:               0.4
 (Enter /mnt/data/applications/G16/g16/l1102.exe)
 Symmetrizing basis deriv contribution to polar:
 IMax=3 JMax=2 DiffMx= 0.00D+00
 Leave Link 1102 at Tue Aug 18 12:26:59 2026, MaxMem=  2684354560 cpu:               0.1 elap:               0.1
 (Enter /mnt/data/applications/G16/g16/l1110.exe)
 Forming Gx(P) for the SCF density, NAtomX=    23.
 Integral derivatives from FoFJK, PRISM(SPDF).
 Do as many integral derivatives as possible in FoFJK.
 G2DrvN: MDV=    2684352814.
 G2DrvN: will do    24 centers at a time, making    1 passes.
 Calling FoFCou, ICntrl=  3107 FMM=F I1Cent=   0 AccDes= 0.00D+00.
 FoFJK:  IHMeth= 1 ICntrl=    3107 DoSepK=F KAlg= 0 I1Cent=           0 FoldK=F
 IRaf=         0 NMat=       1 IRICut=       1 DoRegI=T DoRafI=F ISym2E= 0 IDoP0=0 IntGTp=1.
 FoFCou: FMM=F IPFlag=           0 FMFlag=      100000 FMFlg1=           0
         NFxFlg=           0 DoJE=F BraDBF=F KetDBF=F FulRan=T
         wScrn=  0.000000 ICntrl=      3107 IOpCl=  0 I1Cent=           0 NGrid=           0
         NMat0=    1 NMatS0=      1 NMatT0=    0 NMatD0=    1 NMtDS0=    0 NMtDT0=    0
 Symmetry not used in FoFCou.
 NEqPCM:  Using equilibrium solvation (IEInf=0, Eps=  35.6880, EpsInf=   1.8069)
 G2PCM: DoFxE=T DoFxN=T DoGrad=T DoDP/DQ/DG/TGxP=FFFF NFrqRd=   0 IEInf=0 SqF1=F DoCFld=F IF1Alg=4.
 GePol: Maximum number of non-zero 1st derivatives   =     247
 End of G2Drv F.D. properties file   721 does not exist.
 End of G2Drv F.D. properties file   722 does not exist.
 End of G2Drv F.D. properties file   788 does not exist.
 Leave Link 1110 at Tue Aug 18 12:46:14 2026, MaxMem=  2684354560 cpu:            1152.7 elap:            1154.3
 (Enter /mnt/data/applications/G16/g16/l1002.exe)
 Minotr:  Closed shell wavefunction.
          IDoAtm=11111111111111111111111
 NEqPCM:  Using equilibrium solvation (IEInf=0, Eps=  35.6880, EpsInf=   1.8069)
          Direct CPHF calculation.
          Differentiating once with respect to electric field.
                with respect to dipole field.
          Differentiating once with respect to nuclear coordinates.
          Requested convergence is 1.0D-08 RMS, and 1.0D-07 maximum.
          Secondary convergence is 1.0D-12 RMS, and 1.0D-12 maximum.
          NewPWx=T KeepS1=F KeepF1=F KeepIn=T MapXYZ=F SortEE=F KeepMc=T.
         6911 words used for storage of precomputed grid.
 Keep R1 ints in memory in canonical form, NReq=534918276.
 FoFCou: FMM=F IPFlag=           0 FMFlag=           0 FMFlg1=           0
         NFxFlg=           0 DoJE=F BraDBF=F KetDBF=F FulRan=T
         wScrn=  0.000000 ICntrl=       600 IOpCl=  0 I1Cent=           0 NGrid=           0
         NMat0=    1 NMatS0=  32385 NMatT0=    0 NMatD0=    1 NMtDS0=    0 NMtDT0=    0
 Symmetry not used in FoFCou.
 Two-electron integral symmetry not used.
          MDV=    2684354560 using IRadAn=       1.
          Solving linear equations simultaneously, MaxMat=       0.
          There are    72 degrees of freedom in the 1st order CPHF.  IDoFFX=6 NUNeed=     3.
     69 vectors produced by pass  0 Test12= 1.52D-14 1.39D-09 XBig12= 3.51D+02 1.03D+01.
 AX will form    69 AO Fock derivatives at one time.
     69 vectors produced by pass  1 Test12= 1.52D-14 1.39D-09 XBig12= 5.98D+01 1.13D+00.
     69 vectors produced by pass  2 Test12= 1.52D-14 1.39D-09 XBig12= 6.14D-01 8.53D-02.
     69 vectors produced by pass  3 Test12= 1.52D-14 1.39D-09 XBig12= 2.30D-03 6.06D-03.
     69 vectors produced by pass  4 Test12= 1.52D-14 1.39D-09 XBig12= 4.60D-06 2.55D-04.
     64 vectors produced by pass  5 Test12= 1.52D-14 1.39D-09 XBig12= 4.94D-09 7.87D-06.
     21 vectors produced by pass  6 Test12= 1.52D-14 1.39D-09 XBig12= 3.50D-12 2.27D-07.
      3 vectors produced by pass  7 Test12= 1.52D-14 1.39D-09 XBig12= 2.30D-15 5.80D-09.
 InvSVY:  IOpt=1 It=  1 EMax= 7.11D-15
 Solved reduced A of dimension   433 with    72 vectors.
 FullF1:  Do perturbations      1 to       3.
 Isotropic polarizability for W=    0.000000      222.03 Bohr**3.
 End of Minotr F.D. properties file   721 does not exist.
 End of Minotr F.D. properties file   722 does not exist.
 End of Minotr F.D. properties file   788 does not exist.
 Leave Link 1002 at Tue Aug 18 13:04:37 2026, MaxMem=  2684354560 cpu:            1101.3 elap:            1103.0
 (Enter /mnt/data/applications/G16/g16/l601.exe)
 Copying SCF densities to generalized density rwf, IOpCl= 0 IROHF=0.

 **********************************************************************

            Population analysis using the SCF density.

 **********************************************************************

 Alpha  occ. eigenvalues --  -88.91537 -19.12857 -10.28134 -10.24692 -10.24691
 Alpha  occ. eigenvalues --  -10.21382 -10.21380 -10.21065 -10.21063 -10.20976
 Alpha  occ. eigenvalues --  -10.20975 -10.20536 -10.20536 -10.20243 -10.20242
 Alpha  occ. eigenvalues --   -7.97822  -5.94215  -5.93802  -5.93316  -1.03895
 Alpha  occ. eigenvalues --   -0.89701  -0.87494  -0.82145  -0.78393  -0.77063
 Alpha  occ. eigenvalues --   -0.76426  -0.71999  -0.66216  -0.63473  -0.61169
 Alpha  occ. eigenvalues --   -0.60208  -0.55769  -0.54485  -0.49957  -0.47896
 Alpha  occ. eigenvalues --   -0.47781  -0.47283  -0.44512  -0.44092  -0.43444
 Alpha  occ. eigenvalues --   -0.43101  -0.42782  -0.39795  -0.38769  -0.37816
 Alpha  occ. eigenvalues --   -0.37796  -0.36641  -0.35530  -0.34069  -0.32848
 Alpha  occ. eigenvalues --   -0.27817  -0.27068  -0.27019  -0.26295  -0.22503
 Alpha virt. eigenvalues --   -0.07883  -0.03754  -0.01890  -0.01814   0.01886
 Alpha virt. eigenvalues --    0.05080   0.05822   0.08034   0.09098   0.10285
 Alpha virt. eigenvalues --    0.10696   0.12796   0.13011   0.14672   0.14908
 Alpha virt. eigenvalues --    0.15213   0.17093   0.20174   0.23099   0.24341
 Alpha virt. eigenvalues --    0.25350   0.28093   0.28633   0.28699   0.30705
 Alpha virt. eigenvalues --    0.32239   0.32974   0.38454   0.39226   0.40991
 Alpha virt. eigenvalues --    0.41076   0.42857   0.44744   0.44926   0.45263
 Alpha virt. eigenvalues --    0.45937   0.46458   0.47686   0.47938   0.48032
 Alpha virt. eigenvalues --    0.48143   0.48581   0.49088   0.49915   0.50282
 Alpha virt. eigenvalues --    0.50662   0.51045   0.51210   0.52045   0.52806
 Alpha virt. eigenvalues --    0.55348   0.55790   0.56621   0.57643   0.58670
 Alpha virt. eigenvalues --    0.61419   0.62352   0.62551   0.63019   0.63199
 Alpha virt. eigenvalues --    0.63288   0.64428   0.65736   0.65840   0.66893
 Alpha virt. eigenvalues --    0.68625   0.70198   0.71045   0.72159   0.74461
 Alpha virt. eigenvalues --    0.74688   0.74942   0.79998   0.82477   0.82749
 Alpha virt. eigenvalues --    0.84967   0.86727   0.87253   0.87619   0.89466
 Alpha virt. eigenvalues --    0.90011   0.91166   0.91360   0.92231   0.93481
 Alpha virt. eigenvalues --    0.96574   0.96638   0.96774   0.97630   0.98848
 Alpha virt. eigenvalues --    1.00576   1.01577   1.01671   1.02222   1.03252
 Alpha virt. eigenvalues --    1.04111   1.05116   1.05560   1.07032   1.08666
 Alpha virt. eigenvalues --    1.11896   1.14008   1.15835   1.16264   1.18694
 Alpha virt. eigenvalues --    1.20242   1.20290   1.27550   1.30108   1.32157
 Alpha virt. eigenvalues --    1.34009   1.34645   1.37239   1.40008   1.42884
 Alpha virt. eigenvalues --    1.44516   1.45981   1.46576   1.47041   1.47681
 Alpha virt. eigenvalues --    1.48958   1.49777   1.50406   1.50688   1.50848
 Alpha virt. eigenvalues --    1.54055   1.58581   1.60710   1.60777   1.61594
 Alpha virt. eigenvalues --    1.62389   1.63156   1.63880   1.64419   1.65685
 Alpha virt. eigenvalues --    1.66336   1.67213   1.68809   1.69185   1.72837
 Alpha virt. eigenvalues --    1.73450   1.75055   1.75698   1.77038   1.78334
 Alpha virt. eigenvalues --    1.78528   1.78615   1.79735   1.80418   1.82709
 Alpha virt. eigenvalues --    1.83059   1.83702   1.85187   1.85203   1.86323
 Alpha virt. eigenvalues --    1.90161   1.90836   1.93780   1.94545   1.94722
 Alpha virt. eigenvalues --    1.95930   1.98810   2.00020   2.01328   2.05688
 Alpha virt. eigenvalues --    2.08112   2.12148   2.16176   2.16458   2.17587
 Alpha virt. eigenvalues --    2.19292   2.20702   2.22510   2.28411   2.35026
 Alpha virt. eigenvalues --    2.36049   2.37004   2.38523   2.42208   2.43052
 Alpha virt. eigenvalues --    2.46035   2.54342   2.55459   2.63892   2.64570
 Alpha virt. eigenvalues --    2.69554   2.70167   2.71704   2.74262   2.76120
 Alpha virt. eigenvalues --    2.76840   2.81160   2.81809   2.99349   3.06145
 Alpha virt. eigenvalues --    3.33292   3.42245   3.47374   3.56245
          Condensed to atoms (all electrons):
               1          2          3          4          5          6
     1  C    4.732795   0.505877   0.016634  -0.082775   0.021564   0.443516
     2  C    0.505877   4.748472   0.439477   0.019478  -0.079835   0.010726
     3  C    0.016634   0.439477   5.361256   0.339259  -0.058212  -0.083740
     4  C   -0.082775   0.019478   0.339259   5.430253   0.363571   0.012832
     5  C    0.021564  -0.079835  -0.058212   0.363571   4.912040   0.436849
     6  C    0.443516   0.010726  -0.083740   0.012832   0.436849   4.822711
     7  C   -0.000720   0.007570  -0.060940   0.159005  -0.063035   0.013320
     8  C    0.000020  -0.000250  -0.044939  -0.023187   0.023125  -0.000552
     9  C   -0.000130   0.001705  -0.013502  -0.044938   0.000125   0.000075
    10  C    0.000001  -0.000234   0.001705  -0.000249   0.000042   0.000000
    11  H   -0.000000  -0.000007   0.000420   0.000035  -0.000002   0.000000
    12  C    0.000000   0.000001  -0.000130   0.000020   0.000001  -0.000000
    13  C   -0.000000   0.000000   0.000075  -0.000552  -0.000005   0.000000
    14  C    0.000001   0.000042   0.000126   0.023118  -0.001183  -0.000005
    15  H    0.394857  -0.042771   0.010805  -0.000004   0.009517  -0.050885
    16  H   -0.045259   0.392414  -0.052310   0.012691  -0.000528   0.009941
    17  H    0.010352  -0.001014   0.015145  -0.048299   0.392268  -0.057275
    18  H   -0.051363   0.009425   0.000514   0.009410  -0.042820   0.395530
    19  H    0.000000  -0.000000   0.000003   0.000001   0.000000  -0.000000
    20  H    0.000000   0.000000  -0.000001   0.000002  -0.000000  -0.000000
    21  H    0.000000   0.000002  -0.000189   0.003422  -0.000150  -0.000003
    22  S    0.005093  -0.087075   0.325143  -0.080602   0.007747  -0.000210
    23  O   -0.000002  -0.000069   0.004331  -0.126803   0.014952   0.001430
               7          8          9         10         11         12
     1  C   -0.000720   0.000020  -0.000130   0.000001  -0.000000   0.000000
     2  C    0.007570  -0.000250   0.001705  -0.000234  -0.000007   0.000001
     3  C   -0.060940  -0.044939  -0.013502   0.001705   0.000420  -0.000130
     4  C    0.159005  -0.023187  -0.044938  -0.000249   0.000035   0.000020
     5  C   -0.063035   0.023125   0.000125   0.000042  -0.000002   0.000001
     6  C    0.013320  -0.000552   0.000075   0.000000   0.000000  -0.000000
     7  C    5.089170   0.159032  -0.060965   0.007571  -0.000164  -0.000720
     8  C    0.159032   5.430238   0.339184   0.019470   0.012690  -0.082769
     9  C   -0.060965   0.339184   5.361265   0.439509  -0.052322   0.016619
    10  C    0.007571   0.019470   0.439509   4.748391   0.392396   0.505916
    11  H   -0.000164   0.012690  -0.052322   0.392396   0.711845  -0.045233
    12  C   -0.000720  -0.082769   0.016619   0.505916  -0.045233   4.732899
    13  C    0.013317   0.012840  -0.083746   0.010718   0.009938   0.443448
    14  C   -0.063065   0.363600  -0.058165  -0.079812  -0.000528   0.021556
    15  H    0.000027   0.000001   0.000003  -0.000000  -0.000000   0.000000
    16  H   -0.000164   0.000034   0.000419  -0.000007   0.000010  -0.000000
    17  H   -0.032084   0.003428  -0.000189   0.000002  -0.000000   0.000000
    18  H   -0.000348   0.000002  -0.000001   0.000000   0.000000   0.000000
    19  H    0.000027  -0.000003   0.010805  -0.042737  -0.014958   0.394842
    20  H   -0.000348   0.009409   0.000513   0.009424  -0.000236  -0.051408
    21  H   -0.032066  -0.048270   0.015147  -0.001014   0.000052   0.010353
    22  S   -0.028494  -0.080585   0.325171  -0.087083  -0.007038   0.005094
    23  O    0.787486  -0.126760   0.004333  -0.000069   0.000001  -0.000002
              13         14         15         16         17         18
     1  C   -0.000000   0.000001   0.394857  -0.045259   0.010352  -0.051363
     2  C    0.000000   0.000042  -0.042771   0.392414  -0.001014   0.009425
     3  C    0.000075   0.000126   0.010805  -0.052310   0.015145   0.000514
     4  C   -0.000552   0.023118  -0.000004   0.012691  -0.048299   0.009410
     5  C   -0.000005  -0.001183   0.009517  -0.000528   0.392268  -0.042820
     6  C    0.000000  -0.000005  -0.050885   0.009941  -0.057275   0.395530
     7  C    0.013317  -0.063065   0.000027  -0.000164  -0.032084  -0.000348
     8  C    0.012840   0.363600   0.000001   0.000034   0.003428   0.000002
     9  C   -0.083746  -0.058165   0.000003   0.000419  -0.000189  -0.000001
    10  C    0.010718  -0.079812  -0.000000  -0.000007   0.000002   0.000000
    11  H    0.009938  -0.000528  -0.000000   0.000010  -0.000000   0.000000
    12  C    0.443448   0.021556   0.000000  -0.000000   0.000000   0.000000
    13  C    4.822724   0.436959  -0.000000   0.000000  -0.000003  -0.000000
    14  C    0.436959   4.911754   0.000000  -0.000002  -0.000150  -0.000000
    15  H   -0.000000   0.000000   0.709182  -0.014962  -0.000224  -0.013924
    16  H    0.000000  -0.000002  -0.014962   0.711856   0.000052  -0.000236
    17  H   -0.000003  -0.000150  -0.000224   0.000052   0.733837  -0.014090
    18  H   -0.000000  -0.000000  -0.013924  -0.000236  -0.014090   0.715957
    19  H   -0.050898   0.009512  -0.000000  -0.000000   0.000000   0.000000
    20  H    0.395524  -0.042762   0.000000   0.000000  -0.000000  -0.000000
    21  H   -0.057269   0.392316   0.000000  -0.000000  -0.000065  -0.000000
    22  S   -0.000209   0.007743  -0.000234  -0.007040  -0.000117   0.000030
    23  O    0.001427   0.014951   0.000000   0.000001   0.030346  -0.000010
              19         20         21         22         23
     1  C    0.000000   0.000000   0.000000   0.005093  -0.000002
     2  C   -0.000000   0.000000   0.000002  -0.087075  -0.000069
     3  C    0.000003  -0.000001  -0.000189   0.325143   0.004331
     4  C    0.000001   0.000002   0.003422  -0.080602  -0.126803
     5  C    0.000000  -0.000000  -0.000150   0.007747   0.014952
     6  C   -0.000000  -0.000000  -0.000003  -0.000210   0.001430
     7  C    0.000027  -0.000348  -0.032066  -0.028494   0.787486
     8  C   -0.000003   0.009409  -0.048270  -0.080585  -0.126760
     9  C    0.010805   0.000513   0.015147   0.325171   0.004333
    10  C   -0.042737   0.009424  -0.001014  -0.087083  -0.000069
    11  H   -0.014958  -0.000236   0.000052  -0.007038   0.000001
    12  C    0.394842  -0.051408   0.010353   0.005094  -0.000002
    13  C   -0.050898   0.395524  -0.057269  -0.000209   0.001427
    14  C    0.009512  -0.042762   0.392316   0.007743   0.014951
    15  H   -0.000000   0.000000   0.000000  -0.000234   0.000000
    16  H   -0.000000   0.000000  -0.000000  -0.007040   0.000001
    17  H    0.000000  -0.000000  -0.000065  -0.000117   0.030346
    18  H    0.000000  -0.000000  -0.000000   0.000030  -0.000010
    19  H    0.709156  -0.013916  -0.000224  -0.000234   0.000000
    20  H   -0.013916   0.715945  -0.014097   0.000030  -0.000010
    21  H   -0.000224  -0.014097   0.733695  -0.000117   0.030290
    22  S   -0.000234   0.000030  -0.000117  15.586236  -0.000001
    23  O    0.000000  -0.000010   0.030290  -0.000001   7.628371
 Mulliken charges:
               1
     1  C    0.049537
     2  C    0.076065
     3  C   -0.200929
     4  C    0.034314
     5  C    0.063970
     6  C    0.045740
     7  C    0.106589
     8  C    0.034241
     9  C   -0.200912
    10  C    0.076056
    11  H   -0.006899
    12  C    0.049515
    13  C    0.045712
    14  C    0.063995
    15  H   -0.001387
    16  H   -0.006911
    17  H   -0.031920
    18  H   -0.008077
    19  H   -0.001376
    20  H   -0.008069
    21  H   -0.031814
    22  S    0.116753
    23  O   -0.264192
 Sum of Mulliken charges =  -0.00000
 Mulliken charges with hydrogens summed into heavy atoms:
               1
     1  C    0.048150
     2  C    0.069154
     3  C   -0.200929
     4  C    0.034314
     5  C    0.032050
     6  C    0.037663
     7  C    0.106589
     8  C    0.034241
     9  C   -0.200912
    10  C    0.069157
    12  C    0.048139
    13  C    0.037643
    14  C    0.032180
    22  S    0.116753
    23  O   -0.264192
 APT charges:
               1
     1  C    0.149746
     2  C   -0.225797
     3  C    0.419849
     4  C   -0.455323
     5  C    0.039108
     6  C   -0.163035
     7  C    1.475365
     8  C   -0.454865
     9  C    0.419860
    10  C   -0.227659
    11  H    0.056233
    12  C    0.150725
    13  C   -0.162918
    14  C    0.038642
    15  H    0.034546
    16  H    0.055858
    17  H    0.085881
    18  H    0.031041
    19  H    0.034797
    20  H    0.031092
    21  H    0.086538
    22  S   -0.315936
    23  O   -1.103747
 Sum of APT charges =  -0.00000
 APT charges with hydrogens summed into heavy atoms:
               1
     1  C    0.184292
     2  C   -0.169940
     3  C    0.419849
     4  C   -0.455323
     5  C    0.124989
     6  C   -0.131994
     7  C    1.475365
     8  C   -0.454865
     9  C    0.419860
    10  C   -0.171426
    12  C    0.185522
    13  C   -0.131826
    14  C    0.125180
    22  S   -0.315936
    23  O   -1.103747
 Electronic spatial extent (au):  <R**2>=          20058.0329
 Charge=              0.0000 electrons
 Dipole moment (field-independent basis, Debye):
    X=              1.8458    Y=             -3.1392    Z=              0.0463  Tot=              3.6419
 Quadrupole moment (field-independent basis, Debye-Ang):
   XX=            -96.8628   YY=           -100.5035   ZZ=            -96.8672
   XY=             35.2967   XZ=             -0.2062   YZ=              0.0818
 Traceless Quadrupole moment (field-independent basis, Debye-Ang):
   XX=              1.2150   YY=             -2.4256   ZZ=              1.2106
   XY=             35.2967   XZ=             -0.2062   YZ=              0.0818
 Octapole moment (field-independent basis, Debye-Ang**2):
  XXX=           1593.9624  YYY=           -608.1760  ZZZ=             -2.5359  XYY=            687.3931
  XXY=           -477.8352  XXZ=              0.3616  XZZ=            596.7207  YZZ=           -197.8958
  YYZ=             -0.2222  XYZ=             -0.4236
 Hexadecapole moment (field-independent basis, Debye-Ang**3):
 XXXX=         -21295.8777 YYYY=          -4137.8998 ZZZZ=           -106.3782 XXXY=           5222.0915
 XXXZ=              3.1664 YYYX=           3641.8897 YYYZ=              0.8758 ZZZX=              9.0430
 ZZZY=             -1.3324 XXYY=          -5667.9638 XXZZ=          -4199.0443 YYZZ=           -726.4576
 XXYZ=              2.5348 YYXZ=             -1.4683 ZZXY=           1038.5504
 N-N= 9.913494557716D+02 E-N=-4.266559073550D+03  KE= 9.689595106631D+02
  Exact polarizability: 322.085  40.964 276.565   1.650  -1.665  67.432
 Approx polarizability: 374.336  14.666 358.020   2.115  -2.411  92.730
 No NMR shielding tensors so no spin-rotation constants.
 Leave Link  601 at Tue Aug 18 13:04:38 2026, MaxMem=  2684354560 cpu:               0.3 elap:               0.3
 (Enter /mnt/data/applications/G16/g16/l701.exe)
 ... and contract with generalized density number  0.
 Compute integral second derivatives.
 R6Disp: Adding Grimme-D3(BJ) dispersion energy 2nd derivatives to the Hessian.
   1 Symmetry operations used in ECPInt.
 ECPInt:  NShTT=    6786 NPrTT=   65756 LenC2=    6458 LenP2D=   34293.
 LDataN:  DoStor=T MaxTD1= 6 Len=  172
 D2PCM: PCM CHGder 2nd derivatives, FixD1E=F FixD2E=F DoIter=F DoCFld=F I1PDM=0
 GePol: Maximum number of non-zero 2nd derivatives   =     247
 Leave Link  701 at Tue Aug 18 13:05:49 2026, MaxMem=  2684354560 cpu:              71.0 elap:              71.1
 (Enter /mnt/data/applications/G16/g16/l702.exe)
 L702 exits ... SP integral derivatives will be done elsewhere.
 Leave Link  702 at Tue Aug 18 13:05:49 2026, MaxMem=  2684354560 cpu:               0.0 elap:               0.0
 (Enter /mnt/data/applications/G16/g16/l703.exe)
 Integral derivatives from FoFJK, PRISM(SPDF).
 Compute integral second derivatives, UseDBF=F ICtDFT=           0.
 Calling FoFJK, ICntrl=    100127 FMM=F ISym2X=0 I1Cent= 0 IOpClX= 0 NMat=1 NMatS=1 NMatT=0.
 FoFJK:  IHMeth= 1 ICntrl=  100127 DoSepK=F KAlg= 0 I1Cent=           0 FoldK=F
 IRaf=         0 NMat=       1 IRICut=       1 DoRegI=T DoRafI=F ISym2E= 0 IDoP0=0 IntGTp=1.
 FoFCou: FMM=F IPFlag=           0 FMFlag=      100000 FMFlg1=         800
         NFxFlg=           0 DoJE=F BraDBF=F KetDBF=F FulRan=T
         wScrn=  0.000000 ICntrl=    100127 IOpCl=  0 I1Cent=           0 NGrid=           0
         NMat0=    1 NMatS0=      1 NMatT0=    0 NMatD0=    1 NMtDS0=    0 NMtDT0=    0
 Symmetry not used in FoFCou.
 Leave Link  703 at Tue Aug 18 13:30:28 2026, MaxMem=  2684354560 cpu:            1477.0 elap:            1479.1
 (Enter /mnt/data/applications/G16/g16/l716.exe)
 Dipole        = 7.26180754D-01-1.23505434D+00 1.82161283D-02
 Polarizability= 3.22085008D+02 4.09637140D+01 2.76564681D+02
                 1.64989366D+00-1.66512524D+00 6.74319052D+01
 Full mass-weighted force constant matrix:
 Low frequencies ---   -8.7296    0.0006    0.0014    0.0016    2.1435    8.1801
 Low frequencies ---   39.6628  107.6426  137.5620
 Diagonal vibrational polarizability:
       18.8964660      16.2263105      79.8207825
 Harmonic frequencies (cm**-1), IR intensities (KM/Mole), Raman scattering
 activities (A**4/AMU), depolarization ratios for plane and unpolarized
 incident light, reduced masses (AMU), force constants (mDyne/A),
 and normal coordinates:
                      1                      2                      3
                      A                      A                      A
 Frequencies --     39.6226               107.6422               137.5590
 Red. masses --      7.6784                 3.8787                 5.6404
 Frc consts  --      0.0071                 0.0265                 0.0629
 IR Inten    --      4.1426                 0.0004                 0.8192
  Atom  AN      X      Y      Z        X      Y      Z        X      Y      Z
     1   6     0.00  -0.00  -0.23     0.00  -0.00  -0.11    -0.00   0.00   0.18
     2   6     0.00  -0.00  -0.08     0.00  -0.00  -0.21    -0.00   0.00   0.18
     3   6    -0.00   0.00   0.05     0.00  -0.00  -0.07     0.00  -0.00  -0.02
     4   6    -0.00   0.00   0.05    -0.00   0.00   0.07     0.00  -0.00  -0.13
     5   6     0.00  -0.00  -0.10    -0.00   0.00   0.20     0.00  -0.00  -0.20
     6   6     0.00  -0.00  -0.24    -0.00   0.00   0.14     0.00  -0.00  -0.08
     7   6    -0.00   0.00   0.17     0.00  -0.00  -0.00    -0.00   0.00   0.01
     8   6    -0.00   0.00   0.05     0.00  -0.00  -0.08     0.00  -0.00  -0.12
     9   6    -0.00   0.00   0.05    -0.00   0.00   0.07     0.00  -0.00  -0.03
    10   6     0.00  -0.00  -0.07    -0.00   0.00   0.22    -0.00   0.00   0.16
    11   1     0.00  -0.00  -0.07    -0.00   0.00   0.38    -0.00   0.00   0.32
    12   6     0.00  -0.00  -0.23    -0.00   0.00   0.13    -0.00   0.00   0.17
    13   6     0.00  -0.00  -0.25     0.00  -0.00  -0.14     0.00  -0.00  -0.06
    14   6     0.00  -0.00  -0.10     0.00  -0.00  -0.21     0.00  -0.00  -0.18
    15   1     0.00  -0.00  -0.35     0.00  -0.00  -0.21    -0.00   0.00   0.35
    16   1     0.00  -0.00  -0.08     0.00  -0.00  -0.36    -0.00   0.00   0.35
    17   1     0.00  -0.00  -0.09    -0.00   0.00   0.33     0.00  -0.00  -0.30
    18   1     0.00  -0.00  -0.36    -0.00   0.00   0.25     0.00  -0.00  -0.13
    19   1     0.00  -0.00  -0.34    -0.00   0.00   0.24    -0.00   0.00   0.33
    20   1     0.00  -0.00  -0.37     0.00  -0.00  -0.25     0.00  -0.00  -0.11
    21   1     0.00  -0.00  -0.11     0.00  -0.00  -0.35     0.00  -0.00  -0.27
    22  16    -0.00   0.00   0.24     0.00  -0.00  -0.01     0.00  -0.00  -0.13
    23   8    -0.00   0.00   0.33    -0.00   0.00   0.01    -0.00   0.00   0.32
                      4                      5                      6
                      A                      A                      A
 Frequencies --    203.1577               227.5589               231.8227
 Red. masses --      6.6624                 5.0748                 5.0368
 Frc consts  --      0.1620                 0.1548                 0.1595
 IR Inten    --      0.2110                 3.7890                 0.0002
  Atom  AN      X      Y      Z        X      Y      Z        X      Y      Z
     1   6    -0.00   0.00   0.09    -0.14   0.15  -0.00     0.00  -0.00  -0.15
     2   6     0.00  -0.00  -0.17    -0.13  -0.01  -0.00    -0.00   0.00   0.14
     3   6     0.00  -0.00  -0.21     0.01  -0.10  -0.00    -0.00   0.00   0.22
     4   6     0.00  -0.00  -0.22     0.07  -0.08  -0.00    -0.00   0.00   0.23
     5   6     0.00  -0.00  -0.04     0.08   0.09  -0.00    -0.00   0.00   0.15
     6   6    -0.00   0.00   0.20    -0.04   0.19  -0.00     0.00  -0.00  -0.14
     7   6     0.00  -0.00  -0.12     0.07  -0.12   0.00     0.00  -0.00   0.00
     8   6     0.00  -0.00  -0.22     0.03  -0.10   0.00     0.00  -0.00  -0.23
     9   6     0.00  -0.00  -0.21     0.08  -0.06   0.00     0.00  -0.00  -0.22
    10   6     0.00  -0.00  -0.17     0.08   0.11   0.00     0.00  -0.00  -0.14
    11   1     0.00  -0.00  -0.22     0.20   0.20   0.00     0.00  -0.00  -0.14
    12   6    -0.00   0.00   0.09    -0.06   0.19  -0.00    -0.00   0.00   0.15
    13   6    -0.00   0.00   0.20    -0.15   0.13  -0.00    -0.00   0.00   0.14
    14   6     0.00  -0.00  -0.04    -0.12  -0.03   0.00     0.00  -0.00  -0.15
    15   1    -0.00   0.00   0.21    -0.22   0.20  -0.00     0.00  -0.00  -0.37
    16   1     0.00  -0.00  -0.22    -0.27  -0.08  -0.00    -0.00   0.00   0.14
    17   1     0.00   0.00  -0.00     0.23   0.16  -0.00    -0.00   0.00   0.16
    18   1    -0.00   0.00   0.44    -0.04   0.30  -0.00     0.00  -0.00  -0.36
    19   1    -0.00   0.00   0.22    -0.07   0.29  -0.01    -0.00   0.01   0.37
    20   1    -0.00   0.00   0.44    -0.24   0.18  -0.01    -0.00   0.00   0.36
    21   1    -0.00  -0.00  -0.00    -0.25  -0.12   0.00    -0.00  -0.00  -0.16
    22  16    -0.00   0.00   0.22     0.07  -0.12   0.00     0.00  -0.00  -0.00
    23   8    -0.00   0.00   0.15     0.07  -0.12   0.00     0.00  -0.00  -0.00
                      7                      8                      9
                      A                      A                      A
 Frequencies --    331.7759               338.0491               415.1599
 Red. masses --      6.3247                 7.8907                 3.5706
 Frc consts  --      0.4102                 0.5313                 0.3626
 IR Inten    --     20.0499                12.2265                 0.4003
  Atom  AN      X      Y      Z        X      Y      Z        X      Y      Z
     1   6     0.09  -0.07   0.00    -0.21  -0.13  -0.00    -0.00   0.00   0.14
     2   6     0.08   0.09  -0.00    -0.19  -0.11  -0.00     0.00  -0.00  -0.16
     3   6    -0.05   0.16  -0.00    -0.17  -0.09  -0.00    -0.00   0.00   0.02
     4   6    -0.14   0.12  -0.00    -0.12  -0.09  -0.00    -0.00   0.00   0.16
     5   6    -0.17  -0.02  -0.00    -0.16  -0.12  -0.00     0.00  -0.00  -0.16
     6   6    -0.03  -0.13   0.00    -0.19  -0.12  -0.00     0.00   0.00   0.01
     7   6     0.02   0.02  -0.00     0.06  -0.10   0.00    -0.00   0.00   0.18
     8   6     0.03  -0.19   0.00     0.14   0.05   0.00    -0.00   0.00   0.16
     9   6     0.11  -0.12   0.00     0.17   0.10   0.00    -0.00   0.00   0.02
    10   6     0.11   0.02   0.00     0.20   0.11   0.00     0.00  -0.00  -0.16
    11   1     0.23   0.10   0.00     0.21   0.12   0.00     0.00  -0.00  -0.38
    12   6    -0.03   0.11  -0.00     0.22   0.13   0.00    -0.00   0.00   0.14
    13   6    -0.14   0.03  -0.00     0.19   0.11   0.00    -0.00   0.00   0.01
    14   6    -0.11  -0.14   0.00     0.17   0.07   0.00     0.00  -0.00  -0.16
    15   1     0.19  -0.14   0.00    -0.21  -0.14  -0.00    -0.00   0.00   0.28
    16   1     0.21   0.16   0.00    -0.19  -0.12  -0.00     0.00  -0.00  -0.38
    17   1    -0.30  -0.08  -0.00    -0.19  -0.13  -0.00     0.00  -0.00  -0.40
    18   1    -0.04  -0.26   0.00    -0.19  -0.09  -0.00     0.00  -0.00  -0.03
    19   1    -0.04   0.23  -0.00     0.22   0.13   0.00    -0.00   0.00   0.28
    20   1    -0.25   0.08  -0.00     0.15   0.13  -0.00     0.00  -0.00  -0.03
    21   1    -0.23  -0.23   0.00     0.19   0.09   0.00     0.00  -0.00  -0.40
    22  16    -0.07  -0.05  -0.00    -0.08   0.13  -0.00    -0.00   0.00  -0.01
    23   8     0.31   0.19   0.00     0.08  -0.11   0.00     0.00  -0.00  -0.07
                     10                     11                     12
                      A                      A                      A
 Frequencies --    417.2398               452.6569               456.3317
 Red. masses --      9.8592                13.2705                 3.1689
 Frc consts  --      1.0113                 1.6021                 0.3888
 IR Inten    --      0.0080                 0.0268                 0.0008
  Atom  AN      X      Y      Z        X      Y      Z        X      Y      Z
     1   6    -0.06  -0.17   0.00     0.15   0.07  -0.00    -0.00   0.00   0.09
     2   6    -0.07  -0.22   0.00     0.11  -0.09   0.00     0.00  -0.00  -0.15
     3   6    -0.08  -0.18   0.00    -0.04  -0.01  -0.00    -0.00   0.00   0.15
     4   6     0.18  -0.03   0.00     0.06  -0.08  -0.00    -0.00   0.00   0.17
     5   6     0.21  -0.08   0.00     0.12   0.13   0.00     0.00  -0.00  -0.13
     6   6     0.16  -0.06   0.00     0.19   0.11   0.00     0.00   0.00   0.04
     7   6     0.18   0.11   0.00     0.17  -0.28   0.00     0.00  -0.00   0.00
     8   6     0.06   0.17  -0.00     0.04  -0.09   0.00     0.00  -0.00  -0.17
     9   6    -0.19   0.02  -0.00     0.03   0.03   0.00     0.00  -0.00  -0.15
    10   6    -0.23   0.05  -0.00     0.02  -0.14   0.00    -0.00   0.00   0.15
    11   1    -0.20   0.07  -0.00     0.00  -0.15  -0.00    -0.00   0.00   0.45
    12   6    -0.18   0.03  -0.00    -0.13  -0.10   0.00     0.00  -0.00  -0.08
    13   6     0.02   0.17  -0.00    -0.19  -0.11  -0.00     0.00  -0.00  -0.04
    14   6     0.04   0.22  -0.00    -0.17  -0.04  -0.00    -0.00   0.00   0.13
    15   1    -0.18  -0.09  -0.00     0.03   0.14  -0.00    -0.00   0.00   0.09
    16   1    -0.03  -0.20   0.00     0.13  -0.08   0.01     0.00  -0.00  -0.44
    17   1     0.17  -0.09   0.00     0.19   0.15   0.00     0.00  -0.00  -0.44
    18   1     0.17   0.08   0.00     0.19   0.08   0.00     0.00  -0.00  -0.03
    19   1    -0.17  -0.11  -0.00    -0.14   0.04  -0.00     0.00  -0.00  -0.08
    20   1     0.15   0.11   0.00    -0.16  -0.13  -0.00    -0.00   0.00   0.03
    21   1     0.00   0.20  -0.00    -0.22  -0.09  -0.00    -0.00   0.00   0.44
    22  16    -0.17  -0.10  -0.00    -0.23   0.38  -0.01    -0.00   0.00   0.00
    23   8     0.31   0.18   0.00     0.18  -0.30   0.00     0.00  -0.00   0.00
                     13                     14                     15
                      A                      A                      A
 Frequencies --    484.5689               498.8078               509.5527
 Red. masses --     11.7628                 4.0107                 3.8727
 Frc consts  --      1.6273                 0.5879                 0.5924
 IR Inten    --      9.3977                 9.2534                 0.0006
  Atom  AN      X      Y      Z        X      Y      Z        X      Y      Z
     1   6    -0.20  -0.02  -0.00     0.00  -0.00  -0.11     0.00  -0.00  -0.16
     2   6    -0.14  -0.05  -0.00    -0.00  -0.00  -0.01    -0.00   0.00   0.07
     3   6     0.08  -0.13   0.00    -0.00   0.00   0.25    -0.00   0.00   0.19
     4   6    -0.04  -0.10   0.00     0.00  -0.00  -0.06     0.00  -0.00  -0.15
     5   6    -0.06  -0.11   0.00     0.00  -0.00  -0.13     0.00  -0.00  -0.10
     6   6    -0.22  -0.03  -0.00    -0.00   0.00   0.17    -0.00   0.00   0.18
     7   6    -0.02  -0.01   0.00     0.00  -0.00  -0.09    -0.00   0.00  -0.00
     8   6    -0.11   0.02  -0.00     0.00  -0.00  -0.06    -0.00   0.00   0.15
     9   6    -0.08   0.13  -0.00    -0.00   0.00   0.25     0.00  -0.00  -0.18
    10   6    -0.11  -0.10   0.00     0.00  -0.00  -0.00     0.00  -0.00  -0.07
    11   1    -0.25  -0.19   0.00     0.00  -0.00  -0.19    -0.00   0.00   0.01
    12   6    -0.11  -0.17   0.00     0.00  -0.00  -0.12    -0.00   0.00   0.16
    13   6    -0.13  -0.17   0.00    -0.00   0.00   0.18     0.00  -0.00  -0.18
    14   6    -0.13   0.00  -0.00     0.00  -0.00  -0.13    -0.00   0.00   0.10
    15   1    -0.18  -0.04  -0.00     0.00  -0.00  -0.36     0.00  -0.00  -0.45
    16   1    -0.29  -0.12  -0.00     0.00  -0.00  -0.20     0.00  -0.00  -0.02
    17   1     0.02  -0.07   0.00     0.00  -0.00  -0.30     0.00  -0.00  -0.12
    18   1    -0.21   0.05  -0.00    -0.00   0.00   0.32    -0.00   0.00   0.40
    19   1    -0.12  -0.14   0.00     0.00  -0.00  -0.37    -0.00   0.00   0.44
    20   1    -0.06  -0.21   0.00    -0.00   0.00   0.33     0.00  -0.00  -0.39
    21   1    -0.05   0.05   0.00     0.00  -0.00  -0.29    -0.00   0.00   0.12
    22  16     0.35   0.20   0.00     0.00  -0.00  -0.05     0.00   0.00  -0.00
    23   8     0.33   0.19   0.00    -0.00   0.00   0.05    -0.00   0.00   0.00
                     16                     17                     18
                      A                      A                      A
 Frequencies --    593.9561               639.6862               679.3340
 Red. masses --      7.1208                 6.8896                 6.3346
 Frc consts  --      1.4801                 1.6610                 1.7224
 IR Inten    --      0.6563                24.5650                 0.5772
  Atom  AN      X      Y      Z        X      Y      Z        X      Y      Z
     1   6    -0.12  -0.11   0.00    -0.15  -0.11  -0.00     0.09   0.01   0.00
     2   6    -0.10  -0.18   0.00    -0.12   0.25  -0.00     0.07  -0.27   0.00
     3   6    -0.05  -0.11   0.00     0.04   0.15  -0.00    -0.12  -0.11   0.00
     4   6     0.13   0.03   0.00     0.15   0.10   0.00    -0.15   0.01  -0.00
     5   6     0.22  -0.03   0.00     0.13  -0.20   0.00    -0.18   0.23  -0.00
     6   6     0.16   0.02   0.00    -0.07  -0.10   0.00     0.08   0.05   0.00
     7   6    -0.12   0.21  -0.00     0.13   0.08   0.00    -0.03   0.04  -0.00
     8   6    -0.09  -0.10   0.00     0.16   0.08   0.00     0.06   0.13  -0.00
     9   6     0.12  -0.01   0.00     0.15  -0.04   0.00     0.15   0.05   0.00
    10   6     0.20   0.00   0.00     0.16  -0.23   0.00     0.20  -0.19   0.00
    11   1     0.20  -0.00   0.00     0.25  -0.17   0.00     0.22  -0.18   0.00
    12   6     0.16   0.05   0.00    -0.17  -0.08  -0.00    -0.06  -0.07   0.00
    13   6    -0.09  -0.13   0.00    -0.13  -0.01  -0.00    -0.09  -0.05  -0.00
    14   6    -0.08  -0.21   0.00    -0.11   0.21  -0.00    -0.11   0.27  -0.00
    15   1    -0.28  -0.01  -0.00     0.04  -0.23   0.00    -0.12   0.15  -0.00
    16   1    -0.09  -0.17   0.00    -0.03   0.30  -0.00     0.05  -0.28   0.00
    17   1     0.20  -0.04   0.00     0.05  -0.24   0.00    -0.24   0.20  -0.00
    18   1     0.17   0.24  -0.00    -0.06   0.15  -0.00     0.07  -0.20   0.00
    19   1     0.14   0.24  -0.00    -0.18   0.15  -0.00    -0.07   0.18  -0.00
    20   1    -0.29  -0.04  -0.00     0.10  -0.13   0.00     0.14  -0.16   0.00
    21   1    -0.06  -0.20   0.00    -0.18   0.16  -0.00    -0.06   0.31  -0.00
    22  16    -0.05   0.09  -0.00    -0.01  -0.01  -0.00     0.04  -0.08   0.00
    23   8    -0.15   0.25  -0.00    -0.10  -0.06  -0.00    -0.03   0.06  -0.00
                     19                     20                     21
                      A                      A                      A
 Frequencies --    687.7376               739.5770               742.4510
 Red. masses --      4.0454                 3.9290                 7.1742
 Frc consts  --      1.1273                 1.2662                 2.3300
 IR Inten    --     19.6194                 0.0242                 3.7188
  Atom  AN      X      Y      Z        X      Y      Z        X      Y      Z
     1   6     0.00  -0.00  -0.14     0.00  -0.00  -0.10    -0.10  -0.20   0.00
     2   6    -0.00   0.00   0.11    -0.00   0.00   0.11    -0.09  -0.09  -0.00
     3   6     0.00  -0.00  -0.16     0.00  -0.00  -0.21    -0.19   0.07  -0.00
     4   6    -0.00   0.00   0.05    -0.00   0.00   0.20    -0.05   0.18  -0.00
     5   6     0.00  -0.00  -0.13     0.00   0.00  -0.09    -0.06   0.18  -0.00
     6   6    -0.00   0.00   0.11     0.00   0.00   0.13     0.19  -0.02   0.00
     7   6    -0.00   0.00   0.30     0.00   0.00   0.00     0.13   0.08   0.00
     8   6    -0.00   0.00   0.05     0.00  -0.00  -0.20     0.14  -0.13   0.00
     9   6     0.00  -0.00  -0.16    -0.00   0.00   0.22    -0.03  -0.20  -0.00
    10   6    -0.00   0.00   0.11     0.00  -0.00  -0.11    -0.12  -0.04   0.00
    11   1    -0.00   0.00   0.44     0.00  -0.00  -0.26     0.06   0.09   0.00
    12   6     0.00  -0.00  -0.14    -0.00   0.00   0.10    -0.22   0.00  -0.00
    13   6    -0.00   0.00   0.11     0.00  -0.00  -0.14     0.07   0.18   0.00
    14   6     0.00  -0.00  -0.13    -0.00   0.00   0.09     0.13  -0.14   0.00
    15   1     0.00  -0.00  -0.10     0.00  -0.00  -0.27    -0.29  -0.08   0.00
    16   1    -0.00   0.00   0.44    -0.00   0.00   0.26     0.10   0.01  -0.00
    17   1     0.00  -0.00  -0.05     0.00  -0.00  -0.46    -0.34   0.05   0.00
    18   1    -0.00   0.00   0.40     0.00  -0.00  -0.02     0.19   0.00   0.00
    19   1     0.00  -0.00  -0.10    -0.00   0.00   0.29    -0.21  -0.21  -0.00
    20   1    -0.00   0.00   0.40     0.00   0.00   0.04     0.09   0.16  -0.00
    21   1     0.00  -0.00  -0.05    -0.00   0.00   0.48    -0.12  -0.32  -0.00
    22  16    -0.00  -0.00   0.01     0.00   0.00  -0.00     0.15   0.09   0.00
    23   8     0.00  -0.00  -0.08    -0.00  -0.00  -0.00    -0.11  -0.06  -0.00
                     22                     23                     24
                      A                      A                      A
 Frequencies --    759.9659               781.7216               784.7390
 Red. masses --      1.4488                 1.2590                 6.5813
 Frc consts  --      0.4930                 0.4533                 2.3879
 IR Inten    --    110.5285                 0.0117                 3.9452
  Atom  AN      X      Y      Z        X      Y      Z        X      Y      Z
     1   6     0.00  -0.00  -0.02     0.00  -0.00  -0.06    -0.10  -0.21   0.00
     2   6     0.00  -0.00  -0.06     0.00  -0.00  -0.04    -0.11   0.10  -0.00
     3   6    -0.00   0.00   0.09     0.00  -0.00   0.02    -0.15   0.14  -0.00
     4   6     0.00  -0.00  -0.05    -0.00   0.00   0.06    -0.02   0.15  -0.00
     5   6     0.00  -0.00  -0.01     0.00  -0.00  -0.05     0.02   0.12  -0.00
     6   6     0.00  -0.00  -0.07    -0.00  -0.00  -0.03     0.24  -0.03   0.00
     7   6    -0.00   0.00   0.06    -0.00   0.00   0.00     0.06  -0.10   0.00
     8   6     0.00  -0.00  -0.04     0.00  -0.00  -0.06    -0.12   0.09  -0.00
     9   6    -0.00   0.00   0.08     0.00  -0.00  -0.02    -0.05   0.19  -0.00
    10   6     0.00  -0.00  -0.06    -0.00   0.00   0.03    -0.04   0.15  -0.00
    11   1    -0.00   0.00   0.21     0.00  -0.00  -0.34    -0.29  -0.02  -0.01
    12   6     0.00  -0.00  -0.02    -0.00   0.00   0.06     0.23  -0.01   0.00
    13   6     0.00  -0.00  -0.07    -0.00   0.00   0.03    -0.09  -0.22   0.00
    14   6     0.00  -0.00  -0.02    -0.00   0.00   0.05    -0.12   0.04  -0.00
    15   1    -0.00   0.00   0.40    -0.00   0.00   0.39    -0.18  -0.15   0.00
    16   1    -0.00   0.00   0.20    -0.00   0.00   0.35     0.16   0.24   0.00
    17   1    -0.00   0.00   0.35    -0.00   0.00   0.17    -0.23  -0.00  -0.00
    18   1    -0.00   0.00   0.39    -0.00   0.00   0.44     0.25   0.10   0.01
    19   1    -0.00   0.00   0.40     0.00  -0.00  -0.38     0.22   0.09  -0.00
    20   1    -0.00   0.00   0.40     0.00  -0.00  -0.43    -0.21  -0.17  -0.00
    21   1    -0.00   0.00   0.35     0.00  -0.00  -0.17     0.11   0.20  -0.00
    22  16     0.00  -0.00  -0.01    -0.00   0.00  -0.00     0.05  -0.09   0.00
    23   8     0.00  -0.00  -0.02    -0.00   0.00  -0.00     0.09  -0.15   0.00
                     25                     26                     27
                      A                      A                      A
 Frequencies --    841.3661               896.5226               903.2881
 Red. masses --      2.4773                 1.3733                 1.6287
 Frc consts  --      1.0332                 0.6503                 0.7829
 IR Inten    --      3.9730                 0.0007                 0.0847
  Atom  AN      X      Y      Z        X      Y      Z        X      Y      Z
     1   6    -0.00   0.00   0.07    -0.00   0.00   0.02     0.00  -0.00  -0.01
     2   6    -0.00   0.00   0.05    -0.00   0.00   0.08     0.00  -0.00  -0.09
     3   6    -0.00   0.00   0.03     0.00  -0.00  -0.04    -0.00   0.00   0.04
     4   6     0.00  -0.00  -0.16    -0.00   0.00   0.03     0.00  -0.00  -0.08
     5   6    -0.00   0.00   0.00     0.00  -0.00  -0.05    -0.00   0.00   0.06
     6   6     0.00  -0.00  -0.02     0.00  -0.00  -0.05    -0.00   0.00   0.06
     7   6    -0.00   0.00   0.25     0.00   0.00   0.00    -0.00   0.00   0.10
     8   6     0.00  -0.00  -0.16     0.00  -0.00  -0.04     0.00  -0.00  -0.08
     9   6    -0.00   0.00   0.03    -0.00   0.00   0.04    -0.00   0.00   0.04
    10   6    -0.00   0.00   0.05     0.00  -0.00  -0.09     0.00  -0.00  -0.08
    11   1     0.00  -0.00  -0.48    -0.00   0.00   0.49    -0.00   0.00   0.44
    12   6    -0.00   0.00   0.07     0.00  -0.00  -0.02     0.00  -0.00  -0.01
    13   6     0.00  -0.00  -0.02    -0.00   0.00   0.06    -0.00   0.00   0.06
    14   6    -0.00   0.00   0.00    -0.00   0.00   0.06    -0.00   0.00   0.05
    15   1     0.00  -0.00  -0.34     0.00  -0.00  -0.15    -0.00   0.00   0.08
    16   1     0.00  -0.00  -0.48     0.00  -0.00  -0.47    -0.00   0.00   0.48
    17   1    -0.00   0.00   0.27    -0.00   0.00   0.31     0.00  -0.00  -0.26
    18   1     0.00  -0.00  -0.12    -0.00   0.00   0.35     0.00  -0.00  -0.45
    19   1     0.00  -0.00  -0.34    -0.00   0.00   0.15    -0.00   0.00   0.07
    20   1     0.00  -0.00  -0.12     0.00  -0.00  -0.37     0.00  -0.00  -0.42
    21   1    -0.00   0.00   0.28     0.00  -0.00  -0.32     0.00  -0.00  -0.24
    22  16     0.00  -0.00  -0.00    -0.00   0.00  -0.00     0.00  -0.00  -0.00
    23   8     0.00  -0.00  -0.06    -0.00  -0.00  -0.00     0.00  -0.00  -0.02
                     28                     29                     30
                      A                      A                      A
 Frequencies --    944.5328               996.8488               999.2295
 Red. masses --      6.8881                 1.3551                 1.3882
 Frc consts  --      3.6206                 0.7934                 0.8166
 IR Inten    --     39.2018                 0.0091                 1.0341
  Atom  AN      X      Y      Z        X      Y      Z        X      Y      Z
     1   6     0.07   0.07  -0.00    -0.00   0.00   0.07     0.00  -0.00  -0.09
     2   6     0.08  -0.18   0.00     0.00  -0.00  -0.06    -0.00   0.00   0.07
     3   6    -0.03  -0.03   0.00    -0.00   0.00   0.01     0.00  -0.00  -0.00
     4   6     0.13   0.14  -0.00    -0.00   0.00   0.02     0.00  -0.00  -0.04
     5   6    -0.09  -0.01  -0.00     0.00  -0.00  -0.06    -0.00   0.00   0.07
     6   6    -0.27  -0.01  -0.00    -0.00   0.00   0.01     0.00  -0.00  -0.01
     7   6     0.37   0.22   0.00    -0.00   0.00   0.00    -0.00   0.00   0.04
     8   6     0.19   0.05   0.00     0.00  -0.00  -0.03     0.00  -0.00  -0.03
     9   6    -0.04  -0.01  -0.00     0.00  -0.00  -0.01    -0.00  -0.00  -0.00
    10   6    -0.12   0.16  -0.00    -0.00   0.00   0.07    -0.00   0.00   0.05
    11   1    -0.22   0.10  -0.00     0.00  -0.00  -0.38     0.00  -0.00  -0.31
    12   6     0.09   0.02   0.00     0.00  -0.00  -0.09     0.00  -0.00  -0.07
    13   6    -0.14  -0.23   0.00     0.00  -0.00  -0.02     0.00  -0.00  -0.01
    14   6    -0.05  -0.07   0.00    -0.00   0.00   0.08    -0.00   0.00   0.06
    15   1     0.14   0.02   0.00     0.00  -0.00  -0.40    -0.00   0.00   0.52
    16   1    -0.02  -0.24   0.00    -0.00   0.00   0.31     0.00  -0.00  -0.38
    17   1    -0.13  -0.02  -0.00    -0.00   0.00   0.35     0.00  -0.00  -0.41
    18   1    -0.29  -0.23  -0.00     0.00  -0.00  -0.07    -0.00   0.00   0.03
    19   1     0.08   0.11  -0.00    -0.00   0.00   0.49    -0.00   0.00   0.42
    20   1    -0.35  -0.14  -0.00    -0.00   0.00   0.09    -0.00   0.00   0.03
    21   1    -0.08  -0.11   0.00     0.00  -0.00  -0.43     0.00  -0.00  -0.33
    22  16    -0.00  -0.00  -0.00     0.00   0.00   0.00    -0.00   0.00   0.00
    23   8    -0.09  -0.05  -0.00     0.00  -0.00  -0.00     0.00  -0.00  -0.01
                     31                     32                     33
                      A                      A                      A
 Frequencies --   1023.9798              1024.9379              1056.3640
 Red. masses --      1.3326                 1.3418                 2.5338
 Frc consts  --      0.8232                 0.8305                 1.6659
 IR Inten    --      0.0001                 0.0009                12.6892
  Atom  AN      X      Y      Z        X      Y      Z        X      Y      Z
     1   6     0.00  -0.00  -0.03    -0.00   0.00   0.07    -0.04  -0.14   0.00
     2   6    -0.00   0.00   0.01     0.00  -0.00  -0.03     0.06  -0.04   0.00
     3   6    -0.00   0.00   0.00    -0.00  -0.00  -0.00     0.06   0.02   0.00
     4   6    -0.00   0.00   0.00     0.00  -0.00  -0.02     0.03   0.00   0.00
     5   6     0.00  -0.00  -0.03    -0.00   0.00   0.10    -0.01   0.10  -0.00
     6   6    -0.00   0.00   0.04     0.00  -0.00  -0.10    -0.11   0.05  -0.00
     7   6    -0.00   0.00   0.01    -0.00   0.00   0.03     0.01  -0.00   0.00
     8   6     0.00  -0.00  -0.02     0.00  -0.00  -0.01    -0.02  -0.03   0.00
     9   6    -0.00  -0.00  -0.00    -0.00  -0.00  -0.00    -0.05  -0.05   0.00
    10   6     0.00  -0.00  -0.03     0.00  -0.00  -0.01    -0.00  -0.08   0.00
    11   1    -0.00   0.00   0.20    -0.00   0.00   0.06    -0.25  -0.26   0.00
    12   6    -0.00   0.00   0.07    -0.00   0.00   0.02     0.18  -0.04   0.00
    13   6     0.00  -0.00  -0.10     0.00  -0.00  -0.04     0.01   0.15  -0.00
    14   6    -0.00   0.00   0.09    -0.00   0.00   0.04    -0.10   0.07  -0.00
    15   1    -0.00   0.00   0.17     0.00  -0.00  -0.40     0.09  -0.24   0.00
    16   1     0.00  -0.00  -0.08    -0.00   0.00   0.18     0.28   0.07   0.00
    17   1    -0.00   0.00   0.20     0.00  -0.01  -0.57     0.27   0.24   0.00
    18   1     0.00  -0.00  -0.22    -0.00   0.01   0.58    -0.12   0.19  -0.00
    19   1     0.00  -0.00  -0.43     0.00  -0.00  -0.14     0.21  -0.25   0.00
    20   1    -0.00   0.01   0.58    -0.00   0.00   0.21    -0.13   0.23  -0.00
    21   1     0.00  -0.01  -0.54     0.00  -0.00  -0.22    -0.44  -0.16  -0.00
    22  16     0.00   0.00  -0.00     0.00  -0.00  -0.00    -0.00   0.01  -0.00
    23   8     0.00  -0.00  -0.00     0.00  -0.00  -0.00    -0.00   0.01  -0.00
                     34                     35                     36
                      A                      A                      A
 Frequencies --   1057.7124              1088.3120              1093.9477
 Red. masses --      2.5106                 2.9432                 3.9960
 Frc consts  --      1.6548                 2.0539                 2.8175
 IR Inten    --     42.6727                32.3859                34.1332
  Atom  AN      X      Y      Z        X      Y      Z        X      Y      Z
     1   6     0.05   0.18  -0.00    -0.01  -0.03   0.00    -0.04  -0.06   0.00
     2   6    -0.06   0.02  -0.00    -0.08   0.06  -0.00    -0.09   0.10  -0.00
     3   6    -0.09  -0.02  -0.00     0.19  -0.06   0.00     0.23  -0.08   0.00
     4   6    -0.02   0.03  -0.00     0.06  -0.02   0.00     0.01  -0.10   0.00
     5   6     0.01  -0.13   0.00    -0.10   0.11  -0.00    -0.10   0.13  -0.00
     6   6     0.11  -0.06   0.00     0.06  -0.05   0.00     0.10  -0.05   0.00
     7   6     0.02   0.01   0.00     0.05   0.03   0.00    -0.00   0.01  -0.00
     8   6     0.02  -0.03   0.00     0.01   0.06  -0.00     0.08  -0.05   0.00
     9   6    -0.05  -0.05   0.00     0.04   0.20  -0.00    -0.05  -0.23   0.00
    10   6    -0.01  -0.05   0.00     0.01  -0.10   0.00    -0.04   0.13  -0.00
    11   1    -0.21  -0.19  -0.00    -0.29  -0.31   0.00     0.26   0.33  -0.00
    12   6     0.15  -0.03   0.00    -0.04   0.00  -0.00     0.07   0.00   0.00
    13   6     0.00   0.09  -0.00    -0.01   0.08  -0.00    -0.01  -0.11   0.00
    14   6    -0.09   0.06  -0.00     0.05  -0.14   0.00    -0.07   0.14  -0.00
    15   1    -0.12   0.31  -0.00     0.06  -0.07   0.00     0.05  -0.12   0.00
    16   1    -0.33  -0.11  -0.00    -0.40  -0.10  -0.00    -0.44  -0.07  -0.00
    17   1    -0.36  -0.32  -0.00    -0.29   0.02  -0.00    -0.13   0.13  -0.00
    18   1     0.12  -0.21   0.00     0.04  -0.37   0.00     0.08  -0.37   0.00
    19   1     0.17  -0.20   0.00    -0.04   0.09  -0.00     0.08  -0.10   0.00
    20   1    -0.10   0.16  -0.00    -0.31   0.22  -0.00     0.26  -0.24   0.00
    21   1    -0.37  -0.13  -0.00    -0.12  -0.27   0.00    -0.06   0.16  -0.00
    22  16     0.02   0.01   0.00    -0.04  -0.02  -0.00    -0.03   0.04  -0.00
    23   8    -0.00  -0.00   0.00    -0.01  -0.00   0.00    -0.03   0.04  -0.00
                     37                     38                     39
                      A                      A                      A
 Frequencies --   1129.9127              1138.2512              1172.1849
 Red. masses --      1.6936                 1.7137                 1.1289
 Frc consts  --      1.2740                 1.3082                 0.9139
 IR Inten    --      1.7919                21.8485                 5.3937
  Atom  AN      X      Y      Z        X      Y      Z        X      Y      Z
     1   6    -0.04  -0.01  -0.00     0.03   0.01   0.00     0.05  -0.01   0.00
     2   6     0.04  -0.07   0.00    -0.03   0.07  -0.00    -0.03   0.01  -0.00
     3   6     0.11   0.04   0.00    -0.12  -0.04  -0.00    -0.04  -0.03  -0.00
     4   6    -0.00   0.04  -0.00    -0.04  -0.07   0.00    -0.00  -0.00  -0.00
     5   6    -0.03  -0.04   0.00     0.04   0.03   0.00     0.00   0.01  -0.00
     6   6     0.00   0.05  -0.00     0.01  -0.04   0.00     0.00   0.03  -0.00
     7   6    -0.04  -0.02  -0.00    -0.01   0.02  -0.00    -0.00  -0.00   0.00
     8   6     0.04  -0.02   0.00     0.08  -0.00   0.00    -0.01  -0.00  -0.00
     9   6     0.09   0.08  -0.00     0.08   0.08  -0.00    -0.04  -0.02  -0.00
    10   6    -0.04   0.07  -0.00    -0.04   0.06  -0.00    -0.00  -0.02   0.00
    11   1    -0.06   0.07  -0.00    -0.12   0.01  -0.00    -0.15  -0.13  -0.00
    12   6    -0.03  -0.03  -0.00    -0.02  -0.02   0.00     0.01   0.04  -0.00
    13   6     0.04  -0.02   0.00     0.03  -0.02   0.00     0.02  -0.01   0.00
    14   6    -0.05  -0.00  -0.00    -0.04  -0.02  -0.00     0.00  -0.00   0.00
    15   1    -0.23   0.10  -0.00     0.18  -0.08   0.00     0.51  -0.30   0.01
    16   1     0.04  -0.08   0.00     0.05   0.12  -0.00    -0.23  -0.09  -0.00
    17   1    -0.38  -0.21  -0.00     0.50   0.25   0.00    -0.17  -0.08  -0.00
    18   1     0.03   0.42  -0.00    -0.01  -0.36   0.00     0.02   0.37  -0.00
    19   1    -0.02  -0.25   0.00    -0.02  -0.16   0.00    -0.02   0.49  -0.00
    20   1     0.41  -0.19   0.00     0.30  -0.16   0.00     0.29  -0.14   0.00
    21   1    -0.41  -0.25  -0.00    -0.43  -0.30  -0.00    -0.13  -0.09  -0.00
    22  16    -0.02  -0.01  -0.00     0.01  -0.01   0.00     0.01   0.00   0.00
    23   8    -0.00   0.00  -0.00    -0.02   0.03  -0.00     0.00   0.00   0.00
                     40                     41                     42
                      A                      A                      A
 Frequencies --   1172.6921              1188.9769              1241.2487
 Red. masses --      1.1501                 2.3181                 1.5865
 Frc consts  --      0.9319                 1.9307                 1.4402
 IR Inten    --      6.1626                45.3784                 0.3345
  Atom  AN      X      Y      Z        X      Y      Z        X      Y      Z
     1   6    -0.04   0.01  -0.00    -0.02  -0.01  -0.00    -0.01   0.02  -0.00
     2   6     0.03  -0.00   0.00     0.04   0.07  -0.00     0.02   0.06  -0.00
     3   6     0.04   0.02   0.00     0.00  -0.04   0.00    -0.04  -0.10   0.00
     4   6    -0.01  -0.01   0.00    -0.13  -0.15   0.00     0.03  -0.07   0.00
     5   6    -0.00  -0.01   0.00    -0.02  -0.04   0.00    -0.02   0.02  -0.00
     6   6     0.00  -0.02   0.00     0.07   0.04   0.00    -0.00   0.01  -0.00
     7   6    -0.00   0.00  -0.00    -0.01   0.02  -0.00     0.05   0.03   0.00
     8   6     0.01   0.00   0.00     0.20   0.04   0.00    -0.05   0.07  -0.00
     9   6    -0.04  -0.03  -0.00     0.04  -0.02   0.00    -0.11   0.02  -0.00
    10   6    -0.01  -0.03   0.00    -0.08  -0.00  -0.00     0.06  -0.02   0.00
    11   1    -0.24  -0.19  -0.00    -0.30  -0.15  -0.00     0.49   0.27   0.00
    12   6     0.02   0.05  -0.00     0.02   0.01   0.00     0.01  -0.02   0.00
    13   6     0.02  -0.01   0.00    -0.06  -0.04  -0.00     0.01  -0.01   0.00
    14   6     0.01  -0.00   0.00     0.04   0.00   0.00     0.01  -0.03   0.00
    15   1    -0.45   0.26  -0.01    -0.06   0.01  -0.00    -0.01   0.02  -0.00
    16   1     0.24   0.10   0.00     0.28   0.19   0.00     0.47   0.30   0.00
    17   1     0.10   0.04   0.00    -0.08  -0.07   0.00    -0.37  -0.14  -0.00
    18   1    -0.01  -0.24   0.00     0.10   0.55  -0.00     0.00   0.06  -0.00
    19   1    -0.02   0.62  -0.01     0.02   0.06  -0.00     0.01  -0.01   0.00
    20   1     0.27  -0.14   0.00    -0.53   0.18  -0.01     0.04  -0.02   0.00
    21   1    -0.11  -0.08  -0.00     0.10   0.03   0.00    -0.31  -0.26  -0.00
    22  16    -0.00   0.00  -0.00    -0.00   0.00  -0.00     0.00   0.00   0.00
    23   8     0.00  -0.00   0.00    -0.02   0.04  -0.00     0.00   0.00   0.00
                     43                     44                     45
                      A                      A                      A
 Frequencies --   1275.1853              1332.6624              1366.5314
 Red. masses --      1.5667                 2.8690                 9.6914
 Frc consts  --      1.5010                 3.0021                10.6629
 IR Inten    --      1.7210               268.9156                48.3860
  Atom  AN      X      Y      Z        X      Y      Z        X      Y      Z
     1   6     0.01  -0.02   0.00    -0.01   0.00  -0.00    -0.20   0.10  -0.00
     2   6     0.01  -0.03   0.00     0.06   0.06  -0.00     0.20   0.06   0.00
     3   6     0.04   0.09  -0.00     0.03  -0.04   0.00     0.05  -0.25   0.00
     4   6    -0.10   0.02  -0.00    -0.15  -0.08  -0.00    -0.16   0.28  -0.00
     5   6    -0.00  -0.04   0.00    -0.05  -0.02  -0.00     0.24   0.13   0.00
     6   6     0.03  -0.01   0.00     0.05  -0.07   0.00    -0.06  -0.20   0.00
     7   6    -0.00   0.00  -0.00     0.23   0.14   0.00    -0.12  -0.07  -0.00
     8   6     0.03   0.10  -0.00    -0.14  -0.09  -0.00     0.17  -0.28   0.00
     9   6    -0.10   0.01  -0.00    -0.02   0.05  -0.00    -0.20   0.16  -0.00
    10   6     0.02  -0.03   0.00     0.08   0.02   0.00     0.15   0.15  -0.00
    11   1     0.40   0.23   0.00    -0.13  -0.12   0.00    -0.10  -0.01  -0.00
    12   6     0.01  -0.02   0.00    -0.00  -0.01   0.00    -0.01  -0.22   0.00
    13   6     0.00  -0.03   0.00    -0.04   0.07  -0.00    -0.20   0.05  -0.00
    14   6     0.04  -0.02   0.00    -0.04  -0.03  -0.00     0.23   0.15   0.00
    15   1    -0.11   0.06  -0.00    -0.19   0.12  -0.00     0.20  -0.17   0.00
    16   1    -0.41  -0.25  -0.00    -0.17  -0.05  -0.00    -0.06  -0.08   0.00
    17   1     0.42   0.16   0.00     0.29   0.14   0.00    -0.14  -0.04  -0.00
    18   1     0.04   0.19  -0.00     0.08   0.48  -0.00    -0.06  -0.06   0.00
    19   1     0.00   0.13  -0.00     0.01  -0.22   0.00    -0.05   0.26  -0.00
    20   1    -0.19   0.06  -0.00     0.45  -0.16   0.01    -0.08  -0.02  -0.00
    21   1    -0.34  -0.29   0.00     0.26   0.18   0.00    -0.11  -0.10   0.00
    22  16     0.00  -0.01   0.00    -0.01  -0.01  -0.00    -0.01  -0.01  -0.00
    23   8     0.01  -0.02   0.00    -0.03  -0.01  -0.00    -0.02  -0.01  -0.00
                     46                     47                     48
                      A                      A                      A
 Frequencies --   1369.5126              1461.4054              1465.9848
 Red. masses --      9.7194                 2.3152                 2.4948
 Frc consts  --     10.7404                 2.9132                 3.1590
 IR Inten    --     41.9806                 5.0962               201.1588
  Atom  AN      X      Y      Z        X      Y      Z        X      Y      Z
     1   6    -0.21   0.10  -0.00     0.09  -0.03   0.00    -0.09   0.05  -0.00
     2   6     0.24   0.08   0.00     0.02   0.08  -0.00    -0.04  -0.08   0.00
     3   6     0.03  -0.26   0.00    -0.07  -0.07   0.00     0.08   0.05   0.00
     4   6    -0.20   0.21  -0.00     0.12   0.01   0.00    -0.13  -0.02  -0.00
     5   6     0.22   0.14   0.00    -0.06   0.05  -0.00     0.03  -0.06   0.00
     6   6    -0.04  -0.24   0.00    -0.04  -0.10   0.00     0.06   0.09  -0.00
     7   6    -0.01   0.02  -0.00     0.02  -0.03   0.00     0.10   0.06   0.00
     8   6    -0.09   0.27  -0.00    -0.06  -0.10   0.00    -0.08  -0.10   0.00
     9   6     0.21  -0.15   0.00     0.09   0.03   0.00     0.08   0.05   0.00
    10   6    -0.19  -0.16   0.00    -0.08   0.02  -0.00    -0.09   0.00  -0.00
    11   1     0.19   0.08   0.00     0.12   0.17  -0.00     0.21   0.22  -0.00
    12   6     0.01   0.23  -0.00    -0.02  -0.10   0.00    -0.00  -0.11   0.00
    13   6     0.23  -0.08   0.00     0.11  -0.02   0.00     0.11   0.01   0.00
    14   6    -0.23  -0.12  -0.00    -0.01   0.08  -0.00    -0.03   0.06  -0.00
    15   1     0.13  -0.12   0.00    -0.36   0.26  -0.01     0.38  -0.26   0.01
    16   1    -0.17  -0.13  -0.00    -0.22  -0.02  -0.00     0.29   0.07   0.00
    17   1    -0.12  -0.01  -0.00     0.06   0.12  -0.00     0.01  -0.08   0.00
    18   1    -0.03   0.13  -0.00    -0.02   0.43  -0.00     0.04  -0.34   0.00
    19   1     0.04  -0.17   0.00    -0.05   0.44  -0.00    -0.04   0.47  -0.00
    20   1    -0.10   0.09  -0.00    -0.36   0.22  -0.00    -0.28   0.21  -0.00
    21   1     0.07   0.10  -0.00    -0.14   0.00  -0.00    -0.07   0.05  -0.00
    22  16    -0.01   0.02  -0.00    -0.00   0.00  -0.00    -0.01  -0.00  -0.00
    23   8     0.04  -0.07   0.00    -0.02   0.03  -0.00    -0.01  -0.01  -0.00
                     49                     50                     51
                      A                      A                      A
 Frequencies --   1488.1536              1495.1203              1598.0535
 Red. masses --      2.5825                 2.4617                 6.4904
 Frc consts  --      3.3696                 3.2422                 9.7657
 IR Inten    --     10.8220                31.3698                 6.2393
  Atom  AN      X      Y      Z        X      Y      Z        X      Y      Z
     1   6     0.04   0.06  -0.00     0.01   0.08  -0.00     0.19  -0.19   0.00
     2   6    -0.12  -0.03  -0.00    -0.11  -0.05  -0.00    -0.06   0.10  -0.00
     3   6     0.06  -0.08   0.00     0.07  -0.07   0.00     0.04  -0.19   0.00
     4   6     0.03   0.13  -0.00     0.01   0.12  -0.00    -0.15   0.15  -0.00
     5   6    -0.11  -0.05  -0.00    -0.11  -0.05  -0.00     0.06  -0.10   0.00
     6   6     0.04  -0.06   0.00     0.06  -0.07   0.00    -0.05   0.25  -0.00
     7   6    -0.05  -0.03  -0.00     0.01  -0.02   0.00     0.04   0.02   0.00
     8   6     0.13  -0.04   0.00    -0.10   0.05  -0.00     0.05  -0.20   0.00
     9   6    -0.04   0.09  -0.00     0.03  -0.09   0.00    -0.15   0.13  -0.00
    10   6    -0.09  -0.09   0.00     0.09   0.07   0.00     0.06  -0.11   0.00
    11   1     0.37   0.22   0.00    -0.36  -0.23  -0.00     0.04  -0.14   0.00
    12   6     0.07   0.01   0.00    -0.07   0.04  -0.00    -0.07   0.26  -0.00
    13   6    -0.03   0.07  -0.00     0.03  -0.08   0.00     0.19  -0.17   0.00
    14   6    -0.10  -0.08  -0.00     0.09   0.07   0.00    -0.05   0.10  -0.00
    15   1     0.11   0.03   0.00     0.20  -0.02   0.00    -0.32   0.13  -0.00
    16   1     0.35   0.21   0.00     0.40   0.21   0.00    -0.11   0.10  -0.00
    17   1     0.35   0.18   0.00     0.34   0.17   0.00     0.00  -0.14   0.00
    18   1     0.07   0.26  -0.00     0.09   0.25  -0.00    -0.09  -0.29   0.00
    19   1     0.08   0.10  -0.00    -0.07  -0.18   0.00    -0.04  -0.34   0.00
    20   1     0.28  -0.07   0.00    -0.24   0.04  -0.00    -0.30   0.06  -0.00
    21   1     0.34   0.23   0.00    -0.30  -0.20  -0.00    -0.12   0.07  -0.00
    22  16    -0.00  -0.00   0.00    -0.00   0.01  -0.00     0.00   0.00   0.00
    23   8    -0.00  -0.00  -0.00     0.01  -0.02   0.00    -0.01  -0.01  -0.00
                     52                     53                     54
                      A                      A                      A
 Frequencies --   1613.3467              1639.6877              1640.7707
 Red. masses --      7.1120                 6.4429                 5.9253
 Frc consts  --     10.9067                10.2060                 9.3985
 IR Inten    --      0.4926               152.7591               172.0154
  Atom  AN      X      Y      Z        X      Y      Z        X      Y      Z
     1   6    -0.23   0.18  -0.00    -0.13  -0.04  -0.00     0.18   0.01   0.00
     2   6     0.12  -0.09   0.00     0.20   0.10   0.00    -0.22  -0.08  -0.00
     3   6    -0.06   0.21  -0.00    -0.07  -0.13   0.00     0.08   0.09  -0.00
     4   6     0.16  -0.16   0.00     0.06   0.11  -0.00    -0.12  -0.06  -0.00
     5   6    -0.08   0.07  -0.00    -0.17  -0.16   0.00     0.21   0.15   0.00
     6   6     0.07  -0.20   0.00     0.10   0.19  -0.00    -0.12  -0.16   0.00
     7   6     0.05  -0.09   0.00     0.11  -0.19   0.00     0.03   0.02   0.00
     8   6     0.06  -0.22   0.00    -0.13  -0.00  -0.00    -0.11  -0.08  -0.00
     9   6    -0.16   0.16  -0.00     0.15  -0.00   0.00     0.12   0.03   0.00
    10   6     0.02  -0.15   0.00    -0.18  -0.13  -0.00    -0.18  -0.15  -0.00
    11   1     0.13  -0.09   0.00     0.22   0.14   0.00     0.24   0.12   0.00
    12   6    -0.05   0.29  -0.00     0.10   0.10  -0.00     0.09   0.15  -0.00
    13   6     0.14  -0.16   0.00    -0.22   0.01  -0.00    -0.19  -0.02  -0.00
    14   6    -0.02   0.10  -0.00     0.23   0.08   0.00     0.23   0.11   0.00
    15   1     0.33  -0.17   0.00     0.05  -0.18   0.00    -0.11   0.21  -0.00
    16   1     0.02  -0.16   0.00    -0.23  -0.12  -0.00     0.23   0.15   0.00
    17   1     0.01   0.12  -0.00     0.26   0.03   0.00    -0.28  -0.07  -0.00
    18   1     0.10   0.19  -0.00     0.09  -0.27   0.00    -0.11   0.23  -0.00
    19   1    -0.01  -0.37   0.00     0.13  -0.13   0.00     0.13  -0.19   0.00
    20   1    -0.21   0.00  -0.00     0.20  -0.21   0.00     0.14  -0.20   0.00
    21   1    -0.11   0.05  -0.00    -0.15  -0.22   0.00    -0.20  -0.21   0.00
    22  16     0.01  -0.01   0.00    -0.00   0.00  -0.00     0.00   0.00   0.00
    23   8    -0.06   0.09  -0.00    -0.06   0.11  -0.00    -0.01  -0.00   0.00
                     55                     56                     57
                      A                      A                      A
 Frequencies --   1685.6336              3181.5944              3182.4828
 Red. masses --     11.1283                 1.0872                 1.0869
 Frc consts  --     18.6297                 6.4843                 6.4861
 IR Inten    --    482.0394                 0.9439                 0.8860
  Atom  AN      X      Y      Z        X      Y      Z        X      Y      Z
     1   6    -0.09   0.01  -0.00     0.00   0.00  -0.00     0.02   0.04  -0.00
     2   6     0.11   0.04   0.00     0.00  -0.00   0.00     0.03  -0.06   0.00
     3   6    -0.06  -0.04  -0.00     0.00   0.00  -0.00     0.00   0.00  -0.00
     4   6     0.14  -0.05   0.00    -0.00   0.00  -0.00    -0.00   0.00  -0.00
     5   6    -0.15  -0.05  -0.00    -0.00   0.00  -0.00     0.00  -0.01   0.00
     6   6     0.07   0.05   0.00    -0.00   0.00  -0.00    -0.02   0.00  -0.00
     7   6    -0.35   0.60  -0.01    -0.00  -0.00  -0.00     0.00   0.00   0.00
     8   6    -0.02  -0.15   0.00     0.00   0.00  -0.00    -0.00   0.00  -0.00
     9   6     0.07   0.03   0.00    -0.00  -0.00  -0.00    -0.00   0.00  -0.00
    10   6    -0.09  -0.08   0.00     0.04  -0.06   0.00    -0.00   0.00  -0.00
    11   1     0.12   0.06   0.00    -0.44   0.65  -0.01     0.00  -0.01   0.00
    12   6     0.04   0.08  -0.00    -0.05  -0.00  -0.00     0.00   0.00   0.00
    13   6    -0.08  -0.04  -0.00     0.01   0.02  -0.00    -0.00  -0.00   0.00
    14   6     0.12   0.11  -0.00     0.00  -0.00   0.00    -0.00   0.00  -0.00
    15   1     0.06  -0.10   0.00    -0.00  -0.01   0.00    -0.31  -0.48   0.00
    16   1    -0.11  -0.08  -0.00    -0.00   0.01  -0.00    -0.34   0.68  -0.01
    17   1     0.16   0.12   0.00     0.00  -0.00   0.00    -0.03   0.07  -0.00
    18   1     0.07  -0.01   0.00     0.00  -0.00   0.00     0.28  -0.02   0.00
    19   1     0.05  -0.10   0.00     0.55   0.03   0.00    -0.01  -0.00  -0.00
    20   1    -0.03  -0.07   0.00    -0.11  -0.23   0.00     0.00   0.00  -0.00
    21   1    -0.18  -0.08  -0.00    -0.04   0.06  -0.00     0.00  -0.00   0.00
    22  16    -0.00   0.00  -0.00     0.00   0.00   0.00    -0.00  -0.00   0.00
    23   8     0.22  -0.38   0.01     0.00   0.00   0.00    -0.00  -0.00   0.00
                     58                     59                     60
                      A                      A                      A
 Frequencies --   3192.4301              3192.9973              3204.5254
 Red. masses --      1.0904                 1.0905                 1.0954
 Frc consts  --      6.5478                 6.5505                 6.6274
 IR Inten    --     11.9517                10.7965                24.7571
  Atom  AN      X      Y      Z        X      Y      Z        X      Y      Z
     1   6    -0.00  -0.00   0.00     0.02   0.02  -0.00    -0.01  -0.01   0.00
     2   6     0.00  -0.00   0.00    -0.02   0.04  -0.00     0.00  -0.00   0.00
     3   6    -0.00   0.00  -0.00    -0.00  -0.00   0.00     0.00   0.00  -0.00
     4   6    -0.00  -0.00  -0.00     0.00  -0.00   0.00    -0.00  -0.00  -0.00
     5   6    -0.00   0.00  -0.00     0.01  -0.01   0.00     0.00  -0.01   0.00
     6   6     0.00  -0.00   0.00    -0.06   0.00  -0.00    -0.01   0.00  -0.00
     7   6    -0.00   0.00  -0.00     0.00  -0.00   0.00     0.00   0.00  -0.00
     8   6    -0.00   0.00  -0.00    -0.00   0.00  -0.00    -0.00  -0.00   0.00
     9   6    -0.00  -0.00  -0.00    -0.00  -0.00   0.00     0.00   0.00   0.00
    10   6     0.03  -0.04   0.00     0.00  -0.00   0.00    -0.01   0.02  -0.00
    11   1    -0.29   0.43  -0.01    -0.01   0.02  -0.00     0.16  -0.25   0.00
    12   6     0.03   0.01   0.00     0.00   0.00   0.00    -0.06  -0.00  -0.00
    13   6    -0.03  -0.06   0.00    -0.00  -0.00   0.00    -0.02  -0.04   0.00
    14   6    -0.01   0.01  -0.00    -0.00   0.00  -0.00    -0.01   0.02  -0.00
    15   1     0.01   0.01  -0.00    -0.19  -0.30   0.00     0.08   0.12  -0.00
    16   1    -0.01   0.01  -0.00     0.25  -0.49   0.01    -0.03   0.05  -0.00
    17   1     0.00  -0.01   0.00    -0.09   0.19  -0.00    -0.03   0.06  -0.00
    18   1    -0.02   0.00  -0.00     0.72  -0.04   0.01     0.10  -0.01   0.00
    19   1    -0.39  -0.03  -0.00    -0.01  -0.00  -0.00     0.71   0.04   0.01
    20   1     0.32   0.65  -0.00     0.01   0.02  -0.00     0.22   0.45  -0.00
    21   1     0.12  -0.17   0.00     0.00  -0.00   0.00     0.19  -0.28   0.00
    22  16     0.00   0.00   0.00     0.00   0.00   0.00    -0.00  -0.00  -0.00
    23   8    -0.00  -0.00   0.00    -0.00   0.00  -0.00    -0.00  -0.00   0.00
                     61                     62                     63
                      A                      A                      A
 Frequencies --   3204.8868              3217.7371              3218.1564
 Red. masses --      1.0954                 1.0945                 1.0948
 Frc consts  --      6.6289                 6.6770                 6.6802
 IR Inten    --     12.3305                29.4233                 2.1978
  Atom  AN      X      Y      Z        X      Y      Z        X      Y      Z
     1   6    -0.03  -0.05   0.00     0.00   0.01  -0.00     0.00   0.01  -0.00
     2   6     0.02  -0.02   0.00    -0.00   0.00  -0.00    -0.00   0.00  -0.00
     3   6     0.00   0.00  -0.00    -0.00   0.00  -0.00    -0.00   0.00  -0.00
     4   6    -0.00  -0.00  -0.00    -0.00  -0.00  -0.00    -0.00  -0.00  -0.00
     5   6     0.01  -0.03   0.00     0.02  -0.05   0.00     0.02  -0.05   0.00
     6   6    -0.04   0.01  -0.00     0.02   0.00   0.00     0.03   0.00   0.00
     7   6     0.00  -0.00   0.00    -0.00   0.00  -0.00     0.00  -0.00   0.00
     8   6     0.00   0.00  -0.00    -0.00  -0.00   0.00     0.00   0.00  -0.00
     9   6    -0.00   0.00  -0.00    -0.00  -0.00   0.00     0.00   0.00  -0.00
    10   6     0.00  -0.01   0.00     0.00  -0.00   0.00    -0.00   0.00  -0.00
    11   1    -0.03   0.05  -0.00    -0.02   0.04  -0.00     0.02  -0.03   0.00
    12   6     0.01   0.00   0.00     0.01  -0.00   0.00    -0.01   0.00  -0.00
    13   6     0.00   0.01  -0.00     0.01   0.02  -0.00    -0.01  -0.02   0.00
    14   6     0.00  -0.00   0.00    -0.03   0.05  -0.00     0.03  -0.04   0.00
    15   1     0.38   0.59  -0.00    -0.05  -0.08   0.00    -0.06  -0.09   0.00
    16   1    -0.14   0.28  -0.00     0.02  -0.04   0.00     0.02  -0.04   0.00
    17   1    -0.15   0.31  -0.00    -0.27   0.56  -0.01    -0.28   0.59  -0.01
    18   1     0.49  -0.03   0.00    -0.26   0.01  -0.00    -0.28   0.01  -0.00
    19   1    -0.14  -0.01  -0.00    -0.10  -0.01  -0.00     0.10   0.01   0.00
    20   1    -0.04  -0.09   0.00    -0.12  -0.25   0.00     0.11   0.23  -0.00
    21   1    -0.04   0.06  -0.00     0.38  -0.54   0.01    -0.36   0.51  -0.01
    22  16    -0.00  -0.00   0.00     0.00   0.00   0.00    -0.00   0.00  -0.00
    23   8    -0.00  -0.00  -0.00    -0.00  -0.00   0.00    -0.00   0.00  -0.00

 -------------------
 - Thermochemistry -
 -------------------
 Temperature   298.150 Kelvin.  Pressure   1.00000 Atm.
 Atom     1 has atomic number  6 and mass  12.00000
 Atom     2 has atomic number  6 and mass  12.00000
 Atom     3 has atomic number  6 and mass  12.00000
 Atom     4 has atomic number  6 and mass  12.00000
 Atom     5 has atomic number  6 and mass  12.00000
 Atom     6 has atomic number  6 and mass  12.00000
 Atom     7 has atomic number  6 and mass  12.00000
 Atom     8 has atomic number  6 and mass  12.00000
 Atom     9 has atomic number  6 and mass  12.00000
 Atom    10 has atomic number  6 and mass  12.00000
 Atom    11 has atomic number  1 and mass   1.00783
 Atom    12 has atomic number  6 and mass  12.00000
 Atom    13 has atomic number  6 and mass  12.00000
 Atom    14 has atomic number  6 and mass  12.00000
 Atom    15 has atomic number  1 and mass   1.00783
 Atom    16 has atomic number  1 and mass   1.00783
 Atom    17 has atomic number  1 and mass   1.00783
 Atom    18 has atomic number  1 and mass   1.00783
 Atom    19 has atomic number  1 and mass   1.00783
 Atom    20 has atomic number  1 and mass   1.00783
 Atom    21 has atomic number  1 and mass   1.00783
 Atom    22 has atomic number 16 and mass  31.97207
 Atom    23 has atomic number  8 and mass  15.99491
 Molecular mass:   212.02959 amu.
 Principal axes and moments of inertia in atomic units:
                           1         2         3
     Eigenvalues --  1482.338054269.817975752.15591
           X            0.86209  -0.50669  -0.00803
           Y            0.50675   0.86204   0.00954
           Z            0.00209  -0.01230   0.99992
 This molecule is an asymmetric top.
 Rotational symmetry number  1.
 Warning -- assumption of classical behavior for rotation
           may cause significant error
 Rotational temperatures (Kelvin)      0.05843     0.02029     0.01506
 Rotational constants (GHZ):           1.21750     0.42267     0.31375
 Zero-point vibrational energy     450141.9 (Joules/Mol)
                                  107.58648 (Kcal/Mol)
 Warning -- explicit consideration of  16 degrees of freedom as
           vibrations may cause significant error
 Vibrational temperatures:     57.01   154.87   197.92   292.30   327.41
          (Kelvin)            333.54   477.35   486.38   597.32   600.31
                              651.27   656.56   697.19   717.67   733.13
                              854.57   920.37   977.41   989.50  1064.09
                             1068.22  1093.42  1124.72  1129.06  1210.54
                             1289.90  1299.63  1358.97  1434.24  1437.67
                             1473.28  1474.66  1519.87  1521.81  1565.84
                             1573.95  1625.69  1637.69  1686.51  1687.24
                             1710.67  1785.88  1834.71  1917.40  1966.13
                             1970.42  2102.64  2109.23  2141.12  2151.14
                             2299.24  2321.25  2359.14  2360.70  2425.25
                             4577.60  4578.88  4593.19  4594.01  4610.60
                             4611.12  4629.61  4630.21
 
 Zero-point correction=                           0.171450 (Hartree/Particle)
 Thermal correction to Energy=                    0.182308
 Thermal correction to Enthalpy=                  0.183252
 Thermal correction to Gibbs Free Energy=         0.134108
 Sum of electronic and zero-point Energies=           -973.580729
 Sum of electronic and thermal Energies=              -973.569871
 Sum of electronic and thermal Enthalpies=            -973.568926
 Sum of electronic and thermal Free Energies=         -973.618071
 
                     E (Thermal)             CV                S
                      KCal/Mol        Cal/Mol-Kelvin    Cal/Mol-Kelvin
 Total                  114.400             44.207            103.432
 Electronic               0.000              0.000              0.000
 Translational            0.889              2.981             41.958
 Rotational               0.889              2.981             31.965
 Vibrational            112.623             38.245             29.509
 Vibration     1          0.594              1.981              5.278
 Vibration     2          0.606              1.943              3.311
 Vibration     3          0.614              1.916              2.838
 Vibration     4          0.639              1.835              2.104
 Vibration     5          0.651              1.799              1.898
 Vibration     6          0.653              1.792              1.865
 Vibration     7          0.714              1.612              1.251
 Vibration     8          0.718              1.599              1.221
 Vibration     9          0.779              1.437              0.909
 Vibration    10          0.780              1.433              0.901
 Vibration    11          0.811              1.355              0.788
 Vibration    12          0.815              1.347              0.777
 Vibration    13          0.841              1.284              0.698
 Vibration    14          0.854              1.253              0.661
 Vibration    15          0.865              1.229              0.635
 Vibration    16          0.952              1.045              0.460
                       Q            Log10(Q)             Ln(Q)
 Total Bot       0.206316D-61        -61.685467       -142.036037
 Total V=0       0.149961D+18         17.175978         39.549150
 Vib (Bot)       0.787127D-76        -76.103955       -175.235832
 Vib (Bot)    1  0.522201D+01          0.717837          1.652882
 Vib (Bot)    2  0.190365D+01          0.279587          0.643773
 Vib (Bot)    3  0.147913D+01          0.170008          0.391457
 Vib (Bot)    4  0.980286D+00         -0.008647         -0.019911
 Vib (Bot)    5  0.866446D+00         -0.062259         -0.143356
 Vib (Bot)    6  0.848927D+00         -0.071130         -0.163782
 Vib (Bot)    7  0.562553D+00         -0.249836         -0.575270
 Vib (Bot)    8  0.549959D+00         -0.259669         -0.597911
 Vib (Bot)    9  0.424503D+00         -0.372120         -0.856837
 Vib (Bot)   10  0.421721D+00         -0.374975         -0.863411
 Vib (Bot)   11  0.378027D+00         -0.422477         -0.972789
 Vib (Bot)   12  0.373857D+00         -0.427295         -0.983882
 Vib (Bot)   13  0.343789D+00         -0.463707         -1.067726
 Vib (Bot)   14  0.329840D+00         -0.481697         -1.109148
 Vib (Bot)   15  0.319799D+00         -0.495123         -1.140064
 Vib (Bot)   16  0.252960D+00         -0.596949         -1.374525
 Vib (V=0)       0.572124D+03          2.757490          6.349355
 Vib (V=0)    1  0.574589D+01          0.759357          1.748485
 Vib (V=0)    2  0.246822D+01          0.392383          0.903496
 Vib (V=0)    3  0.206136D+01          0.314153          0.723365
 Vib (V=0)    4  0.160044D+01          0.204239          0.470277
 Vib (V=0)    5  0.150036D+01          0.176197          0.405708
 Vib (V=0)    6  0.148523D+01          0.171794          0.395569
 Vib (V=0)    7  0.125264D+01          0.097826          0.225253
 Vib (V=0)    8  0.124327D+01          0.094567          0.217748
 Vib (V=0)    9  0.115590D+01          0.062920          0.144878
 Vib (V=0)   10  0.115410D+01          0.062244          0.143322
 Vib (V=0)   11  0.112682D+01          0.051855          0.119400
 Vib (V=0)   12  0.112431D+01          0.050888          0.117174
 Vib (V=0)   13  0.110679D+01          0.044064          0.101462
 Vib (V=0)   14  0.109899D+01          0.040995          0.094396
 Vib (V=0)   15  0.109352D+01          0.038828          0.089406
 Vib (V=0)   16  0.106035D+01          0.025448          0.058596
 Electronic      0.100000D+01          0.000000          0.000000
 Translational   0.121352D+09          8.084049         18.614210
 Rotational      0.215993D+07          6.334439         14.585585
 -------------------------------------------------------------------
 Center     Atomic                   Forces (Hartrees/Bohr)
 Number     Number              X              Y              Z
 -------------------------------------------------------------------
      1        6           0.000067677    0.000055533    0.000000853
      2        6          -0.000321060   -0.000094032   -0.000005301
      3        6          -0.000136239    0.000196606    0.000003789
      4        6           0.000076872   -0.000232911    0.000009640
      5        6          -0.000304295   -0.000342821    0.000003060
      6        6           0.000062578    0.000060049   -0.000002291
      7        6          -0.000364521    0.000623212   -0.000047662
      8        6           0.000168073   -0.000188044    0.000010334
      9        6          -0.000107697    0.000215620    0.000003985
     10        6           0.000239729    0.000227269   -0.000001275
     11        1          -0.000145753    0.000077376    0.000000655
     12        6          -0.000076281   -0.000039324    0.000000517
     13        6          -0.000086379   -0.000018554   -0.000000895
     14        6           0.000449698    0.000100725    0.000002646
     15        1           0.000060946    0.000147344   -0.000001130
     16        1           0.000001381    0.000165913    0.000000294
     17        1           0.000178208   -0.000120090    0.000001507
     18        1           0.000152119   -0.000040631    0.000000285
     19        1          -0.000157612    0.000015925   -0.000000038
     20        1          -0.000036107   -0.000157339    0.000000112
     21        1           0.000018825   -0.000212621    0.000002035
     22       16           0.000055901   -0.000094154   -0.000002696
     23        8           0.000203937   -0.000345053    0.000021577
 -------------------------------------------------------------------
 Cartesian Forces:  Max     0.000623212 RMS     0.000164087
 FormGI is forming the generalized inverse of G from B-inverse, IUseBI=4.
 Leave Link  716 at Tue Aug 18 13:30:28 2026, MaxMem=  2684354560 cpu:               0.0 elap:               0.1
 (Enter /mnt/data/applications/G16/g16/l103.exe)

 GradGradGradGradGradGradGradGradGradGradGradGradGradGradGradGradGradGrad
 Berny optimization.
 Red2BG is reusing G-inverse.
 Internal  Forces:  Max     0.000401055 RMS     0.000100969
 Search for a local minimum.
 Step number   1 out of a maximum of    2
 All quantities printed in internal units (Hartrees-Bohrs-Radians)
 Second derivative matrix not updated -- analytic derivatives used.
 ITU=  0
     Eigenvalues ---    0.00332   0.00918   0.01039   0.01756   0.01767
     Eigenvalues ---    0.01791   0.01797   0.02147   0.02189   0.02258
     Eigenvalues ---    0.02286   0.02494   0.02529   0.02532   0.02622
     Eigenvalues ---    0.02760   0.02768   0.02878   0.02903   0.04640
     Eigenvalues ---    0.10590   0.10610   0.11189   0.11231   0.12070
     Eigenvalues ---    0.12080   0.12246   0.12255   0.15979   0.17586
     Eigenvalues ---    0.17621   0.18470   0.19034   0.19067   0.19277
     Eigenvalues ---    0.20363   0.21903   0.21905   0.24159   0.24619
     Eigenvalues ---    0.27681   0.29093   0.32437   0.34918   0.35774
     Eigenvalues ---    0.35814   0.36003   0.36029   0.36186   0.36196
     Eigenvalues ---    0.36686   0.36805   0.39968   0.40799   0.41847
     Eigenvalues ---    0.43724   0.44718   0.45818   0.47707   0.47769
     Eigenvalues ---    0.51165   0.51286   0.75950
 Angle between quadratic step and forces=  32.84 degrees.
 Linear search not attempted -- first point.
 Iteration  1 RMS(Cart)=  0.00048014 RMS(Int)=  0.00000015
 Iteration  2 RMS(Cart)=  0.00000023 RMS(Int)=  0.00000002
 ITry= 1 IFail=0 DXMaxC= 1.96D-03 DCOld= 1.00D+10 DXMaxT= 3.00D-01 DXLimC= 3.00D+00 Rises=F
 Variable       Old X    -DE/DX   Delta X   Delta X   Delta X     New X
                                 (Linear)    (Quad)   (Total)
    R1        2.62484  -0.00025   0.00000  -0.00064  -0.00064   2.62420
    R2        2.65623  -0.00027   0.00000  -0.00037  -0.00037   2.65587
    R3        2.06318  -0.00016   0.00000  -0.00043  -0.00043   2.06276
    R4        2.66151   0.00001   0.00000   0.00022   0.00022   2.66173
    R5        2.06321  -0.00015   0.00000  -0.00039  -0.00039   2.06282
    R6        2.66466  -0.00024   0.00000  -0.00067  -0.00067   2.66399
    R7        3.33110   0.00007   0.00000   0.00035   0.00035   3.33145
    R8        2.66719   0.00002   0.00000   0.00020   0.00020   2.66739
    R9        2.80337   0.00025   0.00000   0.00086   0.00086   2.80423
   R10        2.62011  -0.00027   0.00000  -0.00071  -0.00071   2.61940
   R11        2.05983  -0.00019   0.00000  -0.00043  -0.00043   2.05940
   R12        2.06215  -0.00015   0.00000  -0.00043  -0.00043   2.06172
   R13        2.80329   0.00025   0.00000   0.00086   0.00086   2.80415
   R14        2.33331  -0.00040   0.00000  -0.00076  -0.00076   2.33254
   R15        2.66470  -0.00024   0.00000  -0.00068  -0.00068   2.66402
   R16        2.66721   0.00002   0.00000   0.00021   0.00021   2.66742
   R17        2.66143   0.00001   0.00000   0.00022   0.00022   2.66166
   R18        3.33111   0.00007   0.00000   0.00034   0.00034   3.33145
   R19        2.06327  -0.00015   0.00000  -0.00039  -0.00039   2.06289
   R20        2.62486  -0.00025   0.00000  -0.00064  -0.00064   2.62422
   R21        2.65625  -0.00026   0.00000  -0.00034  -0.00034   2.65590
   R22        2.06319  -0.00016   0.00000  -0.00043  -0.00043   2.06277
   R23        2.62012  -0.00027   0.00000  -0.00072  -0.00072   2.61941
   R24        2.06216  -0.00016   0.00000  -0.00044  -0.00044   2.06172
   R25        2.05980  -0.00018   0.00000  -0.00042  -0.00042   2.05938
    A1        2.09957  -0.00001   0.00000  -0.00009  -0.00009   2.09947
    A2        2.08480   0.00003   0.00000   0.00028   0.00028   2.08509
    A3        2.09881  -0.00002   0.00000  -0.00019  -0.00019   2.09863
    A4        2.09722   0.00007   0.00000   0.00028   0.00028   2.09750
    A5        2.09843   0.00005   0.00000   0.00062   0.00062   2.09905
    A6        2.08753  -0.00011   0.00000  -0.00089  -0.00089   2.08664
    A7        2.09787  -0.00003   0.00000  -0.00008  -0.00008   2.09779
    A8        2.01884  -0.00001   0.00000  -0.00014  -0.00014   2.01870
    A9        2.16648   0.00004   0.00000   0.00021   0.00021   2.16670
   A10        2.06593  -0.00014   0.00000  -0.00046  -0.00046   2.06547
   A11        2.16812   0.00003   0.00000   0.00031   0.00031   2.16843
   A12        2.04913   0.00011   0.00000   0.00015   0.00015   2.04929
   A13        2.11998   0.00013   0.00000   0.00056   0.00056   2.12054
   A14        2.04546  -0.00018   0.00000  -0.00130  -0.00130   2.04416
   A15        2.11775   0.00005   0.00000   0.00074   0.00074   2.11849
   A16        2.08581  -0.00002   0.00000  -0.00020  -0.00020   2.08560
   A17        2.09815  -0.00002   0.00000  -0.00018  -0.00018   2.09798
   A18        2.09923   0.00005   0.00000   0.00038   0.00038   2.09961
   A19        2.09058  -0.00012   0.00000  -0.00076  -0.00076   2.08982
   A20        2.09624   0.00006   0.00000   0.00038   0.00038   2.09662
   A21        2.09637   0.00006   0.00000   0.00038   0.00038   2.09675
   A22        2.16802   0.00003   0.00000   0.00032   0.00032   2.16834
   A23        2.04933   0.00010   0.00000   0.00014   0.00014   2.04946
   A24        2.06584  -0.00013   0.00000  -0.00045  -0.00045   2.06539
   A25        2.09793  -0.00003   0.00000  -0.00007  -0.00007   2.09786
   A26        2.16657   0.00004   0.00000   0.00021   0.00021   2.16678
   A27        2.01868  -0.00001   0.00000  -0.00014  -0.00014   2.01854
   A28        2.08743  -0.00011   0.00000  -0.00089  -0.00089   2.08655
   A29        2.09726   0.00007   0.00000   0.00026   0.00026   2.09753
   A30        2.09849   0.00005   0.00000   0.00062   0.00062   2.09911
   A31        2.09950  -0.00001   0.00000  -0.00009  -0.00009   2.09941
   A32        2.08476   0.00003   0.00000   0.00029   0.00029   2.08504
   A33        2.09893  -0.00002   0.00000  -0.00020  -0.00020   2.09873
   A34        2.08583  -0.00002   0.00000  -0.00020  -0.00020   2.08563
   A35        2.09825  -0.00002   0.00000  -0.00019  -0.00019   2.09805
   A36        2.09911   0.00005   0.00000   0.00040   0.00040   2.09950
   A37        2.12001   0.00013   0.00000   0.00055   0.00055   2.12056
   A38        2.04562  -0.00018   0.00000  -0.00130  -0.00130   2.04432
   A39        2.11755   0.00005   0.00000   0.00075   0.00075   2.11830
   A40        1.80659  -0.00001   0.00000  -0.00028  -0.00028   1.80630
    D1        0.00002   0.00000   0.00000   0.00000   0.00000   0.00002
    D2       -3.14155  -0.00000   0.00000  -0.00004  -0.00004   3.14159
    D3       -3.14156   0.00000   0.00000  -0.00000  -0.00000  -3.14156
    D4        0.00005  -0.00000   0.00000  -0.00004  -0.00004   0.00002
    D5        0.00005  -0.00000   0.00000  -0.00002  -0.00002   0.00004
    D6       -3.14155  -0.00000   0.00000  -0.00001  -0.00001  -3.14155
    D7       -3.14156  -0.00000   0.00000  -0.00002  -0.00002  -3.14157
    D8        0.00003  -0.00000   0.00000  -0.00001  -0.00001   0.00002
    D9       -0.00005  -0.00000   0.00000  -0.00001  -0.00001  -0.00006
   D10        3.14144  -0.00000   0.00000   0.00004   0.00004   3.14148
   D11        3.14152   0.00000   0.00000   0.00003   0.00003   3.14155
   D12       -0.00017   0.00000   0.00000   0.00008   0.00008  -0.00009
   D13        0.00001   0.00000   0.00000   0.00003   0.00003   0.00005
   D14        3.14156   0.00000   0.00000   0.00001   0.00001   3.14157
   D15       -3.14147   0.00000   0.00000  -0.00002  -0.00002  -3.14149
   D16        0.00008   0.00000   0.00000  -0.00005  -0.00005   0.00004
   D17       -3.14145   0.00000   0.00000   0.00009   0.00009  -3.14136
   D18        0.00004   0.00000   0.00000   0.00014   0.00014   0.00018
   D19        0.00006  -0.00000   0.00000  -0.00005  -0.00005   0.00001
   D20       -3.14158  -0.00000   0.00000  -0.00002  -0.00002   3.14158
   D21       -3.14149  -0.00000   0.00000  -0.00003  -0.00003  -3.14152
   D22        0.00005  -0.00000   0.00000   0.00000   0.00000   0.00005
   D23       -0.00030  -0.00000   0.00000  -0.00001  -0.00001  -0.00031
   D24        3.14106   0.00001   0.00000   0.00027   0.00027   3.14133
   D25        3.14125  -0.00000   0.00000  -0.00004  -0.00004   3.14122
   D26       -0.00057   0.00001   0.00000   0.00025   0.00025  -0.00033
   D27       -0.00010   0.00000   0.00000   0.00004   0.00004  -0.00005
   D28        3.14150   0.00000   0.00000   0.00003   0.00003   3.14154
   D29        3.14155  -0.00000   0.00000   0.00001   0.00001   3.14156
   D30       -0.00004  -0.00000   0.00000   0.00000   0.00000  -0.00003
   D31        0.00040   0.00000   0.00000  -0.00006  -0.00006   0.00034
   D32       -3.14133   0.00000   0.00000   0.00000   0.00000  -3.14133
   D33       -3.14096  -0.00001   0.00000  -0.00035  -0.00035  -3.14131
   D34        0.00050  -0.00001   0.00000  -0.00028  -0.00028   0.00022
   D35        3.14135  -0.00000   0.00000   0.00011   0.00011   3.14146
   D36       -0.00027   0.00000   0.00000   0.00019   0.00019  -0.00008
   D37       -0.00011  -0.00000   0.00000   0.00004   0.00004  -0.00007
   D38        3.14146   0.00000   0.00000   0.00013   0.00013   3.14158
   D39       -3.14141   0.00000   0.00000  -0.00005  -0.00005  -3.14146
   D40        0.00016   0.00000   0.00000  -0.00005  -0.00005   0.00010
   D41        0.00006   0.00000   0.00000   0.00001   0.00001   0.00006
   D42       -3.14156   0.00000   0.00000   0.00001   0.00001  -3.14155
   D43       -3.14148  -0.00000   0.00000  -0.00007  -0.00007  -3.14154
   D44        0.00008   0.00000   0.00000  -0.00005  -0.00005   0.00003
   D45        0.00014  -0.00000   0.00000  -0.00014  -0.00014  -0.00000
   D46       -3.14149  -0.00000   0.00000  -0.00013  -0.00013   3.14157
   D47        0.00005  -0.00000   0.00000  -0.00021  -0.00021  -0.00016
   D48       -3.14157  -0.00000   0.00000  -0.00013  -0.00013   3.14149
   D49        0.00000  -0.00000   0.00000   0.00000   0.00000   0.00000
   D50       -3.14157  -0.00000   0.00000  -0.00000  -0.00000  -3.14157
   D51        3.14156   0.00000   0.00000   0.00002   0.00002   3.14158
   D52       -0.00001   0.00000   0.00000   0.00002   0.00002   0.00000
   D53       -0.00006   0.00000   0.00000   0.00005   0.00005  -0.00001
   D54        3.14154   0.00000   0.00000   0.00004   0.00004   3.14158
   D55        3.14152   0.00000   0.00000   0.00005   0.00005   3.14157
   D56       -0.00007   0.00000   0.00000   0.00004   0.00004  -0.00003
   D57        0.00003  -0.00000   0.00000  -0.00006  -0.00006  -0.00003
   D58       -3.14154  -0.00000   0.00000  -0.00006  -0.00006   3.14159
   D59       -3.14157  -0.00000   0.00000  -0.00005  -0.00005   3.14157
   D60        0.00005  -0.00000   0.00000  -0.00005  -0.00005   0.00001
         Item               Value     Threshold  Converged?
 Maximum Force            0.000401     0.000450     YES
 RMS     Force            0.000101     0.000300     YES
 Maximum Displacement     0.001965     0.001800     NO 
 RMS     Displacement     0.000480     0.001200     YES
 Predicted change in Energy=-1.982921D-06
                           ----------------------------
                           ! Non-Optimized Parameters !
                           ! (Angstroms and Degrees)  !
 --------------------------                            --------------------------
 ! Name  Definition              Value          Derivative Info.                !
 --------------------------------------------------------------------------------
 ! R1    R(1,2)                  1.3887         -DE/DX =   -0.0002              !
 ! R2    R(1,6)                  1.4054         -DE/DX =   -0.0003              !
 ! R3    R(1,15)                 1.0916         -DE/DX =   -0.0002              !
 ! R4    R(2,3)                  1.4085         -DE/DX =    0.0                 !
 ! R5    R(2,16)                 1.0916         -DE/DX =   -0.0001              !
 ! R6    R(3,4)                  1.4097         -DE/DX =   -0.0002              !
 ! R7    R(3,22)                 1.7629         -DE/DX =    0.0001              !
 ! R8    R(4,5)                  1.4115         -DE/DX =    0.0                 !
 ! R9    R(4,7)                  1.4839         -DE/DX =    0.0003              !
 ! R10   R(5,6)                  1.3861         -DE/DX =   -0.0003              !
 ! R11   R(5,17)                 1.0898         -DE/DX =   -0.0002              !
 ! R12   R(6,18)                 1.091          -DE/DX =   -0.0002              !
 ! R13   R(7,8)                  1.4839         -DE/DX =    0.0003              !
 ! R14   R(7,23)                 1.2343         -DE/DX =   -0.0004              !
 ! R15   R(8,9)                  1.4097         -DE/DX =   -0.0002              !
 ! R16   R(8,14)                 1.4115         -DE/DX =    0.0                 !
 ! R17   R(9,10)                 1.4085         -DE/DX =    0.0                 !
 ! R18   R(9,22)                 1.7629         -DE/DX =    0.0001              !
 ! R19   R(10,11)                1.0916         -DE/DX =   -0.0001              !
 ! R20   R(10,12)                1.3887         -DE/DX =   -0.0002              !
 ! R21   R(12,13)                1.4054         -DE/DX =   -0.0003              !
 ! R22   R(12,19)                1.0916         -DE/DX =   -0.0002              !
 ! R23   R(13,14)                1.3861         -DE/DX =   -0.0003              !
 ! R24   R(13,20)                1.091          -DE/DX =   -0.0002              !
 ! R25   R(14,21)                1.0898         -DE/DX =   -0.0002              !
 ! A1    A(2,1,6)              120.291          -DE/DX =    0.0                 !
 ! A2    A(2,1,15)             119.4666         -DE/DX =    0.0                 !
 ! A3    A(6,1,15)             120.2424         -DE/DX =    0.0                 !
 ! A4    A(1,2,3)              120.1779         -DE/DX =    0.0001              !
 ! A5    A(1,2,16)             120.2667         -DE/DX =    0.0                 !
 ! A6    A(3,2,16)             119.5554         -DE/DX =   -0.0001              !
 ! A7    A(2,3,4)              120.1945         -DE/DX =    0.0                 !
 ! A8    A(2,3,22)             115.663          -DE/DX =    0.0                 !
 ! A9    A(4,3,22)             124.1426         -DE/DX =    0.0                 !
 ! A10   A(3,4,5)              118.3427         -DE/DX =   -0.0001              !
 ! A11   A(3,4,7)              124.2418         -DE/DX =    0.0                 !
 ! A12   A(5,4,7)              117.4155         -DE/DX =    0.0001              !
 ! A13   A(4,5,6)              121.4979         -DE/DX =    0.0001              !
 ! A14   A(4,5,17)             117.1218         -DE/DX =   -0.0002              !
 ! A15   A(6,5,17)             121.3804         -DE/DX =    0.0                 !
 ! A16   A(1,6,5)              119.4961         -DE/DX =    0.0                 !
 ! A17   A(1,6,18)             120.2052         -DE/DX =    0.0                 !
 ! A18   A(5,6,18)             120.2987         -DE/DX =    0.0                 !
 ! A19   A(4,7,8)              119.7379         -DE/DX =   -0.0001              !
 ! A20   A(4,7,23)             120.1274         -DE/DX =    0.0001              !
 ! A21   A(8,7,23)             120.1348         -DE/DX =    0.0001              !
 ! A22   A(7,8,9)              124.2366         -DE/DX =    0.0                 !
 ! A23   A(7,8,14)             117.4255         -DE/DX =    0.0001              !
 ! A24   A(9,8,14)             118.3378         -DE/DX =   -0.0001              !
 ! A25   A(8,9,10)             120.1984         -DE/DX =    0.0                 !
 ! A26   A(8,9,22)             124.1476         -DE/DX =    0.0                 !
 ! A27   A(10,9,22)            115.654          -DE/DX =    0.0                 !
 ! A28   A(9,10,11)            119.5503         -DE/DX =   -0.0001              !
 ! A29   A(9,10,12)            120.1793         -DE/DX =    0.0001              !
 ! A30   A(11,10,12)           120.2704         -DE/DX =    0.0                 !
 ! A31   A(10,12,13)           120.2873         -DE/DX =    0.0                 !
 ! A32   A(10,12,19)           119.4641         -DE/DX =    0.0                 !
 ! A33   A(13,12,19)           120.2486         -DE/DX =    0.0                 !
 ! A34   A(12,13,14)           119.4978         -DE/DX =    0.0                 !
 ! A35   A(12,13,20)           120.2096         -DE/DX =    0.0                 !
 ! A36   A(14,13,20)           120.2926         -DE/DX =    0.0                 !
 ! A37   A(8,14,13)            121.4993         -DE/DX =    0.0001              !
 ! A38   A(8,14,21)            117.131          -DE/DX =   -0.0002              !
 ! A39   A(13,14,21)           121.3697         -DE/DX =    0.0                 !
 ! A40   A(3,22,9)             103.4936         -DE/DX =    0.0                 !
 ! D1    D(6,1,2,3)              0.0012         -DE/DX =    0.0                 !
 ! D2    D(6,1,2,16)           180.0            -DE/DX =    0.0                 !
 ! D3    D(15,1,2,3)          -179.9979         -DE/DX =    0.0                 !
 ! D4    D(15,1,2,16)            0.0009         -DE/DX =    0.0                 !
 ! D5    D(2,1,6,5)              0.0021         -DE/DX =    0.0                 !
 ! D6    D(2,1,6,18)          -179.9978         -DE/DX =    0.0                 !
 ! D7    D(15,1,6,5)          -179.9988         -DE/DX =    0.0                 !
 ! D8    D(15,1,6,18)            0.0013         -DE/DX =    0.0                 !
 ! D9    D(1,2,3,4)             -0.0036         -DE/DX =    0.0                 !
 ! D10   D(1,2,3,22)           179.9935         -DE/DX =    0.0                 !
 ! D11   D(16,2,3,4)           179.9976         -DE/DX =    0.0                 !
 ! D12   D(16,2,3,22)           -0.0053         -DE/DX =    0.0                 !
 ! D13   D(2,3,4,5)              0.0026         -DE/DX =    0.0                 !
 ! D14   D(2,3,4,7)            179.9989         -DE/DX =    0.0                 !
 ! D15   D(22,3,4,5)          -179.9942         -DE/DX =    0.0                 !
 ! D16   D(22,3,4,7)             0.002          -DE/DX =    0.0                 !
 ! D17   D(2,3,22,9)          -179.9866         -DE/DX =    0.0                 !
 ! D18   D(4,3,22,9)             0.0104         -DE/DX =    0.0                 !
 ! D19   D(3,4,5,6)              0.0007         -DE/DX =    0.0                 !
 ! D20   D(3,4,5,17)           179.9994         -DE/DX =    0.0                 !
 ! D21   D(7,4,5,6)           -179.9958         -DE/DX =    0.0                 !
 ! D22   D(7,4,5,17)             0.0029         -DE/DX =    0.0                 !
 ! D23   D(3,4,7,8)             -0.0179         -DE/DX =    0.0                 !
 ! D24   D(3,4,7,23)           179.9851         -DE/DX =    0.0                 !
 ! D25   D(5,4,7,8)            179.9784         -DE/DX =    0.0                 !
 ! D26   D(5,4,7,23)            -0.0186         -DE/DX =    0.0                 !
 ! D27   D(4,5,6,1)             -0.0031         -DE/DX =    0.0                 !
 ! D28   D(4,5,6,18)           179.9968         -DE/DX =    0.0                 !
 ! D29   D(17,5,6,1)           179.9983         -DE/DX =    0.0                 !
 ! D30   D(17,5,6,18)           -0.0018         -DE/DX =    0.0                 !
 ! D31   D(4,7,8,9)              0.0192         -DE/DX =    0.0                 !
 ! D32   D(4,7,8,14)          -179.9847         -DE/DX =    0.0                 !
 ! D33   D(23,7,8,9)          -179.9838         -DE/DX =    0.0                 !
 ! D34   D(23,7,8,14)            0.0123         -DE/DX =    0.0                 !
 ! D35   D(7,8,9,10)           179.9922         -DE/DX =    0.0                 !
 ! D36   D(7,8,9,22)            -0.0045         -DE/DX =    0.0                 !
 ! D37   D(14,8,9,10)           -0.0038         -DE/DX =    0.0                 !
 ! D38   D(14,8,9,22)          179.9994         -DE/DX =    0.0                 !
 ! D39   D(7,8,14,13)         -179.9926         -DE/DX =    0.0                 !
 ! D40   D(7,8,14,21)            0.006          -DE/DX =    0.0                 !
 ! D41   D(9,8,14,13)            0.0037         -DE/DX =    0.0                 !
 ! D42   D(9,8,14,21)         -179.9977         -DE/DX =    0.0                 !
 ! D43   D(8,9,10,11)         -179.9972         -DE/DX =    0.0                 !
 ! D44   D(8,9,10,12)            0.0019         -DE/DX =    0.0                 !
 ! D45   D(22,9,10,11)          -0.0001         -DE/DX =    0.0                 !
 ! D46   D(22,9,10,12)         179.9989         -DE/DX =    0.0                 !
 ! D47   D(8,9,22,3)            -0.0092         -DE/DX =    0.0                 !
 ! D48   D(10,9,22,3)          179.9939         -DE/DX =    0.0                 !
 ! D49   D(9,10,12,13)           0.0003         -DE/DX =    0.0                 !
 ! D50   D(9,10,12,19)        -179.9988         -DE/DX =    0.0                 !
 ! D51   D(11,10,12,13)        179.9993         -DE/DX =    0.0                 !
 ! D52   D(11,10,12,19)          0.0003         -DE/DX =    0.0                 !
 ! D53   D(10,12,13,14)         -0.0004         -DE/DX =    0.0                 !
 ! D54   D(10,12,13,20)        179.9991         -DE/DX =    0.0                 !
 ! D55   D(19,12,13,14)        179.9986         -DE/DX =    0.0                 !
 ! D56   D(19,12,13,20)         -0.0018         -DE/DX =    0.0                 !
 ! D57   D(12,13,14,8)          -0.0016         -DE/DX =    0.0                 !
 ! D58   D(12,13,14,21)        179.9998         -DE/DX =    0.0                 !
 ! D59   D(20,13,14,8)         179.9989         -DE/DX =    0.0                 !
 ! D60   D(20,13,14,21)          0.0003         -DE/DX =    0.0                 !
 --------------------------------------------------------------------------------
 GradGradGradGradGradGradGradGradGradGradGradGradGradGradGradGradGradGrad

 Leave Link  103 at Tue Aug 18 13:30:28 2026, MaxMem=  2684354560 cpu:               0.0 elap:               0.0
 (Enter /mnt/data/applications/G16/g16/l9999.exe)

 ----------------------------------------------------------------------

 Electric dipole moment (input orientation):
 (Debye = 10**-18 statcoulomb cm , SI units = C m)
                  (au)            (Debye)         (10**-30 SI)
   Tot        0.143284D+01      0.364192D+01      0.121481D+02
   x          0.726181D+00      0.184577D+01      0.615682D+01
   y         -0.123505D+01     -0.313919D+01     -0.104712D+02
   z          0.182161D-01      0.463008D-01      0.154443D+00

 Dipole polarizability, Alpha (input orientation).
 (esu units = cm**3 , SI units = C**2 m**2 J**-1)
 Alpha(0;0):
               (au)            (10**-24 esu)      (10**-40 SI)
   iso        0.222027D+03      0.329010D+02      0.366073D+02
   aniso      0.245721D+03      0.364121D+02      0.405140D+02
   xx         0.322085D+03      0.477281D+02      0.531046D+02
   yx         0.409637D+02      0.607020D+01      0.675400D+01
   yy         0.276565D+03      0.409827D+02      0.455994D+02
   zx         0.164989D+01      0.244489D+00      0.272031D+00
   zy        -0.166513D+01     -0.246746D+00     -0.274542D+00
   zz         0.674319D+02      0.999238D+01      0.111180D+02

 ----------------------------------------------------------------------

 Dipole orientation:
     6        -13.22109856         -7.63591702         -8.13133525
     6        -11.34172029         -6.52681910         -6.67269980
     6         -9.28366039         -5.31063410         -7.84271445
     6         -9.11944091         -5.21221284        -10.50048487
     6        -11.05690003         -6.35573438        -11.93314093
     6        -13.08361293         -7.55319919        -10.78271688
     6         -7.03159721         -3.97823455        -11.90657940
     6         -4.94374737         -2.74491462        -10.50008593
     6         -4.77884310         -2.64911928         -7.84222084
     6         -2.72075959         -1.43390270         -6.67141922
     1         -2.61157130         -1.37089742         -4.61200044
     6         -0.84192364         -0.32275436         -8.12923708
     6         -0.98016444         -0.40257232        -10.78068204
     6         -3.00682704         -1.59938362        -11.93191340
     1        -14.80669527         -8.57284723         -7.20140714
     1        -11.45048921         -6.59231615         -4.61340163
     1        -10.89375491         -6.25829952        -13.98418715
     1        -14.56154194         -8.42529038        -11.92623665
     1          0.74367076          0.61341218         -7.19851153
     1          0.49708021          0.47118559        -11.92383271
     1         -3.17005861         -1.69450666        -13.98303047
    16         -7.03091122         -3.98084407         -5.78042547
     8         -7.03154234         -3.97820769        -14.23988642

 Electric dipole moment (dipole orientation):
 (Debye = 10**-18 statcoulomb cm , SI units = C m)
                  (au)            (Debye)         (10**-30 SI)
   Tot        0.143284D+01      0.364192D+01      0.121481D+02
   x          0.000000D+00      0.000000D+00      0.000000D+00
   y          0.000000D+00      0.000000D+00      0.000000D+00
   z          0.143284D+01      0.364192D+01      0.121481D+02

 Dipole polarizability, Alpha (dipole orientation).
 (esu units = cm**3 , SI units = C**2 m**2 J**-1)
 Alpha(0;0):
               (au)            (10**-24 esu)      (10**-40 SI)
   iso        0.222027D+03      0.329010D+02      0.366073D+02
   aniso      0.245721D+03      0.364121D+02      0.405140D+02
   xx         0.274062D+03      0.406118D+02      0.451867D+02
   yx         0.122088D+03      0.180916D+02      0.201296D+02
   yy         0.139529D+03      0.206761D+02      0.230052D+02
   zx         0.237123D-01      0.351381D-02      0.390964D-02
   zy        -0.803150D-01     -0.119015D-01     -0.132422D-01
   zz         0.252491D+03      0.374153D+02      0.416301D+02

 ----------------------------------------------------------------------
 1\1\GINC-KIMIK2197\Freq\RB3LYP\Gen\C13H8O1S1\ASOLE\18-Aug-2026\0\\#P G
 eom=AllCheck Guess=TCheck SCRF=Check GenChk RB3LYP/ChkBas Freq\\Title 
 Card Required\\0,1\C,-9.14563,-0.38528,0.00813\C,-7.75898,-0.46528,0.0
 198\C,-6.9823,0.70961,0.01471\C,-7.60777,1.97326,-0.00232\C,-9.01825,2
 .0233,-0.01394\C,-9.78353,0.86714,-0.00885\C,-6.87858,3.26514,-0.00887
 \C,-5.39522,3.27402,0.0032\C,-4.5954,2.11283,0.02055\C,-3.19114,2.2198
 7,0.03076\H,-2.58131,1.31431,0.04407\C,-2.58641,3.47032,0.02389\C,-3.3
 7033,4.63692,0.00672\C,-4.75273,4.53072,-0.00339\H,-9.73635,-1.30345,0
 .01227\H,-7.2646,-1.43865,0.03295\H,-9.48165,3.00982,-0.02705\H,-10.87
 301,0.92845,-0.01796\H,-1.49685,3.53968,0.03192\H,-2.89401,5.61871,0.0
 0139\H,-5.38901,5.41563,-0.0168\S,-5.23591,0.4706,0.03097\O,-7.50433,4
 .32945,-0.02457\\Version=AM64L-G16RevA.03\HF=-973.7521788\RMSD=3.438e-
 09\RMSF=1.641e-04\ZeroPoint=0.17145\Thermal=0.1823081\Dipole=0.7261808
 ,-1.2350543,0.0182161\DipoleDeriv=0.3061174,-0.0589181,0.0036697,-0.13
 47408,0.2246522,-0.0040069,0.004325,-0.0034055,-0.0815307,-0.6821639,-
 0.1969686,-0.0025544,-0.292578,0.1231863,-0.0046419,-0.0015379,-0.0039
 797,-0.1184145,1.24409,-0.0958391,0.0111122,0.2460783,0.0396576,0.0011
 078,0.0078039,-0.0017316,-0.0242015,-0.4922424,-0.5247951,0.0014326,-0
 .1400858,-0.8268713,0.0065325,-0.0022593,0.0031701,-0.046854,0.0260451
 ,0.3070593,-0.0023214,-0.135764,0.146608,-0.0030761,0.001839,0.0004278
 ,-0.0553304,0.0521764,-0.120268,0.0025739,0.1304047,-0.4024103,0.00358
 78,0.0003481,0.0015827,-0.1388709,2.065939,-0.0176094,0.0149646,-0.019
 0422,2.0879648,-0.017809,0.0150026,-0.0179109,0.2721916,-1.02958,0.159
 1352,-0.0095319,-0.2250994,-0.2887052,0.0005403,-0.0057996,0.0039852,-
 0.0463083,0.3883332,0.7228739,-0.0037164,0.3806276,0.8953746,-0.005698
 7,-0.0003642,-0.003157,-0.0241277,-0.2793729,-0.5174861,0.003619,-0.42
 23446,-0.2841,-0.0017719,0.0027408,-0.0025988,-0.1195034,0.0651186,0.0
 474364,-0.0009931,0.1038285,-0.03167,0.0023597,-0.0015819,0.001982,0.1
 352494,0.1641975,-0.0540079,0.0024858,0.0218567,0.3699575,-0.0041023,0
 .0014608,-0.0047796,-0.0819793,-0.2914563,0.3210412,-0.0042816,0.07089
 6,-0.0588444,-0.0001699,-0.0016172,0.0019546,-0.1384548,0.1908282,-0.2
 273919,0.0041312,0.2154482,-0.0195212,0.0014451,-0.0000453,-0.0024559,
 -0.0553814,0.0231139,-0.1054105,0.0001717,-0.1085855,-0.0487014,0.0008
 451,0.0002011,0.0008465,0.1292251,0.0553338,0.1120951,-0.0017305,0.053
 252,-0.0230211,0.0019481,-0.001161,0.0025904,0.1352603,0.1083593,0.034
 2918,-0.0003656,0.1148974,0.0366604,0.0016443,-0.0011468,0.0010225,0.1
 126241,-0.1345912,-0.0037526,-0.0020789,0.0110977,0.0926109,0.000489,-
 0.0022349,0.0003615,0.1351036,-0.1215373,-0.0275959,-0.0017437,-0.0263
 512,0.0965095,0.0001003,-0.0017021,0.0001122,0.1294189,0.0416501,-0.08
 78355,0.0000628,-0.1018053,-0.0835345,0.0012298,0.0001592,0.0013075,0.
 1351604,0.1178888,0.107728,-0.0009401,0.0290098,0.0286421,0.0010177,-0
 .0000946,0.0014038,0.1130821,-0.6096528,-0.2103435,-0.0031843,-0.20650
 16,-0.3810955,0.0023827,-0.0032401,0.0024885,0.0429389,-1.2085947,0.43
 65613,-0.0107818,0.4355016,-1.6933489,0.0160466,-0.0110955,0.0167833,-
 0.4092976\Polar=322.0850082,40.963714,276.5646814,1.6498937,-1.6651252
 ,67.4319052\Quadrupole=0.9033242,-1.8033843,0.9000601,26.2422273,-0.15
 33369,0.0608202\PG=C01 [X(C13H8O1S1)]\NImag=0\\0.70505410,0.03771133,0
 .71037447,0.00406549,-0.00518116,0.13997380,-0.36240650,-0.01923699,-0
 .00217242,0.70741208,0.04840866,-0.12612262,0.00101161,-0.04711015,0.6
 9951588,-0.00282168,0.00047784,-0.06130878,0.00499825,-0.00580198,0.12
 984022,-0.04351169,-0.02152829,-0.00019346,-0.15565039,-0.10621673,0.0
 0028948,0.51707594,-0.06998605,0.03781628,-0.00084527,-0.05918261,-0.2
 6163379,0.00141898,0.00160387,0.64166751,0.00026645,-0.00046557,0.0071
 6679,-0.00015764,0.00105054,-0.06399234,0.00307719,-0.00492466,0.12627
 270,-0.04451575,0.02974027,-0.00057709,0.05475092,0.01293514,0.0002300
 0,-0.15439459,0.05658211,-0.00126122,0.64955754,0.02144961,-0.01445355
 ,0.00023658,-0.02094792,-0.04813497,0.00038926,0.08147982,-0.26740356,
 0.00257040,-0.03071332,0.65131379,-0.00050161,0.00030374,-0.00751371,0
 .00055969,0.00065630,0.00980372,-0.00151447,0.00237620,-0.06404637,0.0
 0428930,-0.00508189,0.14670653,0.06365931,-0.02861681,0.00071733,-0.05
 011215,-0.02620996,-0.00010184,-0.01812793,0.07342575,-0.00090986,-0.2
 9753285,-0.00549425,-0.00173015,0.66008446,0.01649676,-0.05984265,0.00
 077681,-0.02565807,-0.01468831,-0.00011457,0.03517415,0.02238958,0.000
 14986,0.04070583,-0.11564095,0.00075424,0.00198320,0.76007646,0.000286
 62,0.00041344,0.00756977,-0.00010730,-0.00012012,-0.00558243,-0.000543
 33,0.00044505,0.00850317,-0.00217230,0.00039489,-0.07090476,0.00402550
 ,-0.00589041,0.14517807,-0.16789422,0.11437261,-0.00189780,-0.02180546
 ,0.03335190,-0.00055365,0.00309376,-0.00542147,0.00012807,-0.03287360,
 -0.02577431,-0.00008233,-0.20159375,-0.14425418,0.00030593,0.75133387,
 0.04819288,-0.28354544,0.00248700,0.07754882,0.02748475,0.00042584,-0.
 01154117,-0.06393482,0.00045421,-0.07014227,0.02417482,-0.00069997,-0.
 07978340,-0.29350222,0.00157781,0.01200433,0.66874707,-0.00126296,0.00
 301062,-0.06447360,-0.00098195,0.00007953,0.00832517,0.00018535,0.0005
 0761,-0.00655445,0.00033801,-0.00034769,0.00903026,-0.00030478,0.00106
 561,-0.06451255,0.00471734,-0.00504794,0.13373324,0.00007412,0.0021424
 2,-0.00001653,-0.00182065,0.00612728,-0.00012791,0.02669941,0.00664605
 ,0.00016103,-0.14886530,-0.05420892,-0.00003122,-0.02443957,-0.0356432
 8,0.00008954,-0.00761582,0.00501307,-0.00015628,0.62068685,0.00628368,
 -0.00395341,0.00008272,0.00073817,-0.00276500,0.00009548,0.00969101,-0
 .03198180,0.00036657,-0.04199951,-0.14967943,0.00033162,-0.03240492,-0
 .00217452,-0.00016963,0.00511413,0.01239174,-0.00002054,-0.13846046,0.
 77476922,-0.00005560,0.00005134,-0.00045803,-0.00007604,0.00013997,0.0
 0681123,0.00013020,0.00033639,-0.00189393,-0.00016033,0.00024225,-0.07
 941689,0.00007153,-0.00019728,0.00651617,-0.00015943,-0.00001987,0.006
 14737,0.00476444,-0.00671922,0.20886012,0.00077011,-0.00129533,0.00001
 499,-0.00091307,-0.00180952,0.00001892,-0.00081923,0.00282129,-0.00002
 464,-0.01371031,-0.00760072,-0.00014519,0.00162892,-0.00064475,-0.0000
 0286,0.00080743,0.00019058,0.00000982,-0.19047239,-0.03122609,-0.00060
 311,0.62491711,0.00111745,-0.00047038,0.00001738,-0.00095882,-0.000980
 17,-0.00000854,0.00286784,0.00329668,-0.00001389,-0.02686980,0.0054596
 2,-0.00013965,-0.00187892,-0.00601492,0.00006838,-0.00139932,0.0017550
 9,-0.00003314,-0.01895930,-0.10820764,0.00010936,-0.01676482,0.6760290
 5,-0.00000625,-0.00000251,0.00042246,0.00001007,-0.00001628,-0.0010760
 2,-0.00002722,-0.00001779,-0.00085682,0.00003209,0.00001858,0.01358219
 ,0.00000675,0.00007853,0.00275396,0.00002552,-0.00001854,-0.00061290,-
 0.00072151,0.00000671,-0.07927640,0.00406310,-0.00512694,0.14664839,-0
 .00056110,-0.00212753,0.00000172,-0.00588803,0.00308900,-0.00008578,-0
 .01267368,-0.03177643,0.00021498,0.00469584,-0.00028810,0.00004163,-0.
 00017559,-0.00071111,0.00000630,0.00099934,-0.00020396,0.00000899,-0.0
 1118758,0.02776796,-0.00033209,-0.18194981,0.07194537,-0.00164650,0.61
 373414,-0.00049646,0.00018910,0.00001081,0.00583158,-0.00184579,0.0000
 7807,-0.00793739,0.00950843,-0.00017140,-0.00016721,-0.00227390,0.0000
 1316,0.00061709,-0.00036359,0.00000827,0.00158687,-0.00107713,0.000023
 98,0.03074307,0.00586225,0.00017497,0.09681341,-0.23979469,0.00242821,
 -0.05219733,0.54521109,-0.00001302,-0.00000198,0.00176113,-0.00011153,
 0.00005360,0.00131898,0.00000005,-0.00038471,-0.00361328,0.00002967,0.
 00000974,-0.00076348,-0.00000761,-0.00000412,-0.00013459,-0.00000779,0
 .00001045,0.00011913,-0.00037538,0.00016605,-0.00186494,-0.00187503,0.
 00224433,-0.06403020,0.00445456,-0.00438866,0.12602018,-0.00046276,0.0
 0061057,-0.00000750,-0.00010879,0.00105578,-0.00002085,0.00102364,-0.0
 0073497,0.00000410,-0.00215424,-0.00112567,0.00000145,0.00070663,0.000
 13277,0.00000636,-0.00083130,-0.00052971,-0.00000178,0.00040131,0.0048
 9231,-0.00009771,-0.02722094,0.05855715,-0.00084380,-0.30695507,-0.022
 07243,-0.00173251,0.66139660,0.00015120,-0.00068464,0.00000559,-0.0036
 4857,0.00134914,-0.00003149,0.00200298,-0.00872694,0.00011070,-0.00027
 610,0.00025097,-0.00001412,-0.00002771,0.00025055,-0.00000561,-0.00060
 658,0.00021607,-0.00000636,-0.00048539,-0.00496480,0.00010549,0.024670
 48,0.03380318,-0.00002766,0.02499723,-0.11043945,0.00063363,-0.0214208
 9,0.74541365,-0.00000322,0.00000894,-0.00024105,0.00002390,0.00000699,
 0.00116452,-0.00002094,0.00008766,0.00130032,-0.00000593,-0.00002157,-
 0.00107763,0.00000815,-0.00000386,-0.00027336,-0.00000133,-0.00000588,
 0.00004312,-0.00004831,0.00014950,0.00681150,-0.00053004,0.00024975,0.
 00979795,-0.00216845,0.00025039,-0.06402945,0.00444906,-0.00591886,0.1
 2979371,-0.00008136,0.00007209,-0.00000210,0.00018060,-0.00001660,0.00
 000087,-0.00030419,-0.00000769,0.00000620,0.00003417,-0.00015689,0.000
 00163,0.00010543,-0.00012175,0.00000149,0.00000171,-0.00010407,0.00000
 110,0.00108671,0.00157930,-0.00000927,-0.00517539,-0.00258661,-0.00006
 647,-0.01295225,0.02581982,-0.00036137,-0.14521327,0.13071438,-0.00209
 418,0.15225315,-0.00000850,0.00001376,0.00000067,0.00005841,0.00002568
 ,0.00000112,-0.00009914,0.00003431,-0.00001071,0.00004428,-0.00004745,
 0.00000086,0.00003322,0.00000991,0.00000083,0.00001385,-0.00001185,0.0
 0000012,-0.00092191,0.00039198,-0.00000707,-0.00056584,0.00085295,0.00
 004546,-0.00454969,0.00525583,-0.00006676,0.13062919,-0.25017471,0.003
 02048,-0.13892148,0.26359129,-0.00000141,0.00000139,0.00009171,0.00000
 036,0.00000058,0.00009298,0.00000567,-0.00000903,-0.00093994,-0.000000
 46,-0.00000076,0.00002176,0.00000016,-0.00000041,0.00005945,-0.0000000
 4,-0.00000092,-0.00000855,0.00001361,0.00001336,0.00046320,-0.00008559
 ,0.00002863,0.00616289,-0.00007878,0.00017756,0.00199049,-0.00209052,0
 .00301964,-0.03634489,0.00231742,-0.00332565,0.02487869,-0.00041479,0.
 00005493,-0.00000160,-0.00030481,0.00052598,-0.00000555,-0.00110749,-0
 .00182545,-0.00000528,-0.00024820,-0.00072341,0.00000201,0.00032926,0.
 00010375,0.00000316,-0.00001867,-0.00043684,0.00000373,0.00056389,0.00
 186070,-0.00000954,0.00021607,0.00484263,0.00001635,-0.02033166,-0.034
 43076,0.00010140,-0.16962586,-0.12658091,0.00031415,0.01097401,0.01790
 499,-0.00011046,0.74101835,0.00040776,-0.00067146,0.00000696,0.0000623
 6,-0.00084497,0.00000690,-0.00019869,0.00073126,0.00000948,0.00169398,
 0.00055623,0.00001291,-0.00037055,-0.00017676,-0.00000298,0.00081920,0
 .00036643,0.00000344,0.00598953,-0.00446313,0.00008804,-0.00343293,-0.
 05914080,0.00045597,-0.08290116,0.01463644,-0.00073424,-0.05892385,-0.
 31882379,0.00194569,-0.01336575,-0.01808685,0.00009792,0.01751389,0.67
 408977,-0.00000478,0.00000388,-0.00027276,-0.00000185,0.00000970,-0.00
 024179,-0.00002023,-0.00000464,0.00176156,-0.00002169,-0.00000696,0.00
 042218,0.00000759,0.00000027,-0.00019674,-0.00000829,-0.00000631,0.000
 04623,-0.00004372,0.00005177,-0.00045905,0.00009108,0.00052158,-0.0075
 0317,0.00056080,-0.00034409,0.00715447,-0.00031896,0.00140724,-0.06130
 200,0.00018229,0.00034663,0.00385249,0.00464707,-0.00486709,0.13995944
 ,0.00043811,-0.00069158,0.00000961,-0.00051693,-0.00070813,0.00000269,
 -0.00000207,0.00034808,-0.00000258,0.00102668,0.00008160,0.00001316,-0
 .00025109,-0.00025248,0.00000190,0.00064129,0.00030795,0.00000205,0.01
 195243,-0.00589345,0.00010584,-0.03007680,-0.07168941,0.00035889,-0.05
 530000,0.02096449,-0.00058843,0.06293887,0.03036245,0.00015062,-0.0005
 4194,-0.00369693,-0.00002867,-0.18704051,0.05890414,-0.00154191,0.6984
 6863,0.00056461,-0.00009050,0.00000578,-0.00077984,-0.00009629,-0.0000
 0509,0.00214245,-0.00008070,0.00001855,-0.00151657,0.00154612,-0.00003
 289,-0.00073859,-0.00073498,-0.00000056,-0.00052051,0.00076010,-0.0000
 1117,-0.00578201,-0.00718456,0.00007873,-0.02730842,0.02139764,-0.0003
 3664,0.02708287,-0.00554894,0.00020643,-0.01383624,-0.05728477,0.00050
 504,-0.00275072,-0.00304659,0.00007558,0.12510231,-0.26426974,0.002872
 36,0.04133509,0.72156796,-0.00000235,-0.00000404,0.00004620,0.00000344
 ,-0.00000431,0.00004342,-0.00002196,0.00000506,0.00011864,0.00002759,-
 0.00001980,-0.00061270,0.00000627,0.00000361,-0.00016589,0.00001000,-0
 .00000467,0.00002069,0.00009546,0.00007767,0.00615308,-0.00005828,-0.0
 0069081,0.00901770,-0.00064698,0.00015813,-0.00656305,0.00056702,0.000
 85542,0.00834170,-0.00003737,0.00006795,0.00735653,-0.00215204,0.00233
 957,-0.06443264,0.00415251,-0.00514438,0.13378779,-0.00017043,0.000381
 39,-0.00000330,0.00040314,0.00030305,0.00000249,-0.00035412,-0.0006084
 7,0.00000254,-0.00528715,0.00319711,-0.00009695,-0.00060155,-0.0020613
 3,0.00002166,-0.00104203,0.00018885,-0.00000862,-0.03631094,-0.0290066
 6,-0.00007767,-0.14376912,-0.04494419,-0.00016964,0.05896470,-0.007740
 54,0.00047420,-0.04511513,-0.02844175,-0.00004931,-0.00048337,-0.00091
 304,0.00001138,-0.03577137,0.07186017,-0.00101840,-0.36702060,-0.05216
 096,-0.00193931,0.73812071,-0.00009225,0.00032291,-0.00000566,0.000140
 87,0.00055534,-0.00000720,0.00072616,-0.00017545,0.00000444,0.00195151
 ,0.00087897,0.00003165,-0.00018263,0.00064744,-0.00001546,-0.00029843,
 0.00005478,-0.00000454,-0.02573118,0.00977551,-0.00024643,-0.09117265,
 -0.26942718,0.00113604,0.03052138,-0.05469846,0.00083220,-0.02897587,-
 0.01969567,-0.00009981,-0.00086571,-0.00003204,-0.00001317,0.02673593,
 0.03958252,-0.00008780,0.01230875,-0.12817125,0.00068454,-0.04145939,0
 .68225992,0.00000072,-0.00000177,-0.00019655,0.00000414,-0.00000539,-0
 .00027499,-0.00000983,-0.00000461,-0.00013574,-0.00008499,0.00004257,0
 .00275227,0.00000377,-0.00003120,-0.00081037,-0.00000444,-0.00000117,-
 0.00016577,-0.00010486,-0.00025483,0.00651126,0.00026173,0.00149562,-0
 .07087777,0.00011736,0.00053469,0.00851859,-0.00004505,-0.00009631,-0.
 00558696,0.00001060,-0.00001439,-0.00078831,-0.00059936,0.00027704,0.0
 0756650,-0.00254197,0.00016281,-0.06466929,0.00515438,-0.00534901,0.14
 532326,-0.14064054,-0.12824050,0.00043403,-0.01223990,-0.02701142,0.00
 012652,-0.00476100,0.00122805,-0.00011000,-0.00080594,0.00054609,-0.00
 000680,-0.00045380,0.00312734,-0.00008504,0.01101252,0.01320719,-0.000
 07532,-0.00001033,0.00034072,0.00000538,0.00008991,0.00003521,-0.00000
 034,-0.00043388,0.00053817,-0.00000679,-0.00010944,-0.00034973,0.00000
 398,0.00001264,0.00000442,0.00000018,-0.00008067,0.00010898,-0.0000021
 0,0.00004848,-0.00004295,0.00000109,-0.00002300,-0.00004091,-0.0000003
 4,0.14567427,-0.12894302,-0.25810777,0.00107005,0.00381583,0.00454138,
 0.00003004,0.00126706,0.00148846,0.00006968,0.00075854,0.00011933,-0.0
 0000163,0.00383938,-0.00349279,0.00012682,-0.01747363,-0.01667641,0.00
 006471,0.00009769,0.00010031,-0.00001102,-0.00006157,-0.00007828,0.000
 00148,0.00013229,0.00009454,-0.00000172,-0.00002927,-0.00003570,-0.000
 00187,-0.00000171,0.00000541,-0.00000021,-0.00000322,0.00002794,0.0000
 0016,0.00000041,-0.00003024,0.00000002,-0.00004342,0.00002408,0.000000
 01,0.13799814,0.27077001,0.00044200,0.00107638,-0.03999349,-0.00016833
 ,-0.00021210,0.00448686,-0.00011023,0.00006945,0.00772041,-0.00000771,
 -0.00000367,-0.00064585,-0.00009263,0.00012054,0.00658611,0.00021745,0
 .00030555,0.00451317,0.00000812,-0.00000892,-0.00113218,0.00000024,0.0
 0000211,0.00011849,-0.00000299,0.00000120,-0.00020500,0.00000111,-0.00
 000429,-0.00020456,0.00000024,-0.00000016,-0.00001589,-0.00000102,0.00
 000101,0.00005057,0.00000059,-0.00000033,-0.00003148,-0.00000029,0.000
 00011,0.00006612,-0.00038051,-0.00125145,0.02642507,-0.00925770,0.0292
 0480,-0.00038303,-0.11427595,0.11335498,-0.00169824,0.00999770,-0.0173
 3177,0.00022837,-0.00191147,-0.00237685,-0.00004102,-0.00089839,-0.000
 68331,0.00000528,-0.00519471,-0.00110210,-0.00008747,0.00083954,-0.000
 79337,0.00001070,-0.00007132,0.00011394,-0.00000185,-0.00011800,-0.000
 22667,0.00000824,0.00008458,0.00012061,-0.00000117,-0.00002216,-0.0000
 1277,0.00000032,0.00001947,-0.00006822,0.00000012,-0.00004864,0.000043
 64,-0.00000076,-0.00000616,0.00009741,-0.00000142,0.00137371,-0.000204
 80,0.00004667,0.11923970,-0.00206832,0.00215414,0.00000011,0.11351426,
 -0.28122118,0.00322033,0.01301923,-0.01766398,0.00028930,-0.00440495,-
 0.00240811,0.00004591,-0.00063247,0.00038299,-0.00001604,-0.00015496,0
 .00159941,0.00005342,0.00171396,0.00064999,0.00001188,-0.00009879,0.00
 005617,-0.00000087,-0.00010813,-0.00016894,-0.00000794,0.00003621,0.00
 012087,0.00000002,-0.00000334,-0.00001302,-0.00000035,0.00001569,-0.00
 008240,0.00000174,-0.00007539,0.00003475,-0.00000100,-0.00005957,0.000
 11802,-0.00000110,0.00009916,0.00077293,-0.00004983,-0.12053416,0.2970
 6036,-0.00008404,0.00024941,0.00386074,-0.00169749,0.00321287,-0.03636
 624,-0.00006168,0.00005225,0.00199010,-0.00002032,0.00006289,0.0061632
 1,0.00000374,-0.00001637,-0.00078767,-0.00009777,0.00004759,0.00735461
 ,-0.00001379,-0.00000867,0.00046340,0.00000030,0.00000081,0.00002196,0
 .00000715,-0.00000993,-0.00094567,-0.00000020,0.00000110,0.00009311,0.
 00000024,-0.00000044,-0.00004728,-0.00000065,0.00000092,0.00009186,0.0
 0000038,0.00000007,-0.00000863,0.00000006,0.00000025,0.00005978,0.0000
 4534,-0.00005144,-0.00451249,0.00189217,-0.00353409,0.02487450,-0.0014
 9669,-0.00308705,-0.00004488,-0.00052525,-0.00047057,0.00000785,-0.005
 18645,-0.00100989,-0.00007387,-0.00989589,0.02792008,-0.00038374,-0.10
 931222,0.11183182,-0.00160497,0.01097093,-0.01701908,0.00020776,-0.001
 65436,0.00401083,-0.00002123,0.00092390,-0.00027291,0.00000977,0.00047
 664,0.00075169,-0.00000190,-0.00008567,-0.00020165,0.00000118,0.000056
 72,-0.00000044,0.00000039,0.00003216,0.00016515,-0.00000130,0.00018697
 ,-0.00015499,0.00000347,-0.00001653,-0.00020657,0.00000012,0.00037729,
 -0.00084361,0.00001262,0.00010819,0.00005680,0.00000742,0.11266154,-0.
 00349223,-0.00213892,0.00007046,-0.00067564,0.00037089,-0.00001795,-0.
 00018527,0.00090157,0.00004085,0.00196517,0.00229288,0.00004379,0.1131
 2577,-0.28872283,0.00326348,0.01248833,-0.01576416,0.00029981,-0.00044
 210,-0.00220438,-0.00001957,0.00045668,0.00004355,0.00000424,0.0001356
 1,0.00004503,-0.00000086,0.00005220,-0.00003297,0.00000074,0.00003099,
 0.00001311,0.00000017,0.00002949,0.00001243,0.00000028,0.00003735,-0.0
 0000216,-0.00000053,0.00003631,-0.00012363,0.00000412,0.00060947,-0.00
 073081,0.00000964,0.00009208,-0.00007058,-0.00000733,-0.12082401,0.306
 32550,-0.00004075,0.00007359,0.00802548,0.00001027,-0.00001662,-0.0009
 4744,-0.00008138,0.00003469,0.00532321,-0.00013974,0.00024663,0.005131
 61,-0.00161547,0.00325493,-0.04129368,-0.00007513,0.00006861,0.0052735
 1,0.00002028,0.00001555,-0.00389427,0.00000108,-0.00000122,0.00012747,
 0.00000340,0.00000372,-0.00015563,-0.00000116,-0.00000116,-0.00000084,
 0.00000006,-0.00000008,0.00000557,-0.00000015,0.00000114,0.00000945,0.
 00000153,-0.00000180,-0.00007564,-0.00000252,0.00000215,0.00025624,-0.
 00000127,-0.00000160,-0.00021334,0.00000709,-0.00000751,-0.00090923,0.
 00182889,-0.00361896,0.02796115,-0.00930861,-0.00267726,-0.00007170,0.
 00090347,0.00257280,-0.00006693,0.00072046,0.00000032,0.00001044,0.000
 50982,-0.00321556,-0.00002803,-0.01237772,0.00370561,-0.00015882,-0.34
 023265,0.01641664,-0.00253154,-0.00039935,0.00122541,-0.00001661,-0.00
 014513,-0.00037964,0.00000663,-0.00000484,0.00000922,0.00000165,-0.000
 00995,-0.00005318,-0.00000044,-0.00000654,0.00000863,-0.00000008,-0.00
 002139,-0.00002478,-0.00000018,-0.00005437,-0.00003159,-0.00000052,-0.
 00007134,0.00011940,-0.00000258,0.00079963,-0.00002208,0.00003518,-0.0
 0055308,-0.00015018,-0.00000459,0.00096469,0.00017699,0.00004292,0.359
 28196,0.02853918,0.00246724,0.00022804,0.00181632,-0.00456146,0.000118
 29,-0.00014362,-0.00122578,0.00000453,-0.00225303,-0.00404382,0.000097
 89,-0.02741421,0.00511817,-0.00023293,0.01654867,-0.05823293,0.0003302
 1,-0.00116976,0.00092246,-0.00001655,-0.00014724,-0.00041959,-0.000002
 03,0.00007507,-0.00014187,-0.00000001,0.00000254,0.00005478,0.00000055
 ,-0.00000727,0.00000191,-0.00000015,0.00000142,-0.00002246,0.00000043,
 -0.00002472,-0.00002542,0.00000058,-0.00012239,0.00009798,-0.00000092,
 -0.00060076,0.00127908,-0.00004933,0.00138491,0.00000118,0.00001298,0.
 00061356,0.00123039,-0.00005169,-0.01721527,0.05747988,-0.00037097,-0.
 00001443,0.00302691,-0.00006051,0.00012410,0.00633465,0.00001151,0.000
 00606,-0.00061975,-0.00003777,0.00009015,0.00800729,0.00013977,0.00001
 133,0.00332494,-0.00253075,0.00032861,-0.03717695,0.00000691,0.0000029
 1,0.00019030,0.00000450,-0.00000376,-0.00050691,0.00000099,-0.00000042
 ,-0.00020842,-0.00000105,0.00000001,0.00010858,0.00000008,-0.00000002,
 -0.00000732,-0.00000038,0.00000032,0.00002319,-0.00000056,0.00000048,0
 .00005535,-0.00000028,0.00000096,0.00010561,0.00003996,-0.00004603,-0.
 00356163,-0.00001908,0.00000065,0.00019213,0.00003827,-0.00005613,-0.0
 0470959,0.00277670,-0.00043665,0.02587244,0.00004686,-0.00007431,0.000
 00068,-0.00021261,0.00003009,-0.00000036,0.00025259,-0.00025115,0.0000
 0620,-0.00004789,0.00001756,-0.00000132,-0.00002283,-0.00004332,-0.000
 00033,-0.00002945,0.00004399,-0.00000039,0.00025285,-0.00005388,0.0000
 1176,0.00046152,0.00005631,0.00000787,0.00106659,-0.00198551,-0.000034
 24,-0.00926552,0.00218317,-0.00012939,0.00084377,0.00006386,0.00004148
 ,-0.33955832,-0.01810585,-0.00222060,-0.01194364,-0.00469788,-0.000088
 05,0.00018947,0.00347977,-0.00008327,-0.00001813,-0.00000621,-0.000000
 37,0.00000893,0.00000025,0.00000023,0.00000284,0.00001008,-0.00000012,
 -0.00001261,-0.00000209,0.00000002,0.35841255,0.00003791,-0.00010065,0
 .00000174,-0.00029309,0.00006993,-0.00000494,0.00015670,-0.00059555,0.
 00000510,0.00011168,0.00006131,0.00000152,-0.00004061,0.00002326,0.000
 00004,0.00000002,0.00004802,-0.00000074,0.00020057,-0.00017192,-0.0000
 0718,-0.00016535,-0.00114375,0.00000321,-0.00201457,-0.00433923,0.0000
 9680,-0.02867033,0.00156966,-0.00020234,0.00037568,0.00128065,-0.00005
 071,-0.01740373,-0.05915690,0.00004114,0.02600485,0.00627779,0.0001932
 1,0.00276914,-0.00413454,0.00012217,-0.00002523,-0.00000094,0.00000014
 ,0.00000763,0.00000921,-0.00000014,-0.00001150,0.00000107,-0.00000005,
 -0.00000517,0.00000425,-0.00000020,0.01948321,0.05802900,-0.00000036,0
 .00000085,0.00005058,0.00000270,-0.00000240,-0.00020450,0.00000224,0.0
 0000165,-0.00020487,-0.00000233,0.00000080,0.00011864,-0.00000035,0.00
 000007,0.00006617,0.00000002,-0.00000037,-0.00003151,0.00000915,-0.000
 00946,-0.00113280,0.00001059,0.00000457,-0.00064659,-0.00003479,0.0000
 9717,0.00772143,0.00015851,0.00004489,0.00449180,0.00003945,-0.0000531
 5,-0.00451622,-0.00222670,0.00003470,-0.04001339,-0.00037527,-0.000051
 92,0.00452013,-0.00007726,0.00012794,0.00658465,-0.00000018,0.00000030
 ,0.00003523,0.00000012,-0.00000023,-0.00001589,0.00000008,0.00000013,0
 .00000537,0.00000005,-0.00000017,-0.00001227,0.00246713,-0.00014276,0.
 02643926,-0.00003210,0.00000703,-0.00000051,0.00001744,-0.00001257,-0.
 00000059,-0.00007341,0.00011256,0.00000016,-0.00057827,0.00009501,-0.0
 0000130,0.00005689,-0.00019420,0.00000142,-0.00005645,-0.00002351,-0.0
 0000063,0.00063448,-0.00174599,0.00002062,-0.00528912,0.00097583,-0.00
 011700,-0.00082525,0.00071789,-0.00000819,-0.00140421,0.00309806,-0.00
 009091,0.00039453,0.00085616,-0.00000653,0.01069999,0.01744344,-0.0001
 0111,-0.11089727,-0.11107317,0.00044401,-0.00907665,-0.02922954,0.0001
 7366,-0.00000278,-0.00000774,0.00000015,0.00000088,-0.00001139,0.00000
 019,0.00001374,0.00002215,-0.00000003,-0.00002296,-0.00002054,0.000000
 30,0.00090596,-0.00066447,0.00004168,0.11415424,-0.00001901,-0.0000117
 2,0.00000019,-0.00006802,0.00002756,0.00000020,0.00004657,-0.00007333,
 -0.00000074,-0.00013728,0.00001471,-0.00000587,0.00004834,-0.00002996,
 0.00000162,-0.00003049,-0.00002357,0.00000052,0.00064676,-0.00011023,0
 .00000838,0.00001655,0.00175622,0.00005789,0.00085952,0.00032117,-0.00
 000176,0.00386043,-0.00225610,0.00011075,-0.00067691,-0.00094404,0.000
 00540,-0.01377267,-0.01749399,0.00008070,-0.11120753,-0.28752628,0.001
 43963,0.00186421,0.00183105,0.00002856,-0.00001048,-0.00000567,-0.0000
 0014,0.00000518,-0.00000539,0.00000005,0.00000757,0.00001031,-0.000000
 15,-0.00001014,-0.00000576,-0.00000036,-0.00008214,0.00116424,-0.00004
 497,0.11915787,0.30250494,-0.00000028,0.00000039,0.00002320,-0.0000000
 9,0.00000070,0.00010861,0.00000069,-0.00000046,-0.00020844,0.00000082,
 -0.00000436,-0.00050655,-0.00000081,-0.00000023,0.00010571,-0.00000061
 ,0.00000054,0.00005529,-0.00000266,-0.00001109,0.00019020,-0.00010688,
 0.00006675,0.00800422,-0.00000932,-0.00000295,-0.00061898,-0.00009811,
 0.00010519,0.00633503,0.00000792,0.00001740,0.00019245,0.00018891,0.00
 033315,0.00302474,0.00044709,0.00143875,-0.03712903,-0.00011688,-0.000
 22105,0.00332320,0.00000017,-0.00000013,-0.00001226,0.00000001,-0.0000
 0011,-0.00000732,0.00000013,-0.00000002,-0.00001124,0.00000019,-0.0000
 0045,-0.00003563,0.00003610,-0.00004974,-0.00356181,-0.00040249,-0.001
 61999,0.02582795,0.00009751,-0.00000772,0.00000074,-0.00010871,0.00006
 531,-0.00000153,0.00051632,0.00011168,0.00000427,0.00032427,0.00076820
 ,-0.00000633,-0.00016617,0.00012127,-0.00000470,-0.00000745,0.00014147
 ,-0.00000073,-0.00057683,-0.00097989,0.00003631,0.01210815,-0.01031060
 ,0.00015264,-0.00104389,-0.00248340,-0.00002778,-0.00033078,-0.0007870
 6,0.00001229,0.00003506,0.00013217,0.00000638,-0.00478080,-0.00165590,
 -0.00008797,-0.01136240,0.02489875,-0.00036745,-0.15064001,0.13613542,
 -0.00214912,0.00000044,0.00001104,-0.00000015,0.00003688,0.00004123,-0
 .00000014,-0.00010084,-0.00004897,-0.00000027,0.00002313,0.00001625,0.
 00000011,-0.00056652,0.00113406,-0.00001321,0.00150364,-0.00012189,0.0
 0005108,0.15764073,0.00012784,-0.00005495,0.00000161,-0.00018779,-0.00
 000885,-0.00000147,0.00072600,-0.00000346,0.00000460,0.00006029,0.0006
 4225,-0.00000470,-0.00012191,0.00003237,0.00000098,-0.00004653,0.00019
 261,-0.00000290,0.00340859,-0.00331576,0.00002386,0.01564730,-0.019720
 09,0.00035722,-0.00331643,-0.00324132,0.00005383,-0.00057914,0.0001745
 8,-0.00001524,0.00009712,0.00000313,-0.00000777,-0.00126170,0.00114507
 ,0.00005457,-0.00459529,0.00656497,-0.00004828,0.13486291,-0.24757338,
 0.00301352,-0.00001036,0.00000309,-0.00000006,0.00001203,0.00003272,-0
 .00000013,-0.00009518,-0.00002201,-0.00000057,0.00000225,0.00000050,-0
 .00000009,-0.00031783,0.00021535,-0.00000650,0.00029755,0.00069928,-0.
 00004866,-0.14600703,0.26117058,-0.00000061,0.00000050,0.00000930,0.00
 000071,0.00000065,-0.00000046,-0.00000183,-0.00000019,-0.00015572,0.00
 000063,0.,0.00011863,-0.00000188,0.00000292,0.00025654,0.00000094,-0.0
 0000155,-0.00007574,-0.00000791,-0.00000372,-0.00390387,-0.00008670,0.
 00015333,0.00512685,-0.00001981,0.00006105,0.00532551,0.00000939,-0.00
 001763,-0.00094809,0.00000667,-0.00000754,-0.00090897,-0.00009060,0.00
 005223,0.00802112,-0.00008815,0.00018515,0.00528137,-0.00214679,0.0030
 2863,-0.04130989,0.00000002,0.00000007,0.00000540,0.00000017,0.0000000
 2,0.00000574,0.00000027,-0.00000014,-0.00000511,0.00000018,0.,-0.00001
 115,0.00000027,0.00000507,-0.00021354,0.00004749,-0.00005134,-0.004706
 56,0.00240119,-0.00334938,0.02777374,0.00946507,-0.00438250,0.00009429
 ,-0.03679952,-0.01022252,-0.00022350,-0.16063057,0.04839489,-0.0015492
 1,-0.02318585,0.01440100,-0.00035015,-0.00088466,0.00079984,-0.0000513
 8,-0.00335895,0.00612907,-0.00007935,-0.00790617,-0.00958913,0.0000571
 7,0.00969130,0.00588203,0.00000033,-0.06358256,-0.04083434,0.00003388,
 -0.01626148,-0.03781647,0.00020115,-0.00016043,-0.00022566,0.00001285,
 -0.00361856,0.00514772,-0.00009935,0.00174512,-0.00298089,0.00004801,-
 0.00333033,0.00085909,-0.00006999,-0.00003325,-0.00002793,-0.00000303,
 0.00082817,0.00002483,0.00002102,-0.00091630,-0.00035924,-0.00000838,-
 0.00003148,-0.00006897,0.00000562,-0.00049018,-0.00101015,0.00000248,0
 .00009849,-0.00009117,0.00000672,0.00008100,0.00025458,-0.00000620,0.2
 9914102,-0.00215833,-0.00404209,0.00004729,-0.02638420,0.01055054,-0.0
 0028283,0.01308687,-0.06781315,0.00056166,0.02420493,-0.00158549,0.000
 24535,-0.00048203,-0.00425429,0.00007992,-0.00013490,-0.00002475,-0.00
 000708,-0.00961444,0.00277611,-0.00013686,-0.00387665,-0.03450525,0.00
 033533,-0.00558553,-0.16483698,0.00132883,-0.02169619,-0.00990339,-0.0
 0004503,0.00064211,0.00101972,-0.00001209,0.00291854,0.00904551,-0.000
 03676,0.00329373,-0.00512395,0.00006829,0.00215257,-0.00182344,0.00007
 753,-0.00125917,0.00008644,-0.00000696,-0.00079949,-0.00034979,-0.0000
 1808,0.00081122,0.00013624,0.00001058,-0.00001680,0.00018806,-0.000008
 28,0.00022511,0.00053970,0.00000046,-0.00014280,0.00005570,-0.00000796
 ,-0.00091908,-0.00085814,0.00000513,0.02143099,0.27537754,0.00007554,0
 .00002935,0.00267562,-0.00007369,-0.00015462,0.00307012,-0.00121037,0.
 00087343,-0.02087551,-0.00042398,0.00016251,0.00371051,-0.00003976,0.0
 0009016,0.00455608,-0.00002022,0.00004355,-0.00065268,0.00006129,-0.00
 014807,-0.00364323,0.00008059,0.00039760,0.00370139,-0.00031603,0.0010
 4934,-0.02073692,0.00005029,-0.00017585,0.00313194,0.00000408,-0.00001
 623,-0.00135680,-0.00007835,-0.00002124,0.00268072,-0.00001391,0.00001
 903,-0.00065355,-0.00008204,0.00006899,0.00455745,0.00000892,0.0000025
 1,0.00036339,0.00003134,-0.00001050,-0.00133680,-0.00001948,0.00000143
 ,0.00058033,0.00000511,-0.00000851,-0.00065205,-0.00000906,-0.00000990
 ,0.00036273,0.00000724,-0.00000740,-0.00065210,0.00000467,0.00001554,0
 .00058076,0.00199799,-0.00228022,0.02056919,0.00114905,-0.00233157,0.0
 0003304,0.00002108,-0.00203180,0.00003134,-0.00178304,-0.00313869,-0.0
 0001570,0.02510806,0.00266984,0.00001177,-0.00962063,-0.00391456,-0.00
 002413,0.00369365,0.00150128,0.00001763,-0.23193230,0.22864913,-0.0035
 9531,-0.05200181,0.05062058,-0.00108942,-0.00595406,-0.01382125,0.0000
 4791,-0.00139724,0.00239542,-0.00002087,-0.00103762,0.00016621,-0.0000
 0767,-0.00093011,-0.00106863,0.00000348,-0.00239030,0.00320561,-0.0000
 4380,0.00141179,0.00517943,-0.00002925,0.00022377,-0.00025217,0.000002
 90,-0.00018017,-0.00021998,0.00000243,0.00241458,-0.00324122,0.0000508
 3,0.00004884,0.00019196,-0.00000339,-0.00027623,0.00002274,-0.00000375
 ,-0.00022181,-0.00028526,-0.00000171,-0.00268273,0.00104272,-0.0000174
 5,0.00014013,0.00430353,-0.00004013,0.27619710,-0.00222473,0.00095285,
 -0.00002932,0.00160509,-0.00158770,0.00001368,-0.01614041,0.00347821,-
 0.00012351,0.00772630,-0.08163977,0.00106559,0.01132622,0.00070801,0.0
 0007220,-0.00018459,-0.00499761,0.00004253,0.22868974,-0.48646299,0.00
 601038,0.04555437,-0.00454743,0.00062040,-0.00082634,0.00764640,-0.000
 04313,-0.00123455,-0.00018053,-0.00002205,0.00025501,-0.00014308,0.000
 00099,-0.00117155,0.00303963,-0.00003880,0.00488602,0.00106704,0.00002
 413,-0.01005401,-0.01029350,0.00000205,-0.00025142,-0.00015438,0.00000
 110,-0.00030371,-0.00100934,0.00000542,-0.00197125,-0.00157052,-0.0000
 1018,-0.00043563,-0.00016679,0.00000078,0.00002677,0.00035006,-0.00000
 158,0.00034236,0.00010086,0.00000432,-0.00025529,0.00392144,-0.0000632
 2,0.00428493,-0.00465485,0.00007909,-0.26964333,0.57614400,0.00003304,
 -0.00003021,-0.00024572,-0.00000468,-0.00001330,-0.00140551,0.00011454
 ,-0.00002311,0.00394025,-0.00003225,0.00101942,0.01991915,-0.00018541,
 -0.00005042,-0.00081411,0.00003432,0.00005742,-0.00039710,-0.00357976,
 0.00599426,-0.07204226,-0.00103862,0.00065775,0.01990086,-0.00007634,-
 0.00015328,0.00393968,0.00001192,0.00001042,-0.00140446,-0.00000959,0.
 00000070,-0.00023407,0.00000490,-0.00004185,-0.00024297,-0.00006539,0.
 00001603,-0.00040071,0.00012254,0.00013222,-0.00080930,0.00000311,0.00
 000123,0.00015736,0.00000341,0.00000618,-0.00023392,0.00003314,-0.0000
 1766,-0.00048336,0.00000298,0.00000590,0.00026026,-0.00000425,-0.00000
 145,0.00015740,-0.00000762,-0.00000116,0.00025931,-0.00001028,-0.00003
 999,-0.00026587,-0.00004097,0.00008176,0.00001941,0.00469126,-0.007610
 86,0.03042568\\-0.00006768,-0.00005553,-0.00000085,0.00032106,0.000094
 03,0.00000530,0.00013624,-0.00019661,-0.00000379,-0.00007687,0.0002329
 1,-0.00000964,0.00030429,0.00034282,-0.00000306,-0.00006258,-0.0000600
 5,0.00000229,0.00036452,-0.00062321,0.00004766,-0.00016807,0.00018804,
 -0.00001033,0.00010770,-0.00021562,-0.00000398,-0.00023973,-0.00022727
 ,0.00000128,0.00014575,-0.00007738,-0.00000065,0.00007628,0.00003932,-
 0.00000052,0.00008638,0.00001855,0.00000090,-0.00044970,-0.00010072,-0
 .00000265,-0.00006095,-0.00014734,0.00000113,-0.00000138,-0.00016591,-
 0.00000029,-0.00017821,0.00012009,-0.00000151,-0.00015212,0.00004063,-
 0.00000029,0.00015761,-0.00001592,0.00000004,0.00003611,0.00015734,-0.
 00000011,-0.00001882,0.00021262,-0.00000203,-0.00005590,0.00009415,0.0
 0000270,-0.00020394,0.00034505,-0.00002158\\\@


 THE VALUE OF PHILOSOPHY IS, IN FACT, TO BE SOUGHT LARGELY IN ITS
 VERY UNCERTAINTY.  THE MAN WHO HAS NO TINCTURE OF PHILOSOPHY GOES
 THROUGH LIFE IMPRISONED IN THE PREJUDICES DERIVED FROM COMMON SENSE,
 FROM THE HABITUAL BELIEFS OF HIS AGE OR HIS NATION, AND FROM
 CONVICTIONS WHICH HAVE GROWN UP IN HIS MIND WITHOUT THE CO-OPERATION
 OR CONSENT OF HIS DELIBERATE REASON.  TO SUCH A MAN THE WORLD TENDS
 TO BE DEFINITE, FINITE, OBVIOUS; COMMON OBJECTS ROUSE NO QUESTIONS,
 AND UNFAMILIAR POSSIBILITIES ARE CONTEMPTUOUSLY REJECTED.

                             -- BERTRAND RUSSELL
 Job cpu time:       0 days  1 hours  4 minutes 53.6 seconds.
 Elapsed time:       0 days  1 hours  4 minutes 59.3 seconds.
 File lengths (MBytes):  RWF=    255 Int=      0 D2E=      0 Chk=     14 Scr=      1
 Normal termination of Gaussian 16 at Tue Aug 18 13:30:28 2026.
