 Entering Gaussian System, Link 0=g16
 Initial command:
 /mnt/data/applications/G16/g16/l1.exe "/scratch/Gau-9495.inp" -scrdir="/scratch/"
 Entering Link 1 = /mnt/data/applications/G16/g16/l1.exe PID=      9496.
  
 Copyright (c) 1988,1990,1992,1993,1995,1998,2003,2009,2016,
            Gaussian, Inc.  All Rights Reserved.
  
 This is part of the Gaussian(R) 16 program.  It is based on
 the Gaussian(R) 09 system (copyright 2009, Gaussian, Inc.),
 the Gaussian(R) 03 system (copyright 2003, Gaussian, Inc.),
 the Gaussian(R) 98 system (copyright 1998, Gaussian, Inc.),
 the Gaussian(R) 94 system (copyright 1995, Gaussian, Inc.),
 the Gaussian 92(TM) system (copyright 1992, Gaussian, Inc.),
 the Gaussian 90(TM) system (copyright 1990, Gaussian, Inc.),
 the Gaussian 88(TM) system (copyright 1988, Gaussian, Inc.),
 the Gaussian 86(TM) system (copyright 1986, Carnegie Mellon
 University), and the Gaussian 82(TM) system (copyright 1983,
 Carnegie Mellon University). Gaussian is a federally registered
 trademark of Gaussian, Inc.
  
 This software contains proprietary and confidential information,
 including trade secrets, belonging to Gaussian, Inc.
  
 This software is provided under written license and may be
 used, copied, transmitted, or stored only in accord with that
 written license.
  
 The following legend is applicable only to US Government
 contracts under FAR:
  
                    RESTRICTED RIGHTS LEGEND
  
 Use, reproduction and disclosure by the US Government is
 subject to restrictions as set forth in subparagraphs (a)
 and (c) of the Commercial Computer Software - Restricted
 Rights clause in FAR 52.227-19.
  
 Gaussian, Inc.
 340 Quinnipiac St., Bldg. 40, Wallingford CT 06492
  
  
 ---------------------------------------------------------------
 Warning -- This program may not be used in any manner that
 competes with the business of Gaussian, Inc. or will provide
 assistance to any competitor of Gaussian, Inc.  The licensee
 of this program is prohibited from giving any competitor of
 Gaussian, Inc. access to this program.  By using this program,
 the user acknowledges that Gaussian, Inc. is engaged in the
 business of creating and licensing software in the field of
 computational chemistry and represents and warrants to the
 licensee that it is not a competitor of Gaussian, Inc. and that
 it will not use this program in any manner prohibited above.
 ---------------------------------------------------------------
  

 Cite this work as:
 Gaussian 16, Revision A.03,
 M. J. Frisch, G. W. Trucks, H. B. Schlegel, G. E. Scuseria, 
 M. A. Robb, J. R. Cheeseman, G. Scalmani, V. Barone, 
 G. A. Petersson, H. Nakatsuji, X. Li, M. Caricato, A. V. Marenich, 
 J. Bloino, B. G. Janesko, R. Gomperts, B. Mennucci, H. P. Hratchian, 
 J. V. Ortiz, A. F. Izmaylov, J. L. Sonnenberg, D. Williams-Young, 
 F. Ding, F. Lipparini, F. Egidi, J. Goings, B. Peng, A. Petrone, 
 T. Henderson, D. Ranasinghe, V. G. Zakrzewski, J. Gao, N. Rega, 
 G. Zheng, W. Liang, M. Hada, M. Ehara, K. Toyota, R. Fukuda, 
 J. Hasegawa, M. Ishida, T. Nakajima, Y. Honda, O. Kitao, H. Nakai, 
 T. Vreven, K. Throssell, J. A. Montgomery, Jr., J. E. Peralta, 
 F. Ogliaro, M. J. Bearpark, J. J. Heyd, E. N. Brothers, K. N. Kudin, 
 V. N. Staroverov, T. A. Keith, R. Kobayashi, J. Normand, 
 K. Raghavachari, A. P. Rendell, J. C. Burant, S. S. Iyengar, 
 J. Tomasi, M. Cossi, J. M. Millam, M. Klene, C. Adamo, R. Cammi, 
 J. W. Ochterski, R. L. Martin, K. Morokuma, O. Farkas, 
 J. B. Foresman, and D. J. Fox, Gaussian, Inc., Wallingford CT, 2016.
 
 ******************************************
 Gaussian 16:  AM64L-G16RevA.03 25-Dec-2016
                18-Aug-2026 
 ******************************************
 %nprocshared=24
 Will use up to   24 processors via shared memory.
 %mem=20GB
 %chk=TX_eq.chk
 ----------------------------------------------------------------------
 #p b3lyp/gen EmpiricalDispersion=GD3BJ pseudo=read scrf=(solvent=aceto
 nitrile,pcm,read) nosymm pop=(Orbitals=20)
 ----------------------------------------------------------------------
 1/38=1,40=2,172=1/1;
 2/12=2,15=1,17=6,18=5,40=1/2;
 3/5=7,11=2,16=1,17=8,25=1,30=1,70=2203,72=2,74=-5,124=41/1,2,3;
 4//1;
 5/5=2,38=5,53=2/2;
 6/7=2,8=2,9=2,10=2,28=1,96=20/1;
 99/5=1,9=1/99;
 Leave Link    1 at Tue Aug 18 20:45:45 2026, MaxMem=  2684354560 cpu:               4.0 elap:               0.2
 (Enter /mnt/data/applications/G16/g16/l101.exe)
 -------------------
 Title Card Required
 -------------------
 Symbolic Z-matrix:
 Charge =  0 Multiplicity = 1
 C                    -9.14563  -0.38528   0.00813 
 C                    -7.75898  -0.46528   0.0198 
 C                    -6.9823    0.70961   0.01471 
 C                    -7.60777   1.97326  -0.00232 
 C                    -9.01825   2.0233   -0.01394 
 C                    -9.78353   0.86714  -0.00885 
 C                    -6.87858   3.26514  -0.00887 
 C                    -5.39522   3.27402   0.0032 
 C                    -4.5954    2.11283   0.02055 
 C                    -3.19114   2.21987   0.03076 
 H                    -2.58131   1.31431   0.04407 
 C                    -2.58641   3.47032   0.02389 
 C                    -3.37033   4.63692   0.00672 
 C                    -4.75273   4.53072  -0.00339 
 H                    -9.73635  -1.30345   0.01227 
 H                    -7.2646   -1.43865   0.03295 
 H                    -9.48165   3.00982  -0.02705 
 H                    -10.87301   0.92845  -0.01796 
 H                    -1.49685   3.53968   0.03192 
 H                    -2.89401   5.61871   0.00139 
 H                    -5.38901   5.41563  -0.0168 
 S                    -5.23591   0.4706    0.03097 
 O                    -7.50433   4.32945  -0.02457 
 
 ITRead=  0  0  0  0  0  0  0  0  0  0  0  0  0  0  0  0  0  0  0  0
 ITRead=  0  0  0
 MicOpt= -1 -1 -1 -1 -1 -1 -1 -1 -1 -1 -1 -1 -1 -1 -1 -1 -1 -1 -1 -1
 MicOpt= -1 -1 -1
 NAtoms=     23 NQM=       23 NQMF=       0 NMMI=      0 NMMIF=      0
                NMic=       0 NMicF=      0.
                    Isotopes and Nuclear Properties:
 (Nuclear quadrupole moments (NQMom) in fm**2, nuclear magnetic moments (NMagM)
  in nuclear magnetons)

  Atom         1           2           3           4           5           6           7           8           9          10
 IAtWgt=          12          12          12          12          12          12          12          12          12          12
 AtmWgt=  12.0000000  12.0000000  12.0000000  12.0000000  12.0000000  12.0000000  12.0000000  12.0000000  12.0000000  12.0000000
 NucSpn=           0           0           0           0           0           0           0           0           0           0
 AtZEff=  -0.0000000  -0.0000000  -0.0000000  -0.0000000  -0.0000000  -0.0000000  -0.0000000  -0.0000000  -0.0000000  -0.0000000
 NQMom=    0.0000000   0.0000000   0.0000000   0.0000000   0.0000000   0.0000000   0.0000000   0.0000000   0.0000000   0.0000000
 NMagM=    0.0000000   0.0000000   0.0000000   0.0000000   0.0000000   0.0000000   0.0000000   0.0000000   0.0000000   0.0000000
 AtZNuc=   6.0000000   6.0000000   6.0000000   6.0000000   6.0000000   6.0000000   6.0000000   6.0000000   6.0000000   6.0000000

  Atom        11          12          13          14          15          16          17          18          19          20
 IAtWgt=           1          12          12          12           1           1           1           1           1           1
 AtmWgt=   1.0078250  12.0000000  12.0000000  12.0000000   1.0078250   1.0078250   1.0078250   1.0078250   1.0078250   1.0078250
 NucSpn=           1           0           0           0           1           1           1           1           1           1
 AtZEff=  -0.0000000  -0.0000000  -0.0000000  -0.0000000  -0.0000000  -0.0000000  -0.0000000  -0.0000000  -0.0000000  -0.0000000
 NQMom=    0.0000000   0.0000000   0.0000000   0.0000000   0.0000000   0.0000000   0.0000000   0.0000000   0.0000000   0.0000000
 NMagM=    2.7928460   0.0000000   0.0000000   0.0000000   2.7928460   2.7928460   2.7928460   2.7928460   2.7928460   2.7928460
 AtZNuc=   1.0000000   6.0000000   6.0000000   6.0000000   1.0000000   1.0000000   1.0000000   1.0000000   1.0000000   1.0000000

  Atom        21          22          23
 IAtWgt=           1          32          16
 AtmWgt=   1.0078250  31.9720718  15.9949146
 NucSpn=           1           0           0
 AtZEff=  -0.0000000  -0.0000000  -0.0000000
 NQMom=    0.0000000   0.0000000   0.0000000
 NMagM=    2.7928460   0.0000000   0.0000000
 AtZNuc=   1.0000000  16.0000000   8.0000000
 Leave Link  101 at Tue Aug 18 20:45:45 2026, MaxMem=  2684354560 cpu:               3.5 elap:               0.2
 (Enter /mnt/data/applications/G16/g16/l202.exe)
                          Input orientation:                          
 ---------------------------------------------------------------------
 Center     Atomic      Atomic             Coordinates (Angstroms)
 Number     Number       Type             X           Y           Z
 ---------------------------------------------------------------------
      1          6           0       -9.145630   -0.385280    0.008130
      2          6           0       -7.758980   -0.465280    0.019800
      3          6           0       -6.982300    0.709610    0.014710
      4          6           0       -7.607770    1.973260   -0.002320
      5          6           0       -9.018250    2.023300   -0.013940
      6          6           0       -9.783530    0.867140   -0.008850
      7          6           0       -6.878580    3.265140   -0.008870
      8          6           0       -5.395220    3.274020    0.003200
      9          6           0       -4.595400    2.112830    0.020550
     10          6           0       -3.191140    2.219870    0.030760
     11          1           0       -2.581310    1.314310    0.044070
     12          6           0       -2.586410    3.470320    0.023890
     13          6           0       -3.370330    4.636920    0.006720
     14          6           0       -4.752730    4.530720   -0.003390
     15          1           0       -9.736350   -1.303450    0.012270
     16          1           0       -7.264600   -1.438650    0.032950
     17          1           0       -9.481650    3.009820   -0.027050
     18          1           0      -10.873010    0.928450   -0.017960
     19          1           0       -1.496850    3.539680    0.031920
     20          1           0       -2.894010    5.618710    0.001390
     21          1           0       -5.389010    5.415630   -0.016800
     22         16           0       -5.235910    0.470600    0.030970
     23          8           0       -7.504330    4.329450   -0.024570
 ---------------------------------------------------------------------
                    Distance matrix (angstroms):
                    1          2          3          4          5
     1  C    0.000000
     2  C    1.389005   0.000000
     3  C    2.424629   1.408412   0.000000
     4  C    2.815641   2.443324   1.410076   0.000000
     5  C    2.412047   2.789253   2.423158   1.411415   0.000000
     6  C    1.405618   2.423833   2.805755   2.440794   1.386501
     7  C    4.297135   3.833009   2.557743   1.483481   2.473940
     8  C    5.239855   4.423799   3.015817   2.566590   3.832876
     9  C    5.190886   4.081040   2.768818   3.015688   4.423891
    10  C    6.499482   5.298614   4.080936   4.423633   5.830596
    11  H    6.780870   5.475016   4.442436   5.069681   6.476128
    12  C    7.608500   6.499573   5.190901   5.239841   6.592713
    13  C    7.653534   6.729997   5.335743   5.005104   6.223378
    14  C    6.592781   5.830788   4.424047   3.832996   4.947922
    15  H    1.091789   2.147691   3.411335   3.907415   3.403472
    16  H    2.156033   1.091803   2.166806   3.429306   3.881055
    17  H    3.411869   3.878931   3.396978   2.141610   1.090015
    18  H    2.170348   3.411904   3.896997   3.428362   2.153798
    19  H    8.597076   7.433312   6.172500   6.308580   7.672872
    20  H    8.667796   7.789943   6.388549   5.958931   7.101656
    21  H    6.911105   6.340599   4.968520   4.095487   4.967826
    22  S    4.002370   2.691074   1.762745   2.807991   4.088886
    23  O    4.992356   4.801693   3.657499   2.358564   2.758694
                    6          7          8          9         10
     6  C    0.000000
     7  C    3.766847   0.000000
     8  C    5.005046   1.483436   0.000000
     9  C    5.335663   2.557654   1.410098   0.000000
    10  C    6.729863   3.832933   2.443350   1.408371   0.000000
    11  H    7.216283   4.719647   3.429318   2.166736   1.091837
    12  C    7.653506   4.297196   2.815737   2.424630   1.389018
    13  C    7.439127   3.766941   2.440838   2.805712   2.423802
    14  C    6.223407   2.474058   1.411429   2.423122   2.789222
    15  H    2.171205   5.388813   6.308623   6.172553   7.433297
    16  H    3.415175   4.719788   5.069983   4.442724   5.475203
    17  H    2.163918   2.615625   4.095073   4.968128   6.340180
    18  H    1.091242   4.627707   5.958887   6.388476   7.789818
    19  H    8.707077   5.388882   3.907517   3.411311   2.147677
    20  H    8.369170   4.627764   3.428356   3.896959   3.411929
    21  H    6.324605   2.616006   2.141712   3.397013   3.878889
    22  S    4.565050   3.241821   2.808080   1.762748   2.690916
    23  O    4.145189   1.234733   2.358612   3.657501   4.801770
                   11         12         13         14         15
    11  H    0.000000
    12  C    2.156110   0.000000
    13  C    3.415214   1.405625   0.000000
    14  C    3.881058   2.412081   1.386510   0.000000
    15  H    7.618942   8.597131   8.707137   7.672956   0.000000
    16  H    5.432506   6.781116   7.216549   6.476433   2.475531
    17  H    7.105949   6.910788   6.324304   4.967533   4.320962
    18  H    8.300905   8.667791   8.369203   7.101717   2.504853
    19  H    2.475575   1.091795   2.171289   3.403551   9.557492
    20  H    4.315954   2.170416   1.091247   2.153737   9.733141
    21  H    4.970685   3.411811   2.163796   1.089999   8.002890
    22  S    2.785484   4.002277   4.564997   4.088914   4.837516
    23  O    5.773379   4.992634   4.145536   2.759033   6.059112
                   16         17         18         19         20
    16  H    0.000000
    17  H    4.970694   0.000000
    18  H    4.315829   2.503611   0.000000
    19  H    7.619102   8.002578   9.733108   0.000000
    20  H    8.301168   7.085486   9.255450   2.505066   0.000000
    21  H    7.106438   4.747392   7.085834   4.320934   2.503317
    22  S    2.785825   4.947455   5.655875   4.837336   5.655829
    23  O    5.773366   2.377230   4.786946   6.059434   4.787266
                   21         22         23
    21  H    0.000000
    22  S    4.947630   0.000000
    23  O    2.377904   4.476554   0.000000
 Symmetry turned off by external request.
 Stoichiometry    C13H8OS
 Framework group  C1[X(C13H8OS)]
 Deg. of freedom    63
 Full point group                 C1      NOp   1
 Rotational constants (GHZ):           1.2174964           0.4226740           0.3137504
 Leave Link  202 at Tue Aug 18 20:45:45 2026, MaxMem=  2684354560 cpu:               0.3 elap:               0.0
 (Enter /mnt/data/applications/G16/g16/l301.exe)
 General basis read from cards:  (5D, 7F)
 Centers:       1      2      3      4      5      6      7      8      9     10
 Centers:      12     13     14     22     23     11     15     16     17     18
 Centers:      19     20     21
 cc-pVDZ
 ****
 ======================================================================================================
                                       Pseudopotential Parameters
 ======================================================================================================
  Center     Atomic      Valence      Angular      Power
  Number     Number     Electrons     Momentum     of R      Exponent        Coefficient   SO-Coeffient
 ======================================================================================================
    1          6
                                   No pseudopotential on this center.
    2          6
                                   No pseudopotential on this center.
    3          6
                                   No pseudopotential on this center.
    4          6
                                   No pseudopotential on this center.
    5          6
                                   No pseudopotential on this center.
    6          6
                                   No pseudopotential on this center.
    7          6
                                   No pseudopotential on this center.
    8          6
                                   No pseudopotential on this center.
    9          6
                                   No pseudopotential on this center.
   10          6
                                   No pseudopotential on this center.
   11          1
                                   No pseudopotential on this center.
   12          6
                                   No pseudopotential on this center.
   13          6
                                   No pseudopotential on this center.
   14          6
                                   No pseudopotential on this center.
   15          1
                                   No pseudopotential on this center.
   16          1
                                   No pseudopotential on this center.
   17          1
                                   No pseudopotential on this center.
   18          1
                                   No pseudopotential on this center.
   19          1
                                   No pseudopotential on this center.
   20          1
                                   No pseudopotential on this center.
   21          1
                                   No pseudopotential on this center.
   22         16
                                   No pseudopotential on this center.
   23          8
                                   No pseudopotential on this center.
 ======================================================================================================
 Ernie: Thresh=  0.10000D-02 Tol=  0.10000D-05 Strict=F.
 Ernie:  38 primitive shells out of 398 were deleted.
   254 basis functions,   589 primitive gaussians,   269 cartesian basis functions
    55 alpha electrons       55 beta electrons
       nuclear repulsion energy       991.4075582406 Hartrees.
 IExCor=  402 DFT=T Ex+Corr=B3LYP ExCW=0 ScaHFX=  0.200000
 ScaDFX=  0.800000  0.720000  1.000000  0.810000 ScalE2=  1.000000  1.000000
 IRadAn=      5 IRanWt=     -1 IRanGd=            0 ICorTp=0 IEmpDi=141
 NAtoms=   23 NActive=   23 NUniq=   23 SFac= 1.00D+00 NAtFMM=   60 NAOKFM=F Big=F
 Integral buffers will be    131072 words long.
 Raffenetti 2 integral format.
 Two-electron integral symmetry is turned off.
 R6Disp:  Grimme-D3(BJ) Dispersion energy=       -0.0581024690 Hartrees.
 Nuclear repulsion after empirical dispersion term =      991.3494557716 Hartrees.
 Using the following non-standard input for PCM:
 NonEq=write
 --- end of non-standard input.
 ------------------------------------------------------------------------------
 Polarizable Continuum Model (PCM)
 =================================
 Model                : PCM.
 Atomic radii         : UFF (Universal Force Field).
 Polarization charges : Total charges.
 Charge compensation  : None.
 Solution method      : On-the-fly selection.
 Cavity type          : Scaled VdW (van der Waals Surface) (Alpha=1.100).
 Cavity algorithm     : GePol (No added spheres)
                        Default sphere list used, NSphG=   23.
                        Lebedev-Laikov grids with approx.  5.0 points / Ang**2.
                        Smoothing algorithm: York/Karplus (Gamma=1.0000).
                        Polarization charges: spherical gaussians, with
                                              point-specific exponents (IZeta= 3).
                        Self-potential: point-specific (ISelfS= 7).
                        Self-field    : sphere-specific E.n sum rule (ISelfD= 2).
 Solvent              : Acetonitrile, Eps=  35.688000 Eps(inf)=   1.806874
 ------------------------------------------------------------------------------
 GePol: Number of generator spheres                  =      23
 GePol: Total number of spheres                      =      23
 GePol: Number of exposed spheres                    =      23 (100.00%)
 GePol: Number of points                             =    1989
 GePol: Average weight of points                     =       0.13
 GePol: Minimum weight of points                     =   0.78D-10
 GePol: Maximum weight of points                     =    0.20577
 GePol: Number of points with low weight             =      96
 GePol: Fraction of low-weight points (<1% of avg)   =       4.83%
 GePol: Cavity surface area                          =    255.926 Ang**2
 GePol: Cavity volume                                =    277.038 Ang**3
 Leave Link  301 at Tue Aug 18 20:45:45 2026, MaxMem=  2684354560 cpu:               4.3 elap:               0.2
 (Enter /mnt/data/applications/G16/g16/l302.exe)
 NPDir=0 NMtPBC=     1 NCelOv=     1 NCel=       1 NClECP=     1 NCelD=      1
         NCelK=      1 NCelE2=     1 NClLst=     1 CellRange=     0.0.
 One-electron integrals computed using PRISM.
   1 Symmetry operations used in ECPInt.
 ECPInt:  NShTT=    6786 NPrTT=   65756 LenC2=    6458 LenP2D=   34293.
 LDataN:  DoStor=T MaxTD1= 4 Len=   56
 NBasis=   254 RedAO= T EigKep=  2.46D-04  NBF=   254
 NBsUse=   254 1.00D-06 EigRej= -1.00D+00 NBFU=   254
 Precomputing XC quadrature grid using
 IXCGrd= 4 IRadAn=           5 IRanWt=          -1 IRanGd=           0 AccXCQ= 0.00D+00.
 Generated NRdTot=       0 NPtTot=           0 NUsed=           0 NTot=          32
 NSgBfM=   268   268   268   268   268 MxSgAt=    23 MxSgA2=    23.
 Leave Link  302 at Tue Aug 18 20:45:46 2026, MaxMem=  2684354560 cpu:              18.3 elap:               0.8
 (Enter /mnt/data/applications/G16/g16/l303.exe)
 DipDrv:  MaxL=1.
 Leave Link  303 at Tue Aug 18 20:45:46 2026, MaxMem=  2684354560 cpu:               1.5 elap:               0.1
 (Enter /mnt/data/applications/G16/g16/l401.exe)
 ExpMin= 1.22D-01 ExpMax= 1.11D+05 ExpMxC= 1.07D+03 IAcc=3 IRadAn=         5 AccDes= 0.00D+00
 Harris functional with IExCor=  402 and IRadAn=       5 diagonalized for initial guess.
 HarFok:  IExCor=  402 AccDes= 0.00D+00 IRadAn=         5 IDoV= 1 UseB2=F ITyADJ=14
 ICtDFT=  3500011 ScaDFX=  1.000000  1.000000  1.000000  1.000000
 FoFCou: FMM=F IPFlag=           0 FMFlag=      100000 FMFlg1=           0
         NFxFlg=           0 DoJE=T BraDBF=F KetDBF=T FulRan=T
         wScrn=  0.000000 ICntrl=       500 IOpCl=  0 I1Cent=   200000004 NGrid=           0
         NMat0=    1 NMatS0=      1 NMatT0=    0 NMatD0=    1 NMtDS0=    0 NMtDT0=    0
 Symmetry not used in FoFCou.
 Harris En= -973.686475028739    
 JPrj=0 DoOrth=F DoCkMO=F.
 Leave Link  401 at Tue Aug 18 20:45:48 2026, MaxMem=  2684354560 cpu:              33.6 elap:               1.4
 (Enter /mnt/data/applications/G16/g16/l502.exe)
 Two-electron integral symmetry not used.
 Closed shell SCF:
 Using DIIS extrapolation, IDIIS=  1040.
 NGot=  2684354560 LenX=  2684201198 LenY=  2684128396
 Requested convergence on RMS density matrix=1.00D-08 within 128 cycles.
 Requested convergence on MAX density matrix=1.00D-06.
 Requested convergence on             energy=1.00D-06.
 No special actions if energy rises.
 Fock matrices will be formed incrementally for  20 cycles.

 Cycle   1  Pass 1  IDiag  1:
 FoFJK:  IHMeth= 1 ICntrl=       0 DoSepK=F KAlg= 0 I1Cent=           0 FoldK=F
 IRaf= 890000000 NMat=       1 IRICut=       1 DoRegI=T DoRafI=F ISym2E= 0 IDoP0=0 IntGTp=1.
 FoFCou: FMM=F IPFlag=           0 FMFlag=      100000 FMFlg1=           0
         NFxFlg=           0 DoJE=F BraDBF=F KetDBF=F FulRan=T
         wScrn=  0.000000 ICntrl=         0 IOpCl=  0 I1Cent=           0 NGrid=           0
         NMat0=    1 NMatS0=      1 NMatT0=    0 NMatD0=    1 NMtDS0=    0 NMtDT0=    0
 Symmetry not used in FoFCou.
 Inv3:  Mode=1 IEnd=    11868363.
 Iteration    1 A*A^-1 deviation from unit magnitude is 2.22D-15 for    762.
 Iteration    1 A*A^-1 deviation from orthogonality  is 1.59D-15 for   1143    244.
 Iteration    1 A^-1*A deviation from unit magnitude is 2.44D-15 for    762.
 Iteration    1 A^-1*A deviation from orthogonality  is 1.37D-15 for    782    692.
 E= -973.387621971338    
 DIIS: error= 4.21D-02 at cycle   1 NSaved=   1.
 NSaved= 1 IEnMin= 1 EnMin= -973.387621971338     IErMin= 1 ErrMin= 4.21D-02
 ErrMax= 4.21D-02  0.00D+00 EMaxC= 1.00D-01 BMatC= 3.22D-01 BMatP= 3.22D-01
 IDIUse=3 WtCom= 5.79D-01 WtEn= 4.21D-01
 Coeff-Com:  0.100D+01
 Coeff-En:   0.100D+01
 Coeff:      0.100D+01
 Gap=     0.239 Goal=   None    Shift=    0.000
 GapD=    0.239 DampG=1.000 DampE=0.500 DampFc=0.5000 IDamp=-1.
 Damping current iteration by 5.00D-01
 RMSDP=8.11D-03 MaxDP=2.21D-01              OVMax= 3.64D-01

 Cycle   2  Pass 1  IDiag  1:
 RMSU=  4.01D-03    CP:  9.75D-01
 E= -973.508743150837     Delta-E=       -0.121121179500 Rises=F Damp=T
 DIIS: error= 1.45D-02 at cycle   2 NSaved=   2.
 NSaved= 2 IEnMin= 2 EnMin= -973.508743150837     IErMin= 2 ErrMin= 1.45D-02
 ErrMax= 1.45D-02  0.00D+00 EMaxC= 1.00D-01 BMatC= 4.17D-02 BMatP= 3.22D-01
 IDIUse=3 WtCom= 8.55D-01 WtEn= 1.45D-01
 Coeff-Com:  0.196D+00 0.804D+00
 Coeff-En:   0.289D+00 0.711D+00
 Coeff:      0.209D+00 0.791D+00
 Gap=     0.314 Goal=   None    Shift=    0.000
 RMSDP=2.68D-03 MaxDP=1.02D-01 DE=-1.21D-01 OVMax= 2.55D-01

 Cycle   3  Pass 1  IDiag  1:
 RMSU=  2.40D-03    CP:  9.46D-01  7.56D-01
 E= -973.719046549708     Delta-E=       -0.210303398871 Rises=F Damp=F
 DIIS: error= 1.53D-02 at cycle   3 NSaved=   3.
 NSaved= 3 IEnMin= 3 EnMin= -973.719046549708     IErMin= 2 ErrMin= 1.45D-02
 ErrMax= 1.53D-02  0.00D+00 EMaxC= 1.00D-01 BMatC= 3.57D-02 BMatP= 4.17D-02
 IDIUse=3 WtCom= 8.47D-01 WtEn= 1.53D-01
 Coeff-Com:  0.672D-01 0.477D+00 0.456D+00
 Coeff-En:   0.000D+00 0.000D+00 0.100D+01
 Coeff:      0.569D-01 0.404D+00 0.539D+00
 Gap=     0.143 Goal=   None    Shift=    0.000
 RMSDP=1.36D-03 MaxDP=6.07D-02 DE=-2.10D-01 OVMax= 7.85D-02

 Cycle   4  Pass 1  IDiag  1:
 RMSU=  9.15D-04    CP:  9.55D-01  8.86D-01  6.57D-01
 E= -973.742277277024     Delta-E=       -0.023230727316 Rises=F Damp=F
 DIIS: error= 8.67D-03 at cycle   4 NSaved=   4.
 NSaved= 4 IEnMin= 4 EnMin= -973.742277277024     IErMin= 4 ErrMin= 8.67D-03
 ErrMax= 8.67D-03  0.00D+00 EMaxC= 1.00D-01 BMatC= 1.14D-02 BMatP= 3.57D-02
 IDIUse=3 WtCom= 9.13D-01 WtEn= 8.67D-02
 Coeff-Com:  0.157D-01 0.929D-01 0.357D+00 0.535D+00
 Coeff-En:   0.000D+00 0.000D+00 0.270D+00 0.730D+00
 Coeff:      0.143D-01 0.848D-01 0.349D+00 0.552D+00
 Gap=     0.147 Goal=   None    Shift=    0.000
 RMSDP=5.85D-04 MaxDP=2.36D-02 DE=-2.32D-02 OVMax= 3.25D-02

 Cycle   5  Pass 1  IDiag  1:
 RMSU=  2.00D-04    CP:  9.52D-01  8.20D-01  7.86D-01  6.05D-01
 E= -973.751931400947     Delta-E=       -0.009654123923 Rises=F Damp=F
 DIIS: error= 9.33D-04 at cycle   5 NSaved=   5.
 NSaved= 5 IEnMin= 5 EnMin= -973.751931400947     IErMin= 5 ErrMin= 9.33D-04
 ErrMax= 9.33D-04  0.00D+00 EMaxC= 1.00D-01 BMatC= 2.37D-04 BMatP= 1.14D-02
 IDIUse=3 WtCom= 9.91D-01 WtEn= 9.33D-03
 Coeff-Com:  0.176D-02-0.195D-02 0.104D+00 0.238D+00 0.659D+00
 Coeff-En:   0.000D+00 0.000D+00 0.000D+00 0.000D+00 0.100D+01
 Coeff:      0.175D-02-0.193D-02 0.103D+00 0.236D+00 0.662D+00
 Gap=     0.146 Goal=   None    Shift=    0.000
 RMSDP=1.03D-04 MaxDP=4.16D-03 DE=-9.65D-03 OVMax= 5.23D-03

 Cycle   6  Pass 1  IDiag  1:
 RMSU=  6.20D-05    CP:  9.52D-01  8.26D-01  7.85D-01  6.53D-01  6.74D-01
 E= -973.752139617099     Delta-E=       -0.000208216152 Rises=F Damp=F
 DIIS: error= 3.63D-04 at cycle   6 NSaved=   6.
 NSaved= 6 IEnMin= 6 EnMin= -973.752139617099     IErMin= 6 ErrMin= 3.63D-04
 ErrMax= 3.63D-04  0.00D+00 EMaxC= 1.00D-01 BMatC= 3.53D-05 BMatP= 2.37D-04
 IDIUse=3 WtCom= 9.96D-01 WtEn= 3.63D-03
 Coeff-Com:  0.239D-03-0.743D-02 0.347D-01 0.981D-01 0.377D+00 0.497D+00
 Coeff-En:   0.000D+00 0.000D+00 0.000D+00 0.000D+00 0.426D-01 0.957D+00
 Coeff:      0.238D-03-0.740D-02 0.346D-01 0.977D-01 0.376D+00 0.499D+00
 Gap=     0.146 Goal=   None    Shift=    0.000
 RMSDP=3.01D-05 MaxDP=9.97D-04 DE=-2.08D-04 OVMax= 2.72D-03

 Cycle   7  Pass 1  IDiag  1:
 RMSU=  1.96D-05    CP:  9.52D-01  8.25D-01  7.87D-01  6.53D-01  7.37D-01
                    CP:  7.06D-01
 E= -973.752175585901     Delta-E=       -0.000035968802 Rises=F Damp=F
 DIIS: error= 1.27D-04 at cycle   7 NSaved=   7.
 NSaved= 7 IEnMin= 7 EnMin= -973.752175585901     IErMin= 7 ErrMin= 1.27D-04
 ErrMax= 1.27D-04  0.00D+00 EMaxC= 1.00D-01 BMatC= 2.85D-06 BMatP= 3.53D-05
 IDIUse=3 WtCom= 9.99D-01 WtEn= 1.27D-03
 Coeff-Com:  0.426D-04-0.394D-02 0.807D-02 0.275D-01 0.134D+00 0.268D+00
 Coeff-Com:  0.566D+00
 Coeff-En:   0.000D+00 0.000D+00 0.000D+00 0.000D+00 0.000D+00 0.000D+00
 Coeff-En:   0.100D+01
 Coeff:      0.425D-04-0.393D-02 0.806D-02 0.275D-01 0.134D+00 0.268D+00
 Coeff:      0.567D+00
 Gap=     0.146 Goal=   None    Shift=    0.000
 RMSDP=7.72D-06 MaxDP=2.32D-04 DE=-3.60D-05 OVMax= 5.20D-04

 Cycle   8  Pass 1  IDiag  1:
 RMSU=  5.10D-06    CP:  9.52D-01  8.25D-01  7.88D-01  6.54D-01  7.41D-01
                    CP:  7.53D-01  7.63D-01
 E= -973.752178630702     Delta-E=       -0.000003044801 Rises=F Damp=F
 DIIS: error= 2.45D-05 at cycle   8 NSaved=   8.
 NSaved= 8 IEnMin= 8 EnMin= -973.752178630702     IErMin= 8 ErrMin= 2.45D-05
 ErrMax= 2.45D-05  0.00D+00 EMaxC= 1.00D-01 BMatC= 1.11D-07 BMatP= 2.85D-06
 IDIUse=1 WtCom= 1.00D+00 WtEn= 0.00D+00
 Coeff-Com:  0.951D-04-0.661D-03-0.190D-03-0.620D-04 0.793D-02 0.396D-01
 Coeff-Com:  0.184D+00 0.769D+00
 Coeff:      0.951D-04-0.661D-03-0.190D-03-0.620D-04 0.793D-02 0.396D-01
 Coeff:      0.184D+00 0.769D+00
 Gap=     0.146 Goal=   None    Shift=    0.000
 RMSDP=2.17D-06 MaxDP=8.43D-05 DE=-3.04D-06 OVMax= 2.73D-04

 Cycle   9  Pass 1  IDiag  1:
 RMSU=  1.57D-06    CP:  9.52D-01  8.25D-01  7.88D-01  6.54D-01  7.45D-01
                    CP:  7.55D-01  8.17D-01  9.54D-01
 E= -973.752178743091     Delta-E=       -0.000000112389 Rises=F Damp=F
 DIIS: error= 8.90D-06 at cycle   9 NSaved=   9.
 NSaved= 9 IEnMin= 9 EnMin= -973.752178743091     IErMin= 9 ErrMin= 8.90D-06
 ErrMax= 8.90D-06  0.00D+00 EMaxC= 1.00D-01 BMatC= 2.23D-08 BMatP= 1.11D-07
 IDIUse=1 WtCom= 1.00D+00 WtEn= 0.00D+00
 Coeff-Com:  0.551D-04-0.124D-03-0.793D-03-0.236D-02-0.659D-02-0.316D-03
 Coeff-Com:  0.433D-01 0.391D+00 0.576D+00
 Coeff:      0.551D-04-0.124D-03-0.793D-03-0.236D-02-0.659D-02-0.316D-03
 Coeff:      0.433D-01 0.391D+00 0.576D+00
 Gap=     0.146 Goal=   None    Shift=    0.000
 RMSDP=7.93D-07 MaxDP=2.68D-05 DE=-1.12D-07 OVMax= 4.51D-05

 Cycle  10  Pass 1  IDiag  1:
 RMSU=  4.13D-07    CP:  9.52D-01  8.25D-01  7.88D-01  6.54D-01  7.44D-01
                    CP:  7.60D-01  8.28D-01  1.01D+00  7.99D-01
 E= -973.752178768164     Delta-E=       -0.000000025073 Rises=F Damp=F
 DIIS: error= 1.80D-06 at cycle  10 NSaved=  10.
 NSaved=10 IEnMin=10 EnMin= -973.752178768164     IErMin=10 ErrMin= 1.80D-06
 ErrMax= 1.80D-06  0.00D+00 EMaxC= 1.00D-01 BMatC= 8.98D-10 BMatP= 2.23D-08
 IDIUse=1 WtCom= 1.00D+00 WtEn= 0.00D+00
 Coeff-Com:  0.146D-04 0.288D-04-0.294D-03-0.972D-03-0.369D-02-0.436D-02
 Coeff-Com: -0.526D-02 0.724D-01 0.190D+00 0.752D+00
 Coeff:      0.146D-04 0.288D-04-0.294D-03-0.972D-03-0.369D-02-0.436D-02
 Coeff:     -0.526D-02 0.724D-01 0.190D+00 0.752D+00
 Gap=     0.146 Goal=   None    Shift=    0.000
 RMSDP=3.19D-07 MaxDP=8.94D-06 DE=-2.51D-08 OVMax= 2.09D-05

 Cycle  11  Pass 1  IDiag  1:
 RMSU=  1.90D-07    CP:  9.52D-01  8.25D-01  7.88D-01  6.54D-01  7.44D-01
                    CP:  7.60D-01  8.29D-01  1.03D+00  8.53D-01  8.57D-01
 E= -973.752178768866     Delta-E=       -0.000000000703 Rises=F Damp=F
 DIIS: error= 1.19D-06 at cycle  11 NSaved=  11.
 NSaved=11 IEnMin=11 EnMin= -973.752178768866     IErMin=11 ErrMin= 1.19D-06
 ErrMax= 1.19D-06  0.00D+00 EMaxC= 1.00D-01 BMatC= 4.30D-10 BMatP= 8.98D-10
 IDIUse=1 WtCom= 1.00D+00 WtEn= 0.00D+00
 Coeff-Com:  0.384D-05 0.215D-04-0.481D-04-0.213D-03-0.105D-02-0.174D-02
 Coeff-Com: -0.651D-02 0.426D-02 0.452D-01 0.460D+00 0.500D+00
 Coeff:      0.384D-05 0.215D-04-0.481D-04-0.213D-03-0.105D-02-0.174D-02
 Coeff:     -0.651D-02 0.426D-02 0.452D-01 0.460D+00 0.500D+00
 Gap=     0.146 Goal=   None    Shift=    0.000
 RMSDP=1.16D-07 MaxDP=3.59D-06 DE=-7.03D-10 OVMax= 1.22D-05

 Cycle  12  Pass 1  IDiag  1:
 RMSU=  5.10D-08    CP:  9.52D-01  8.25D-01  7.88D-01  6.54D-01  7.44D-01
                    CP:  7.61D-01  8.30D-01  1.03D+00  8.55D-01  9.66D-01
                    CP:  6.00D-01
 E= -973.752178769373     Delta-E=       -0.000000000507 Rises=F Damp=F
 DIIS: error= 2.81D-07 at cycle  12 NSaved=  12.
 NSaved=12 IEnMin=12 EnMin= -973.752178769373     IErMin=12 ErrMin= 2.81D-07
 ErrMax= 2.81D-07  0.00D+00 EMaxC= 1.00D-01 BMatC= 1.26D-11 BMatP= 4.30D-10
 IDIUse=1 WtCom= 1.00D+00 WtEn= 0.00D+00
 Coeff-Com:  0.931D-07 0.619D-05 0.112D-05-0.111D-04-0.128D-03-0.326D-03
 Coeff-Com: -0.220D-02-0.460D-02-0.106D-02 0.101D+00 0.189D+00 0.718D+00
 Coeff:      0.931D-07 0.619D-05 0.112D-05-0.111D-04-0.128D-03-0.326D-03
 Coeff:     -0.220D-02-0.460D-02-0.106D-02 0.101D+00 0.189D+00 0.718D+00
 Gap=     0.146 Goal=   None    Shift=    0.000
 RMSDP=2.38D-08 MaxDP=7.06D-07 DE=-5.07D-10 OVMax= 2.53D-06

 Cycle  13  Pass 1  IDiag  1:
 RMSU=  1.66D-08    CP:  9.52D-01  8.25D-01  7.88D-01  6.54D-01  7.44D-01
                    CP:  7.61D-01  8.30D-01  1.03D+00  8.60D-01  9.76D-01
                    CP:  6.53D-01  9.10D-01
 E= -973.752178769401     Delta-E=       -0.000000000028 Rises=F Damp=F
 DIIS: error= 1.22D-07 at cycle  13 NSaved=  13.
 NSaved=13 IEnMin=13 EnMin= -973.752178769401     IErMin=13 ErrMin= 1.22D-07
 ErrMax= 1.22D-07  0.00D+00 EMaxC= 1.00D-01 BMatC= 3.92D-12 BMatP= 1.26D-11
 IDIUse=1 WtCom= 1.00D+00 WtEn= 0.00D+00
 Coeff-Com: -0.527D-06 0.928D-06 0.665D-05 0.205D-04 0.576D-04 0.141D-04
 Coeff-Com: -0.590D-03-0.363D-02-0.685D-02-0.156D-03 0.508D-01 0.426D+00
 Coeff-Com:  0.535D+00
 Coeff:     -0.527D-06 0.928D-06 0.665D-05 0.205D-04 0.576D-04 0.141D-04
 Coeff:     -0.590D-03-0.363D-02-0.685D-02-0.156D-03 0.508D-01 0.426D+00
 Coeff:      0.535D+00
 Gap=     0.146 Goal=   None    Shift=    0.000
 RMSDP=9.16D-09 MaxDP=2.31D-07 DE=-2.75D-11 OVMax= 9.11D-07

 NEqSol: Computing the fast-slow partition of the PCM polarization charges.
 Error on total polarization charges =  0.01282
 SCF Done:  E(RB3LYP) =  -973.752178769     A.U. after   13 cycles
            NFock= 13  Conv=0.92D-08     -V/T= 2.0049
 KE= 9.689595081963D+02 PE=-4.266559081462D+03 EE= 1.332497938725D+03
 Leave Link  502 at Tue Aug 18 20:46:36 2026, MaxMem=  2684354560 cpu:            1106.1 elap:              48.2
 (Enter /mnt/data/applications/G16/g16/l601.exe)
 Copying SCF densities to generalized density rwf, IOpCl= 0 IROHF=0.

 **********************************************************************

            Population analysis using the SCF density.

 **********************************************************************

 Alpha  occ. eigenvalues --  -88.91537 -19.12857 -10.28134 -10.24692 -10.24691
 Alpha  occ. eigenvalues --  -10.21382 -10.21380 -10.21065 -10.21063 -10.20976
 Alpha  occ. eigenvalues --  -10.20975 -10.20536 -10.20536 -10.20243 -10.20242
 Alpha  occ. eigenvalues --   -7.97822  -5.94215  -5.93802  -5.93315  -1.03895
 Alpha  occ. eigenvalues --   -0.89701  -0.87494  -0.82145  -0.78393  -0.77063
 Alpha  occ. eigenvalues --   -0.76426  -0.71999  -0.66216  -0.63473  -0.61169
 Alpha  occ. eigenvalues --   -0.60208  -0.55769  -0.54485  -0.49957  -0.47896
 Alpha  occ. eigenvalues --   -0.47781  -0.47283  -0.44512  -0.44092  -0.43444
 Alpha  occ. eigenvalues --   -0.43101  -0.42782  -0.39795  -0.38769  -0.37816
 Alpha  occ. eigenvalues --   -0.37796  -0.36641  -0.35530  -0.34069  -0.32848
 Alpha  occ. eigenvalues --   -0.27817  -0.27068  -0.27019  -0.26295  -0.22503
 Alpha virt. eigenvalues --   -0.07883  -0.03754  -0.01890  -0.01814   0.01886
 Alpha virt. eigenvalues --    0.05080   0.05822   0.08034   0.09098   0.10285
 Alpha virt. eigenvalues --    0.10696   0.12796   0.13011   0.14672   0.14908
 Alpha virt. eigenvalues --    0.15213   0.17093   0.20174   0.23099   0.24341
 Alpha virt. eigenvalues --    0.25350   0.28093   0.28633   0.28699   0.30705
 Alpha virt. eigenvalues --    0.32239   0.32974   0.38454   0.39226   0.40991
 Alpha virt. eigenvalues --    0.41076   0.42857   0.44744   0.44926   0.45263
 Alpha virt. eigenvalues --    0.45937   0.46458   0.47686   0.47938   0.48032
 Alpha virt. eigenvalues --    0.48143   0.48581   0.49088   0.49915   0.50282
 Alpha virt. eigenvalues --    0.50662   0.51045   0.51210   0.52045   0.52806
 Alpha virt. eigenvalues --    0.55348   0.55790   0.56621   0.57643   0.58670
 Alpha virt. eigenvalues --    0.61419   0.62352   0.62551   0.63019   0.63199
 Alpha virt. eigenvalues --    0.63288   0.64428   0.65736   0.65840   0.66893
 Alpha virt. eigenvalues --    0.68625   0.70198   0.71045   0.72159   0.74461
 Alpha virt. eigenvalues --    0.74688   0.74942   0.79998   0.82477   0.82749
 Alpha virt. eigenvalues --    0.84967   0.86727   0.87253   0.87619   0.89466
 Alpha virt. eigenvalues --    0.90011   0.91166   0.91360   0.92231   0.93481
 Alpha virt. eigenvalues --    0.96574   0.96638   0.96774   0.97630   0.98848
 Alpha virt. eigenvalues --    1.00576   1.01577   1.01671   1.02222   1.03252
 Alpha virt. eigenvalues --    1.04111   1.05116   1.05560   1.07032   1.08666
 Alpha virt. eigenvalues --    1.11896   1.14008   1.15835   1.16264   1.18694
 Alpha virt. eigenvalues --    1.20242   1.20290   1.27550   1.30108   1.32157
 Alpha virt. eigenvalues --    1.34009   1.34645   1.37239   1.40008   1.42884
 Alpha virt. eigenvalues --    1.44516   1.45981   1.46576   1.47041   1.47681
 Alpha virt. eigenvalues --    1.48958   1.49777   1.50406   1.50688   1.50848
 Alpha virt. eigenvalues --    1.54055   1.58581   1.60710   1.60777   1.61594
 Alpha virt. eigenvalues --    1.62389   1.63156   1.63880   1.64419   1.65685
 Alpha virt. eigenvalues --    1.66336   1.67213   1.68809   1.69185   1.72837
 Alpha virt. eigenvalues --    1.73450   1.75055   1.75698   1.77038   1.78334
 Alpha virt. eigenvalues --    1.78528   1.78615   1.79735   1.80418   1.82709
 Alpha virt. eigenvalues --    1.83059   1.83702   1.85187   1.85203   1.86323
 Alpha virt. eigenvalues --    1.90161   1.90836   1.93780   1.94545   1.94722
 Alpha virt. eigenvalues --    1.95930   1.98810   2.00020   2.01328   2.05688
 Alpha virt. eigenvalues --    2.08112   2.12148   2.16176   2.16458   2.17587
 Alpha virt. eigenvalues --    2.19292   2.20702   2.22510   2.28411   2.35026
 Alpha virt. eigenvalues --    2.36049   2.37004   2.38523   2.42208   2.43052
 Alpha virt. eigenvalues --    2.46035   2.54342   2.55459   2.63892   2.64570
 Alpha virt. eigenvalues --    2.69554   2.70167   2.71704   2.74262   2.76120
 Alpha virt. eigenvalues --    2.76840   2.81160   2.81809   2.99349   3.06145
 Alpha virt. eigenvalues --    3.33292   3.42245   3.47374   3.56245
          Condensed to atoms (all electrons):
               1          2          3          4          5          6
     1  C    4.732796   0.505877   0.016634  -0.082775   0.021564   0.443516
     2  C    0.505877   4.748473   0.439477   0.019478  -0.079835   0.010726
     3  C    0.016634   0.439477   5.361255   0.339259  -0.058212  -0.083740
     4  C   -0.082775   0.019478   0.339259   5.430252   0.363571   0.012832
     5  C    0.021564  -0.079835  -0.058212   0.363571   4.912039   0.436849
     6  C    0.443516   0.010726  -0.083740   0.012832   0.436849   4.822711
     7  C   -0.000720   0.007570  -0.060940   0.159005  -0.063035   0.013320
     8  C    0.000020  -0.000250  -0.044939  -0.023187   0.023125  -0.000552
     9  C   -0.000130   0.001705  -0.013502  -0.044938   0.000125   0.000075
    10  C    0.000001  -0.000234   0.001705  -0.000249   0.000042   0.000000
    11  H   -0.000000  -0.000007   0.000420   0.000035  -0.000002   0.000000
    12  C    0.000000   0.000001  -0.000130   0.000020   0.000001  -0.000000
    13  C   -0.000000   0.000000   0.000075  -0.000552  -0.000005   0.000000
    14  C    0.000001   0.000042   0.000126   0.023118  -0.001183  -0.000005
    15  H    0.394857  -0.042771   0.010805  -0.000004   0.009517  -0.050885
    16  H   -0.045259   0.392414  -0.052310   0.012691  -0.000528   0.009941
    17  H    0.010352  -0.001014   0.015145  -0.048299   0.392268  -0.057275
    18  H   -0.051363   0.009425   0.000514   0.009410  -0.042820   0.395530
    19  H    0.000000  -0.000000   0.000003   0.000001   0.000000  -0.000000
    20  H    0.000000   0.000000  -0.000001   0.000002  -0.000000  -0.000000
    21  H    0.000000   0.000002  -0.000189   0.003422  -0.000150  -0.000003
    22  S    0.005093  -0.087075   0.325143  -0.080602   0.007747  -0.000210
    23  O   -0.000002  -0.000069   0.004331  -0.126803   0.014952   0.001430
               7          8          9         10         11         12
     1  C   -0.000720   0.000020  -0.000130   0.000001  -0.000000   0.000000
     2  C    0.007570  -0.000250   0.001705  -0.000234  -0.000007   0.000001
     3  C   -0.060940  -0.044939  -0.013502   0.001705   0.000420  -0.000130
     4  C    0.159005  -0.023187  -0.044938  -0.000249   0.000035   0.000020
     5  C   -0.063035   0.023125   0.000125   0.000042  -0.000002   0.000001
     6  C    0.013320  -0.000552   0.000075   0.000000   0.000000  -0.000000
     7  C    5.089170   0.159032  -0.060965   0.007571  -0.000164  -0.000720
     8  C    0.159032   5.430238   0.339184   0.019470   0.012690  -0.082769
     9  C   -0.060965   0.339184   5.361264   0.439509  -0.052322   0.016618
    10  C    0.007571   0.019470   0.439509   4.748392   0.392396   0.505916
    11  H   -0.000164   0.012690  -0.052322   0.392396   0.711845  -0.045233
    12  C   -0.000720  -0.082769   0.016618   0.505916  -0.045233   4.732899
    13  C    0.013317   0.012840  -0.083746   0.010718   0.009938   0.443448
    14  C   -0.063065   0.363600  -0.058165  -0.079812  -0.000528   0.021556
    15  H    0.000027   0.000001   0.000003  -0.000000  -0.000000   0.000000
    16  H   -0.000164   0.000034   0.000419  -0.000007   0.000010  -0.000000
    17  H   -0.032084   0.003428  -0.000189   0.000002  -0.000000   0.000000
    18  H   -0.000348   0.000002  -0.000001   0.000000   0.000000   0.000000
    19  H    0.000027  -0.000003   0.010805  -0.042737  -0.014958   0.394842
    20  H   -0.000348   0.009409   0.000513   0.009424  -0.000236  -0.051408
    21  H   -0.032066  -0.048270   0.015147  -0.001014   0.000052   0.010353
    22  S   -0.028494  -0.080585   0.325171  -0.087083  -0.007038   0.005094
    23  O    0.787486  -0.126760   0.004333  -0.000069   0.000001  -0.000002
              13         14         15         16         17         18
     1  C   -0.000000   0.000001   0.394857  -0.045259   0.010352  -0.051363
     2  C    0.000000   0.000042  -0.042771   0.392414  -0.001014   0.009425
     3  C    0.000075   0.000126   0.010805  -0.052310   0.015145   0.000514
     4  C   -0.000552   0.023118  -0.000004   0.012691  -0.048299   0.009410
     5  C   -0.000005  -0.001183   0.009517  -0.000528   0.392268  -0.042820
     6  C    0.000000  -0.000005  -0.050885   0.009941  -0.057275   0.395530
     7  C    0.013317  -0.063065   0.000027  -0.000164  -0.032084  -0.000348
     8  C    0.012840   0.363600   0.000001   0.000034   0.003428   0.000002
     9  C   -0.083746  -0.058165   0.000003   0.000419  -0.000189  -0.000001
    10  C    0.010718  -0.079812  -0.000000  -0.000007   0.000002   0.000000
    11  H    0.009938  -0.000528  -0.000000   0.000010  -0.000000   0.000000
    12  C    0.443448   0.021556   0.000000  -0.000000   0.000000   0.000000
    13  C    4.822724   0.436959  -0.000000   0.000000  -0.000003  -0.000000
    14  C    0.436959   4.911753   0.000000  -0.000002  -0.000150  -0.000000
    15  H   -0.000000   0.000000   0.709182  -0.014962  -0.000224  -0.013924
    16  H    0.000000  -0.000002  -0.014962   0.711856   0.000052  -0.000236
    17  H   -0.000003  -0.000150  -0.000224   0.000052   0.733837  -0.014090
    18  H   -0.000000  -0.000000  -0.013924  -0.000236  -0.014090   0.715957
    19  H   -0.050898   0.009512  -0.000000  -0.000000   0.000000   0.000000
    20  H    0.395524  -0.042762   0.000000   0.000000  -0.000000  -0.000000
    21  H   -0.057269   0.392316   0.000000  -0.000000  -0.000065  -0.000000
    22  S   -0.000209   0.007743  -0.000234  -0.007040  -0.000117   0.000030
    23  O    0.001427   0.014951   0.000000   0.000001   0.030346  -0.000010
              19         20         21         22         23
     1  C    0.000000   0.000000   0.000000   0.005093  -0.000002
     2  C   -0.000000   0.000000   0.000002  -0.087075  -0.000069
     3  C    0.000003  -0.000001  -0.000189   0.325143   0.004331
     4  C    0.000001   0.000002   0.003422  -0.080602  -0.126803
     5  C    0.000000  -0.000000  -0.000150   0.007747   0.014952
     6  C   -0.000000  -0.000000  -0.000003  -0.000210   0.001430
     7  C    0.000027  -0.000348  -0.032066  -0.028494   0.787486
     8  C   -0.000003   0.009409  -0.048270  -0.080585  -0.126760
     9  C    0.010805   0.000513   0.015147   0.325171   0.004333
    10  C   -0.042737   0.009424  -0.001014  -0.087083  -0.000069
    11  H   -0.014958  -0.000236   0.000052  -0.007038   0.000001
    12  C    0.394842  -0.051408   0.010353   0.005094  -0.000002
    13  C   -0.050898   0.395524  -0.057269  -0.000209   0.001427
    14  C    0.009512  -0.042762   0.392316   0.007743   0.014951
    15  H   -0.000000   0.000000   0.000000  -0.000234   0.000000
    16  H   -0.000000   0.000000  -0.000000  -0.007040   0.000001
    17  H    0.000000  -0.000000  -0.000065  -0.000117   0.030346
    18  H    0.000000  -0.000000  -0.000000   0.000030  -0.000010
    19  H    0.709156  -0.013916  -0.000224  -0.000234   0.000000
    20  H   -0.013916   0.715945  -0.014097   0.000030  -0.000010
    21  H   -0.000224  -0.014097   0.733695  -0.000117   0.030290
    22  S   -0.000234   0.000030  -0.000117  15.586236  -0.000001
    23  O    0.000000  -0.000010   0.030290  -0.000001   7.628370
 Mulliken charges:
               1
     1  C    0.049537
     2  C    0.076064
     3  C   -0.200929
     4  C    0.034314
     5  C    0.063971
     6  C    0.045740
     7  C    0.106588
     8  C    0.034241
     9  C   -0.200912
    10  C    0.076056
    11  H   -0.006899
    12  C    0.049515
    13  C    0.045712
    14  C    0.063995
    15  H   -0.001387
    16  H   -0.006910
    17  H   -0.031921
    18  H   -0.008077
    19  H   -0.001376
    20  H   -0.008069
    21  H   -0.031815
    22  S    0.116753
    23  O   -0.264192
 Sum of Mulliken charges =  -0.00000
 Mulliken charges with hydrogens summed into heavy atoms:
               1
     1  C    0.048150
     2  C    0.069154
     3  C   -0.200929
     4  C    0.034314
     5  C    0.032050
     6  C    0.037663
     7  C    0.106588
     8  C    0.034241
     9  C   -0.200912
    10  C    0.069156
    12  C    0.048139
    13  C    0.037643
    14  C    0.032181
    22  S    0.116753
    23  O   -0.264192
 Electronic spatial extent (au):  <R**2>=          20058.0329
 Charge=             -0.0000 electrons
 Dipole moment (field-independent basis, Debye):
    X=              1.8458    Y=             -3.1392    Z=              0.0463  Tot=              3.6419
 Quadrupole moment (field-independent basis, Debye-Ang):
   XX=            -96.8629   YY=           -100.5035   ZZ=            -96.8672
   XY=             35.2967   XZ=             -0.2062   YZ=              0.0818
 Traceless Quadrupole moment (field-independent basis, Debye-Ang):
   XX=              1.2150   YY=             -2.4256   ZZ=              1.2106
   XY=             35.2967   XZ=             -0.2062   YZ=              0.0818
 Octapole moment (field-independent basis, Debye-Ang**2):
  XXX=           1593.9628  YYY=           -608.1760  ZZZ=             -2.5359  XYY=            687.3931
  XXY=           -477.8348  XXZ=              0.3616  XZZ=            596.7207  YZZ=           -197.8958
  YYZ=             -0.2222  XYZ=             -0.4236
 Hexadecapole moment (field-independent basis, Debye-Ang**3):
 XXXX=         -21295.8837 YYYY=          -4137.8998 ZZZZ=           -106.3782 XXXY=           5222.0887
 XXXZ=              3.1664 YYYX=           3641.8895 YYYZ=              0.8758 ZZZX=              9.0430
 ZZZY=             -1.3324 XXYY=          -5667.9633 XXZZ=          -4199.0444 YYZZ=           -726.4576
 XXYZ=              2.5348 YYXZ=             -1.4683 ZZXY=           1038.5505
 N-N= 9.913494557716D+02 E-N=-4.266559063871D+03  KE= 9.689595081963D+02

 Atomic contributions to Alpha molecular orbitals:
 Alpha occ 36 OE=-0.478 is C12-p=0.1083 C1-p=0.1083 C13-p=0.1027 C6-p=0.1025
 Alpha occ 37 OE=-0.473 is S22-p=0.0794
 Alpha occ 38 OE=-0.445 is H11-s=0.1000
 Alpha occ 39 OE=-0.441 is C5-p=0.1024 C14-p=0.1023 C2-p=0.1020 C10-p=0.1019
 Alpha occ 40 OE=-0.434 is C7-p=0.2209 O23-p=0.1435 C8-p=0.1140 C4-p=0.1140
 Alpha occ 41 OE=-0.431 is O23-p=0.4137 C7-p=0.1505
 Alpha occ 42 OE=-0.428 is C9-p=0.0880
 Alpha occ 43 OE=-0.398 is H20-s=0.1118 H18-s=0.1118
 Alpha occ 44 OE=-0.388 is C9-p=0.1030 C3-p=0.1029
 Alpha occ 45 OE=-0.378 is O23-p=0.3034 C7-p=0.1787 S22-p=0.1344
 Alpha occ 46 OE=-0.378 is S22-p=0.1512
 Alpha occ 47 OE=-0.366 is C6-p=0.0747
 Alpha occ 48 OE=-0.355 is S22-p=0.0974
 Alpha occ 49 OE=-0.341 is S22-p=0.3315
 Alpha occ 50 OE=-0.328 is S22-p=0.2973 C13-p=0.1334 C6-p=0.1334
 Alpha occ 51 OE=-0.278 is C6-p=0.1474 C13-p=0.1474 C3-p=0.1427 C9-p=0.1426 C14-p=0.1075 C5-p=0.1074
 Alpha occ 52 OE=-0.271 is C12-p=0.1605 C8-p=0.1581 C1-p=0.1563 C4-p=0.1535
 Alpha occ 53 OE=-0.270 is O23-p=0.1913 C4-p=0.1151 C8-p=0.1104 C2-p=0.1012
 Alpha occ 54 OE=-0.263 is O23-p=0.6971
 Alpha occ 55 OE=-0.225 is S22-p=0.3767
 Alpha vir 56 OE=-0.079 is C7-p=0.1959 O23-p=0.1567
 Alpha vir 57 OE=-0.038 is C13-p=0.1364 C6-p=0.1363 C3-p=0.1327 C9-p=0.1326 C4-p=0.1065 C8-p=0.1064
 Alpha vir 58 OE=-0.019 is C2-p=0.1547 C10-p=0.1546 C5-p=0.1499 C14-p=0.1497
 Alpha vir 59 OE=-0.018 is C9-p=0.1290 C3-p=0.1290 C10-p=0.1012 C2-p=0.1011
 Alpha vir 60 OE=0.019 is S22-p=0.4915
 Alpha vir 61 OE=0.051 is C7-p=0.2160 C1-p=0.1305 C12-p=0.1305
 Alpha vir 62 OE=0.058 is H19-s=0.1510 H15-s=0.1509 S22-p=0.1131
 Alpha vir 63 OE=0.080 is H19-s=0.2338 H15-s=0.2336 H20-s=0.2134 H18-s=0.2133
 Alpha vir 64 OE=0.091 is S22-p=0.2384 H11-s=0.1100 H16-s=0.1099 H18-s=0.1061 H20-s=0.1058
 Alpha vir 65 OE=0.103 is H17-s=0.2009 H21-s=0.2001 H16-s=0.1941 H11-s=0.1934 H18-s=0.1213 H20-s=0.1212
 Alpha vir 66 OE=0.107 is H21-s=0.1852 H17-s=0.1848 H11-s=0.1837 H16-s=0.1831 H20-s=0.1154 H18-s=0.1145
 Alpha vir 67 OE=0.128 is H17-s=0.1926 H21-s=0.1924 H16-s=0.1511 H11-s=0.1509
 Alpha vir 68 OE=0.130 is C6-p=0.0949
 Alpha vir 69 OE=0.147 is H19-s=0.2640 H15-s=0.2623 H18-s=0.1488 H20-s=0.1478
 Alpha vir 70 OE=0.149 is H21-s=0.2525 H17-s=0.2502 H16-s=0.1672 H11-s=0.1657
 Alpha vir 71 OE=0.152 is H18-s=0.2027 H20-s=0.2026 H15-s=0.1962 H19-s=0.1958 H16-s=0.1127 H11-s=0.1125 H21-s=0.1112 H17-s=0.1111
 Alpha vir 72 OE=0.171 is C7-p=0.1516 C4-p=0.1366 C8-p=0.1366
 Alpha vir 73 OE=0.202 is C3-p=0.2476 C9-p=0.2475
 Alpha vir 74 OE=0.231 is C4-p=0.1144 C8-p=0.1144 C7-p=0.1002
 Alpha vir 75 OE=0.243 is C7-p=0.2621
 
 No NMR shielding tensors so no spin-rotation constants.
 Leave Link  601 at Tue Aug 18 20:46:36 2026, MaxMem=  2684354560 cpu:               5.0 elap:               0.2
 (Enter /mnt/data/applications/G16/g16/l9999.exe)
 1\1\GINC-KIMIK2201\SP\RB3LYP\Gen\C13H8O1S1\ASOLE\18-Aug-2026\0\\#p b3l
 yp/gen EmpiricalDispersion=GD3BJ pseudo=read scrf=(solvent=acetonitril
 e,pcm,read) nosymm pop=(Orbitals=20)\\Title Card Required\\0,1\C,0,-9.
 14563,-0.38528,0.00813\C,0,-7.75898,-0.46528,0.0198\C,0,-6.9823,0.7096
 1,0.01471\C,0,-7.60777,1.97326,-0.00232\C,0,-9.01825,2.0233,-0.01394\C
 ,0,-9.78353,0.86714,-0.00885\C,0,-6.87858,3.26514,-0.00887\C,0,-5.3952
 2,3.27402,0.0032\C,0,-4.5954,2.11283,0.02055\C,0,-3.19114,2.21987,0.03
 076\H,0,-2.58131,1.31431,0.04407\C,0,-2.58641,3.47032,0.02389\C,0,-3.3
 7033,4.63692,0.00672\C,0,-4.75273,4.53072,-0.00339\H,0,-9.73635,-1.303
 45,0.01227\H,0,-7.2646,-1.43865,0.03295\H,0,-9.48165,3.00982,-0.02705\
 H,0,-10.87301,0.92845,-0.01796\H,0,-1.49685,3.53968,0.03192\H,0,-2.894
 01,5.61871,0.00139\H,0,-5.38901,5.41563,-0.0168\S,0,-5.23591,0.4706,0.
 03097\O,0,-7.50433,4.32945,-0.02457\\Version=AM64L-G16RevA.03\HF=-973.
 7521788\RMSD=9.164e-09\Dipole=0.7261801,-1.2350533,0.0182161\Quadrupol
 e=0.903316,-1.8033798,0.9000638,26.2421942,-0.1533367,0.0608201\PG=C01
  [X(C13H8O1S1)]\\@


 AND THIS OUR LIFE, EXEMPT FROM PUBLIC HAUNT,
 FINDS TONGUES IN TREES, BOOKS IN THE RUNNING BROOKS,
 SERMONS IN STONES, AND GOOD IN EVERYTHING.
 I WOULD NOT CHANGE IT. -- W. SHAKESPEARE
 AS YOU LIKE IT, ACT II, SCENE 1.
 Job cpu time:       0 days  0 hours 19 minutes 37.5 seconds.
 Elapsed time:       0 days  0 hours  0 minutes 51.4 seconds.
 File lengths (MBytes):  RWF=    106 Int=      0 D2E=      0 Chk=      6 Scr=      1
 Normal termination of Gaussian 16 at Tue Aug 18 20:46:36 2026.
