 Entering Gaussian System, Link 0=g16
 Initial command:
 /mnt/data/applications/G16/g16/l1.exe "/scratch/Gau-8914.inp" -scrdir="/scratch/"
 Entering Link 1 = /mnt/data/applications/G16/g16/l1.exe PID=      8915.
  
 Copyright (c) 1988,1990,1992,1993,1995,1998,2003,2009,2016,
            Gaussian, Inc.  All Rights Reserved.
  
 This is part of the Gaussian(R) 16 program.  It is based on
 the Gaussian(R) 09 system (copyright 2009, Gaussian, Inc.),
 the Gaussian(R) 03 system (copyright 2003, Gaussian, Inc.),
 the Gaussian(R) 98 system (copyright 1998, Gaussian, Inc.),
 the Gaussian(R) 94 system (copyright 1995, Gaussian, Inc.),
 the Gaussian 92(TM) system (copyright 1992, Gaussian, Inc.),
 the Gaussian 90(TM) system (copyright 1990, Gaussian, Inc.),
 the Gaussian 88(TM) system (copyright 1988, Gaussian, Inc.),
 the Gaussian 86(TM) system (copyright 1986, Carnegie Mellon
 University), and the Gaussian 82(TM) system (copyright 1983,
 Carnegie Mellon University). Gaussian is a federally registered
 trademark of Gaussian, Inc.
  
 This software contains proprietary and confidential information,
 including trade secrets, belonging to Gaussian, Inc.
  
 This software is provided under written license and may be
 used, copied, transmitted, or stored only in accord with that
 written license.
  
 The following legend is applicable only to US Government
 contracts under FAR:
  
                    RESTRICTED RIGHTS LEGEND
  
 Use, reproduction and disclosure by the US Government is
 subject to restrictions as set forth in subparagraphs (a)
 and (c) of the Commercial Computer Software - Restricted
 Rights clause in FAR 52.227-19.
  
 Gaussian, Inc.
 340 Quinnipiac St., Bldg. 40, Wallingford CT 06492
  
  
 ---------------------------------------------------------------
 Warning -- This program may not be used in any manner that
 competes with the business of Gaussian, Inc. or will provide
 assistance to any competitor of Gaussian, Inc.  The licensee
 of this program is prohibited from giving any competitor of
 Gaussian, Inc. access to this program.  By using this program,
 the user acknowledges that Gaussian, Inc. is engaged in the
 business of creating and licensing software in the field of
 computational chemistry and represents and warrants to the
 licensee that it is not a competitor of Gaussian, Inc. and that
 it will not use this program in any manner prohibited above.
 ---------------------------------------------------------------
  

 Cite this work as:
 Gaussian 16, Revision A.03,
 M. J. Frisch, G. W. Trucks, H. B. Schlegel, G. E. Scuseria, 
 M. A. Robb, J. R. Cheeseman, G. Scalmani, V. Barone, 
 G. A. Petersson, H. Nakatsuji, X. Li, M. Caricato, A. V. Marenich, 
 J. Bloino, B. G. Janesko, R. Gomperts, B. Mennucci, H. P. Hratchian, 
 J. V. Ortiz, A. F. Izmaylov, J. L. Sonnenberg, D. Williams-Young, 
 F. Ding, F. Lipparini, F. Egidi, J. Goings, B. Peng, A. Petrone, 
 T. Henderson, D. Ranasinghe, V. G. Zakrzewski, J. Gao, N. Rega, 
 G. Zheng, W. Liang, M. Hada, M. Ehara, K. Toyota, R. Fukuda, 
 J. Hasegawa, M. Ishida, T. Nakajima, Y. Honda, O. Kitao, H. Nakai, 
 T. Vreven, K. Throssell, J. A. Montgomery, Jr., J. E. Peralta, 
 F. Ogliaro, M. J. Bearpark, J. J. Heyd, E. N. Brothers, K. N. Kudin, 
 V. N. Staroverov, T. A. Keith, R. Kobayashi, J. Normand, 
 K. Raghavachari, A. P. Rendell, J. C. Burant, S. S. Iyengar, 
 J. Tomasi, M. Cossi, J. M. Millam, M. Klene, C. Adamo, R. Cammi, 
 J. W. Ochterski, R. L. Martin, K. Morokuma, O. Farkas, 
 J. B. Foresman, and D. J. Fox, Gaussian, Inc., Wallingford CT, 2016.
 
 ******************************************
 Gaussian 16:  AM64L-G16RevA.03 25-Dec-2016
                18-Aug-2026 
 ******************************************
 %nprocshared=24
 Will use up to   24 processors via shared memory.
 %mem=20GB
 %chk=TX_triplet_eq.chk
 ----------------------------------------------------------------------
 #p b3lyp/gen EmpiricalDispersion=GD3BJ pseudo=read scrf=(solvent=aceto
 nitrile,pcm,read) nosymm pop=(Orbitals=20) geom=checkpoint guess=read
 ----------------------------------------------------------------------
 1/29=2,38=1,40=2,172=1/1;
 2/12=2,15=1,40=1/2;
 3/5=7,11=2,14=-4,16=1,17=8,25=1,30=1,70=2203,72=2,74=-5,116=-2,124=41/1,2,3;
 4/5=1/1;
 5/5=2,38=6,53=2/2;
 6/7=2,8=2,9=2,10=2,28=1,96=20/1;
 99/5=1,9=1/99;
 Leave Link    1 at Tue Aug 18 20:49:33 2026, MaxMem=  2684354560 cpu:               1.8 elap:               0.1
 (Enter /mnt/data/applications/G16/g16/l101.exe)
 -------------------
 Title Card Required
 -------------------
 Structure from the checkpoint file:  "TX_triplet_eq.chk"
 Charge =  0 Multiplicity = 1
 Z-Matrix found in chk file.
 C,0,-9.142056,-0.412361,0.008517
 C,0,-7.750261,-0.470429,0.020042
 C,0,-6.998514,0.716612,0.014503
 C,0,-7.611836,2.012796,-0.002902
 C,0,-9.025711,2.026663,-0.014163
 C,0,-9.768178,0.848712,-0.008577
 C,0,-6.879274,3.266244,-0.009232
 C,0,-5.427838,3.296797,0.002554
 C,0,-4.593596,2.130385,0.020259
 C,0,-3.190839,2.209674,0.030739
 H,0,-2.600982,1.290969,0.044019
 C,0,-2.564476,3.45399,0.024176
 C,0,-3.36172,4.614498,0.007105
 C,0,-4.752044,4.538833,-0.003375
 H,0,-9.73133,-1.32921,0.012734
 H,0,-7.234577,-1.432654,0.033386
 H,0,-9.513422,3.000198,-0.02741
 H,0,-10.858876,0.906971,-0.017667
 H,0,-1.476784,3.522831,0.032195
 H,0,-2.88218,5.595886,0.001945
 H,0,-5.364947,5.438757,-0.016523
 S,0,-5.260722,0.512864,0.030366
 O,0,-7.533138,4.378094,-0.02511
 Recover connectivity data from disk.
 ITRead=  0  0  0  0  0  0  0  0  0  0  0  0  0  0  0  0  0  0  0  0
 ITRead=  0  0  0
 MicOpt= -1 -1 -1 -1 -1 -1 -1 -1 -1 -1 -1 -1 -1 -1 -1 -1 -1 -1 -1 -1
 MicOpt= -1 -1 -1
 NAtoms=     23 NQM=       23 NQMF=       0 NMMI=      0 NMMIF=      0
                NMic=       0 NMicF=      0.
                    Isotopes and Nuclear Properties:
 (Nuclear quadrupole moments (NQMom) in fm**2, nuclear magnetic moments (NMagM)
  in nuclear magnetons)

  Atom         1           2           3           4           5           6           7           8           9          10
 IAtWgt=          12          12          12          12          12          12          12          12          12          12
 AtmWgt=  12.0000000  12.0000000  12.0000000  12.0000000  12.0000000  12.0000000  12.0000000  12.0000000  12.0000000  12.0000000
 NucSpn=           0           0           0           0           0           0           0           0           0           0
 AtZEff=   3.6000000   3.6000000   3.6000000   3.6000000   3.6000000   3.6000000   3.6000000   3.6000000   3.6000000   3.6000000
 NQMom=    0.0000000   0.0000000   0.0000000   0.0000000   0.0000000   0.0000000   0.0000000   0.0000000   0.0000000   0.0000000
 NMagM=    0.0000000   0.0000000   0.0000000   0.0000000   0.0000000   0.0000000   0.0000000   0.0000000   0.0000000   0.0000000
 AtZNuc=   6.0000000   6.0000000   6.0000000   6.0000000   6.0000000   6.0000000   6.0000000   6.0000000   6.0000000   6.0000000

  Atom        11          12          13          14          15          16          17          18          19          20
 IAtWgt=           1          12          12          12           1           1           1           1           1           1
 AtmWgt=   1.0078250  12.0000000  12.0000000  12.0000000   1.0078250   1.0078250   1.0078250   1.0078250   1.0078250   1.0078250
 NucSpn=           1           0           0           0           1           1           1           1           1           1
 AtZEff=   1.0000000   3.6000000   3.6000000   3.6000000   1.0000000   1.0000000   1.0000000   1.0000000   1.0000000   1.0000000
 NQMom=    0.0000000   0.0000000   0.0000000   0.0000000   0.0000000   0.0000000   0.0000000   0.0000000   0.0000000   0.0000000
 NMagM=    2.7928460   0.0000000   0.0000000   0.0000000   2.7928460   2.7928460   2.7928460   2.7928460   2.7928460   2.7928460
 AtZNuc=   1.0000000   6.0000000   6.0000000   6.0000000   1.0000000   1.0000000   1.0000000   1.0000000   1.0000000   1.0000000

  Atom        21          22          23
 IAtWgt=           1          32          16
 AtmWgt=   1.0078250  31.9720718  15.9949146
 NucSpn=           1           0           0
 AtZEff=   1.0000000  13.6000000   5.6000000
 NQMom=    0.0000000   0.0000000   0.0000000
 NMagM=    2.7928460   0.0000000   0.0000000
 AtZNuc=   1.0000000  16.0000000   8.0000000
 Leave Link  101 at Tue Aug 18 20:49:33 2026, MaxMem=  2684354560 cpu:               2.4 elap:               0.1
 (Enter /mnt/data/applications/G16/g16/l202.exe)
                          Input orientation:                          
 ---------------------------------------------------------------------
 Center     Atomic      Atomic             Coordinates (Angstroms)
 Number     Number       Type             X           Y           Z
 ---------------------------------------------------------------------
      1          6           0       -9.142056   -0.412361    0.008517
      2          6           0       -7.750261   -0.470429    0.020042
      3          6           0       -6.998514    0.716612    0.014503
      4          6           0       -7.611836    2.012796   -0.002902
      5          6           0       -9.025711    2.026663   -0.014163
      6          6           0       -9.768178    0.848712   -0.008577
      7          6           0       -6.879274    3.266244   -0.009232
      8          6           0       -5.427838    3.296797    0.002554
      9          6           0       -4.593596    2.130385    0.020259
     10          6           0       -3.190839    2.209674    0.030739
     11          1           0       -2.600982    1.290969    0.044019
     12          6           0       -2.564476    3.453990    0.024176
     13          6           0       -3.361720    4.614498    0.007105
     14          6           0       -4.752044    4.538833   -0.003375
     15          1           0       -9.731330   -1.329210    0.012734
     16          1           0       -7.234577   -1.432654    0.033386
     17          1           0       -9.513422    3.000198   -0.027410
     18          1           0      -10.858876    0.906971   -0.017667
     19          1           0       -1.476784    3.522831    0.032195
     20          1           0       -2.882180    5.595886    0.001945
     21          1           0       -5.364947    5.438757   -0.016523
     22         16           0       -5.260722    0.512864    0.030366
     23          8           0       -7.533138    4.378094   -0.025110
 ---------------------------------------------------------------------
                    Distance matrix (angstroms):
                    1          2          3          4          5
     1  C    0.000000
     2  C    1.393053   0.000000
     3  C    2.422682   1.405070   0.000000
     4  C    2.867593   2.487186   1.434071   0.000000
     5  C    2.441903   2.804177   2.413832   1.413988   0.000000
     6  C    1.408058   2.411004   2.772909   2.450497   1.392428
     7  C    4.318869   3.836952   2.552529   1.451833   2.478664
     8  C    5.249124   4.425601   3.020682   2.533483   3.815522
     9  C    5.210968   4.090082   2.789699   3.020619   4.433462
    10  C    6.503272   5.288799   4.089974   4.425506   5.837914
    11  H    6.759308   5.442258   4.434980   5.062795   6.466976
    12  C    7.629775   6.503341   5.210952   5.249154   6.617121
    13  C    7.660391   6.716840   5.331026   4.983216   6.227209
    14  C    6.617150   5.838027   4.433545   3.815662   4.957353
    15  H    1.089896   2.159211   3.413748   3.957462   3.429359
    16  H    2.163352   1.091781   2.162273   3.466232   3.895805
    17  H    3.432894   3.893102   3.397247   2.142800   1.088948
    18  H    2.165362   3.400315   3.865186   3.430209   2.148073
    19  H    8.616420   7.436584   6.193923   6.318251   7.695906
    20  H    8.676700   7.778092   6.383704   5.933650   7.105110
    21  H    6.964392   6.372561   4.996815   4.097060   5.004357
    22  S    3.990147   2.676710   1.749767   2.789021   4.058166
    23  O    5.053534   4.853592   3.700519   2.366711   2.785161
                    6          7          8          9         10
     6  C    0.000000
     7  C    3.766992   0.000000
     8  C    4.983151   1.451805   0.000000
     9  C    5.331024   2.552522   1.434151   0.000000
    10  C    6.716781   3.836990   2.487327   1.405035   0.000000
    11  H    7.181021   4.712571   3.466436   2.162335   1.091845
    12  C    7.660409   4.319010   2.867755   2.422658   1.393089
    13  C    7.431292   3.767126   2.450551   2.772816   2.411003
    14  C    6.227248   2.478835   1.413997   2.413770   2.804194
    15  H    2.178338   5.408595   6.318235   6.193962   7.436535
    16  H    3.409623   4.712505   5.062901   4.435110   5.442277
    17  H    2.166598   2.647611   4.096445   4.996352   6.372077
    18  H    1.092291   4.626389   5.933620   6.383723   7.778057
    19  H    8.712049   5.408738   3.957625   3.413732   2.159252
    20  H    8.363775   4.626458   3.430187   3.865097   3.400372
    21  H    6.360583   2.648217   2.142968   3.397302   3.893065
    22  S    4.520118   3.194116   2.789083   1.749724   2.676486
    23  O    4.177585   1.289961   2.366909   3.700697   4.853939
                   11         12         13         14         15
    11  H    0.000000
    12  C    2.163420   0.000000
    13  C    3.409682   1.408073   0.000000
    14  C    3.895887   2.441945   1.392421   0.000000
    15  H    7.596590   8.616434   8.712039   7.695939   0.000000
    16  H    5.374797   6.759380   7.181070   6.467069   2.498980
    17  H    7.120983   6.963938   6.360078   5.003868   4.335074
    18  H    8.267047   8.676758   8.363834   7.105211   2.504554
    19  H    2.499034   1.089898   2.178382   3.429410   9.574978
    20  H    4.314296   2.165444   1.092295   2.147971   9.740017
    21  H    4.984708   3.432724   2.166306   1.088892   8.054287
    22  S    2.771254   3.989988   4.519972   4.058118   4.835275
    23  O    5.819045   5.054107   4.178236   2.785820   6.116110
                   16         17         18         19         20
    16  H    0.000000
    17  H    4.984677   0.000000
    18  H    4.314162   2.488361   0.000000
    19  H    7.596645   8.053834   9.740065   0.000000
    20  H    8.267087   7.121224   9.252783   2.504718   0.000000
    21  H    7.121397   4.812124   7.121822   4.334854   2.487803
    22  S    2.771489   4.927030   5.612215   4.835090   5.612075
    23  O    5.818707   2.412494   4.807212   6.116713   4.807823
                   21         22         23
    21  H    0.000000
    22  S    4.927219   0.000000
    23  O    2.413738   4.484078   0.000000
 Symmetry turned off by external request.
 Stoichiometry    C13H8OS
 Framework group  C1[X(C13H8OS)]
 Deg. of freedom    63
 Full point group                 C1      NOp   1
 Rotational constants (GHZ):           1.2153855           0.4223181           0.3134141
 Leave Link  202 at Tue Aug 18 20:49:33 2026, MaxMem=  2684354560 cpu:               1.6 elap:               0.1
 (Enter /mnt/data/applications/G16/g16/l301.exe)
 General basis read from cards:  (5D, 7F)
 Centers:       1      2      3      4      5      6      7      8      9     10
 Centers:      12     13     14     22     23     11     15     16     17     18
 Centers:      19     20     21
 cc-pVDZ
 ****
 ======================================================================================================
                                       Pseudopotential Parameters
 ======================================================================================================
  Center     Atomic      Valence      Angular      Power
  Number     Number     Electrons     Momentum     of R      Exponent        Coefficient   SO-Coeffient
 ======================================================================================================
    1          6
                                   No pseudopotential on this center.
    2          6
                                   No pseudopotential on this center.
    3          6
                                   No pseudopotential on this center.
    4          6
                                   No pseudopotential on this center.
    5          6
                                   No pseudopotential on this center.
    6          6
                                   No pseudopotential on this center.
    7          6
                                   No pseudopotential on this center.
    8          6
                                   No pseudopotential on this center.
    9          6
                                   No pseudopotential on this center.
   10          6
                                   No pseudopotential on this center.
   11          1
                                   No pseudopotential on this center.
   12          6
                                   No pseudopotential on this center.
   13          6
                                   No pseudopotential on this center.
   14          6
                                   No pseudopotential on this center.
   15          1
                                   No pseudopotential on this center.
   16          1
                                   No pseudopotential on this center.
   17          1
                                   No pseudopotential on this center.
   18          1
                                   No pseudopotential on this center.
   19          1
                                   No pseudopotential on this center.
   20          1
                                   No pseudopotential on this center.
   21          1
                                   No pseudopotential on this center.
   22         16
                                   No pseudopotential on this center.
   23          8
                                   No pseudopotential on this center.
 ======================================================================================================
 Ernie: Thresh=  0.10000D-02 Tol=  0.10000D-05 Strict=F.
 Ernie:  38 primitive shells out of 398 were deleted.
   254 basis functions,   589 primitive gaussians,   269 cartesian basis functions
    55 alpha electrons       55 beta electrons
       nuclear repulsion energy       990.5043822310 Hartrees.
 IExCor=  402 DFT=T Ex+Corr=B3LYP ExCW=0 ScaHFX=  0.200000
 ScaDFX=  0.800000  0.720000  1.000000  0.810000 ScalE2=  1.000000  1.000000
 IRadAn=      5 IRanWt=     -1 IRanGd=            0 ICorTp=0 IEmpDi=141
 NAtoms=   23 NActive=   23 NUniq=   23 SFac= 1.00D+00 NAtFMM=   60 NAOKFM=F Big=F
 Integral buffers will be    131072 words long.
 Raffenetti 2 integral format.
 Two-electron integral symmetry is turned off.
 R6Disp:  Grimme-D3(BJ) Dispersion energy=       -0.0580984186 Hartrees.
 Nuclear repulsion after empirical dispersion term =      990.4462838125 Hartrees.
 Using the following non-standard input for PCM:
 NonEq=read
 --- end of non-standard input.
 ------------------------------------------------------------------------------
 Polarizable Continuum Model (PCM)
 =================================
 Model                : PCM.
 Atomic radii         : UFF (Universal Force Field).
 Polarization charges : Total charges.
 Charge compensation  : None.
 Solution method      : On-the-fly selection.
 Cavity type          : Scaled VdW (van der Waals Surface) (Alpha=1.100).
 Cavity algorithm     : GePol (No added spheres)
                        Default sphere list used, NSphG=   23.
                        Lebedev-Laikov grids with approx.  5.0 points / Ang**2.
                        Smoothing algorithm: York/Karplus (Gamma=1.0000).
                        Polarization charges: spherical gaussians, with
                                              point-specific exponents (IZeta= 3).
                        Self-potential: point-specific (ISelfS= 7).
                        Self-field    : sphere-specific E.n sum rule (ISelfD= 2).
 Solvent              : Acetonitrile, Eps=  35.688000 Eps(inf)=   1.806874
 ------------------------------------------------------------------------------
 GePol: Number of generator spheres                  =      23
 GePol: Total number of spheres                      =      23
 GePol: Number of exposed spheres                    =      23 (100.00%)
 GePol: Number of points                             =    1988
 GePol: Average weight of points                     =       0.13
 GePol: Minimum weight of points                     =   0.12D-11
 GePol: Maximum weight of points                     =    0.20577
 GePol: Number of points with low weight             =      97
 GePol: Fraction of low-weight points (<1% of avg)   =       4.88%
 GePol: Cavity surface area                          =    256.571 Ang**2
 GePol: Cavity volume                                =    277.431 Ang**3
 Leave Link  301 at Tue Aug 18 20:49:33 2026, MaxMem=  2684354560 cpu:               2.4 elap:               0.1
 (Enter /mnt/data/applications/G16/g16/l302.exe)
 NPDir=0 NMtPBC=     1 NCelOv=     1 NCel=       1 NClECP=     1 NCelD=      1
         NCelK=      1 NCelE2=     1 NClLst=     1 CellRange=     0.0.
 One-electron integrals computed using PRISM.
   1 Symmetry operations used in ECPInt.
 ECPInt:  NShTT=    6786 NPrTT=   65756 LenC2=    6456 LenP2D=   34284.
 LDataN:  DoStor=T MaxTD1= 4 Len=   56
 NBasis=   254 RedAO= T EigKep=  2.46D-04  NBF=   254
 NBsUse=   254 1.00D-06 EigRej= -1.00D+00 NBFU=   254
 Precomputing XC quadrature grid using
 IXCGrd= 4 IRadAn=           5 IRanWt=          -1 IRanGd=           0 AccXCQ= 0.00D+00.
 Generated NRdTot=       0 NPtTot=           0 NUsed=           0 NTot=          32
 NSgBfM=   268   268   268   268   268 MxSgAt=    23 MxSgA2=    23.
 Leave Link  302 at Tue Aug 18 20:49:34 2026, MaxMem=  2684354560 cpu:               8.3 elap:               0.4
 (Enter /mnt/data/applications/G16/g16/l303.exe)
 DipDrv:  MaxL=1.
 Leave Link  303 at Tue Aug 18 20:49:34 2026, MaxMem=  2684354560 cpu:               1.6 elap:               0.1
 (Enter /mnt/data/applications/G16/g16/l401.exe)
 Initial guess from the checkpoint file:  "TX_triplet_eq.chk"
 B after Tr=     0.000000    0.000000    0.000000
         Rot=    1.000000    0.000000    0.000000    0.000000 Ang=   0.00 deg.
 Guess basis will be translated and rotated to current coordinates.
 JPrj=2 DoOrth=T DoCkMO=T.
 Initial guess <Sx>= 0.0000 <Sy>= 0.0000 <Sz>= 0.0000 <S**2>= 0.0405 S= 0.0390
 Leave Link  401 at Tue Aug 18 20:49:34 2026, MaxMem=  2684354560 cpu:               9.0 elap:               0.4
 (Enter /mnt/data/applications/G16/g16/l502.exe)
 Two-electron integral symmetry not used.
 UHF open shell SCF:
 Using DIIS extrapolation, IDIIS=  1040.
 NGot=  2684354560 LenX=  2684201198 LenY=  2684128396
 Requested convergence on RMS density matrix=1.00D-08 within 128 cycles.
 Requested convergence on MAX density matrix=1.00D-06.
 Requested convergence on             energy=1.00D-06.
 No special actions if energy rises.
 Fock matrices will be formed incrementally for  20 cycles.

 Cycle   1  Pass 1  IDiag  1:
 FoFJK:  IHMeth= 1 ICntrl=       0 DoSepK=F KAlg= 0 I1Cent=           0 FoldK=F
 IRaf= 890000000 NMat=       1 IRICut=       1 DoRegI=T DoRafI=F ISym2E= 0 IDoP0=0 IntGTp=1.
 FoFCou: FMM=F IPFlag=           0 FMFlag=      100000 FMFlg1=           0
         NFxFlg=           0 DoJE=F BraDBF=F KetDBF=F FulRan=T
         wScrn=  0.000000 ICntrl=         0 IOpCl=  1 I1Cent=           0 NGrid=           0
         NMat0=    1 NMatS0=      1 NMatT0=    0 NMatD0=    1 NMtDS0=    0 NMtDT0=    0
 Symmetry not used in FoFCou.
 Inv3:  Mode=1 IEnd=    11856432.
 Iteration    1 A*A^-1 deviation from unit magnitude is 2.22D-15 for    205.
 Iteration    1 A*A^-1 deviation from orthogonality  is 1.54D-15 for   1150    238.
 Iteration    1 A^-1*A deviation from unit magnitude is 2.22D-15 for    250.
 Iteration    1 A^-1*A deviation from orthogonality  is 1.88D-15 for   1698    356.
 NEqPCM:  Using non-equilibrium solvation (IEInf=1, Eps=  35.6880, EpsInf=   1.8069)
 Inv3:  Mode=1 IEnd=    11856432.
 Iteration    1 A*A^-1 deviation from unit magnitude is 3.00D-15 for   1015.
 Iteration    1 A*A^-1 deviation from orthogonality  is 1.85D-15 for   1249    221.
 Iteration    1 A^-1*A deviation from unit magnitude is 2.78D-15 for   1015.
 Iteration    1 A^-1*A deviation from orthogonality  is 1.62D-15 for   1350    568.
 E= -973.728289092591    
 DIIS: error= 6.31D-03 at cycle   1 NSaved=   1.
 NSaved= 1 IEnMin= 1 EnMin= -973.728289092591     IErMin= 1 ErrMin= 6.31D-03
 ErrMax= 6.31D-03  0.00D+00 EMaxC= 1.00D-01 BMatC= 4.41D-02 BMatP= 4.41D-02
 IDIUse=3 WtCom= 9.37D-01 WtEn= 6.31D-02
 Coeff-Com:  0.100D+01
 Coeff-En:   0.100D+01
 Coeff:      0.100D+01
 Gap=     0.107 Goal=   None    Shift=    0.000
 Gap=     0.113 Goal=   None    Shift=    0.000
 GapD=    0.107 DampG=1.000 DampE=1.000 DampFc=1.0000 IDamp=-1.
 RMSDP=1.59D-03 MaxDP=9.38D-02              OVMax= 2.05D-01

 Cycle   2  Pass 1  IDiag  1:
 RMSU=  1.59D-03    CP:  9.95D-01
 E= -973.703936400571     Delta-E=        0.024352692019 Rises=F Damp=F
 DIIS: error= 1.02D-02 at cycle   2 NSaved=   2.
 NSaved= 2 IEnMin= 1 EnMin= -973.728289092591     IErMin= 1 ErrMin= 6.31D-03
 ErrMax= 1.02D-02  0.00D+00 EMaxC= 1.00D-01 BMatC= 1.25D-01 BMatP= 4.41D-02
 IDIUse=2 WtCom= 0.00D+00 WtEn= 1.00D+00
 Coeff-En:   0.701D+00 0.299D+00
 Coeff:      0.701D+00 0.299D+00
 Gap=     0.127 Goal=   None    Shift=    0.000
 Gap=     0.130 Goal=   None    Shift=    0.000
 RMSDP=8.66D-04 MaxDP=4.18D-02 DE= 2.44D-02 OVMax= 1.25D-01

 Cycle   3  Pass 1  IDiag  1:
 RMSU=  2.73D-04    CP:  9.98D-01  4.85D-01
 E= -973.743401471000     Delta-E=       -0.039465070429 Rises=F Damp=F
 DIIS: error= 2.59D-03 at cycle   3 NSaved=   3.
 NSaved= 3 IEnMin= 3 EnMin= -973.743401471000     IErMin= 3 ErrMin= 2.59D-03
 ErrMax= 2.59D-03  0.00D+00 EMaxC= 1.00D-01 BMatC= 3.85D-03 BMatP= 4.41D-02
 IDIUse=3 WtCom= 9.74D-01 WtEn= 2.59D-02
 Coeff-Com:  0.286D+00 0.848D-01 0.629D+00
 Coeff-En:   0.000D+00 0.000D+00 0.100D+01
 Coeff:      0.279D+00 0.826D-01 0.639D+00
 Gap=     0.134 Goal=   None    Shift=    0.000
 Gap=     0.135 Goal=   None    Shift=    0.000
 RMSDP=1.94D-04 MaxDP=1.09D-02 DE=-3.95D-02 OVMax= 1.70D-02

 Cycle   4  Pass 1  IDiag  1:
 RMSU=  1.74D-04    CP:  9.97D-01  4.32D-01  9.52D-01
 E= -973.744374674221     Delta-E=       -0.000973203221 Rises=F Damp=F
 DIIS: error= 1.87D-03 at cycle   4 NSaved=   4.
 NSaved= 4 IEnMin= 4 EnMin= -973.744374674221     IErMin= 4 ErrMin= 1.87D-03
 ErrMax= 1.87D-03  0.00D+00 EMaxC= 1.00D-01 BMatC= 1.17D-03 BMatP= 3.85D-03
 IDIUse=3 WtCom= 9.81D-01 WtEn= 1.87D-02
 Coeff-Com: -0.332D-01-0.696D-01 0.439D+00 0.664D+00
 Coeff-En:   0.000D+00 0.000D+00 0.412D-01 0.959D+00
 Coeff:     -0.325D-01-0.683D-01 0.432D+00 0.669D+00
 Gap=     0.135 Goal=   None    Shift=    0.000
 Gap=     0.135 Goal=   None    Shift=    0.000
 RMSDP=1.37D-04 MaxDP=1.13D-02 DE=-9.73D-04 OVMax= 1.66D-02

 Cycle   5  Pass 1  IDiag  1:
 RMSU=  9.34D-05    CP:  9.98D-01  4.22D-01  1.23D+00  6.64D-01
 E= -973.744709938388     Delta-E=       -0.000335264166 Rises=F Damp=F
 DIIS: error= 1.24D-03 at cycle   5 NSaved=   5.
 NSaved= 5 IEnMin= 5 EnMin= -973.744709938388     IErMin= 5 ErrMin= 1.24D-03
 ErrMax= 1.24D-03  0.00D+00 EMaxC= 1.00D-01 BMatC= 3.40D-04 BMatP= 1.17D-03
 IDIUse=3 WtCom= 9.88D-01 WtEn= 1.24D-02
 Coeff-Com: -0.765D-01-0.647D-01 0.192D+00 0.469D+00 0.480D+00
 Coeff-En:   0.000D+00 0.000D+00 0.000D+00 0.000D+00 0.100D+01
 Coeff:     -0.755D-01-0.639D-01 0.190D+00 0.464D+00 0.486D+00
 Gap=     0.134 Goal=   None    Shift=    0.000
 Gap=     0.135 Goal=   None    Shift=    0.000
 RMSDP=6.41D-05 MaxDP=5.53D-03 DE=-3.35D-04 OVMax= 7.54D-03

 Cycle   6  Pass 1  IDiag  1:
 RMSU=  4.02D-05    CP:  9.98D-01  4.31D-01  1.28D+00  8.72D-01  7.07D-01
 E= -973.744814089224     Delta-E=       -0.000104150836 Rises=F Damp=F
 DIIS: error= 5.44D-04 at cycle   6 NSaved=   6.
 NSaved= 6 IEnMin= 6 EnMin= -973.744814089224     IErMin= 6 ErrMin= 5.44D-04
 ErrMax= 5.44D-04  0.00D+00 EMaxC= 1.00D-01 BMatC= 4.86D-05 BMatP= 3.40D-04
 IDIUse=3 WtCom= 9.95D-01 WtEn= 5.44D-03
 Coeff-Com: -0.243D-01-0.438D-02-0.606D-01-0.511D-03 0.253D+00 0.837D+00
 Coeff-En:   0.000D+00 0.000D+00 0.000D+00 0.000D+00 0.000D+00 0.100D+01
 Coeff:     -0.242D-01-0.436D-02-0.603D-01-0.508D-03 0.251D+00 0.838D+00
 Gap=     0.134 Goal=   None    Shift=    0.000
 Gap=     0.135 Goal=   None    Shift=    0.000
 RMSDP=3.67D-05 MaxDP=3.91D-03 DE=-1.04D-04 OVMax= 5.03D-03

 Cycle   7  Pass 1  IDiag  1:
 RMSU=  1.77D-05    CP:  9.98D-01  4.33D-01  1.33D+00  9.29D-01  9.89D-01
                    CP:  1.19D+00
 E= -973.744849429290     Delta-E=       -0.000035340067 Rises=F Damp=F
 DIIS: error= 2.26D-04 at cycle   7 NSaved=   7.
 NSaved= 7 IEnMin= 7 EnMin= -973.744849429290     IErMin= 7 ErrMin= 2.26D-04
 ErrMax= 2.26D-04  0.00D+00 EMaxC= 1.00D-01 BMatC= 2.11D-05 BMatP= 4.86D-05
 IDIUse=3 WtCom= 9.98D-01 WtEn= 2.26D-03
 Coeff-Com:  0.129D-01 0.209D-01-0.110D+00-0.166D+00 0.665D-02 0.566D+00
 Coeff-Com:  0.670D+00
 Coeff-En:   0.000D+00 0.000D+00 0.000D+00 0.000D+00 0.000D+00 0.000D+00
 Coeff-En:   0.100D+01
 Coeff:      0.129D-01 0.209D-01-0.110D+00-0.166D+00 0.663D-02 0.564D+00
 Coeff:      0.671D+00
 Gap=     0.134 Goal=   None    Shift=    0.000
 Gap=     0.135 Goal=   None    Shift=    0.000
 RMSDP=2.25D-05 MaxDP=2.23D-03 DE=-3.53D-05 OVMax= 3.02D-03

 Cycle   8  Pass 1  IDiag  1:
 RMSU=  1.17D-05    CP:  9.98D-01  4.35D-01  1.35D+00  9.68D-01  1.08D+00
                    CP:  1.53D+00  1.01D+00
 E= -973.744863758975     Delta-E=       -0.000014329684 Rises=F Damp=F
 DIIS: error= 8.78D-05 at cycle   8 NSaved=   8.
 NSaved= 8 IEnMin= 8 EnMin= -973.744863758975     IErMin= 8 ErrMin= 8.78D-05
 ErrMax= 8.78D-05  0.00D+00 EMaxC= 1.00D-01 BMatC= 3.40D-06 BMatP= 2.11D-05
 IDIUse=1 WtCom= 1.00D+00 WtEn= 0.00D+00
 Coeff-Com:  0.116D-01 0.902D-02-0.295D-01-0.693D-01-0.699D-01-0.387D-03
 Coeff-Com:  0.291D+00 0.858D+00
 Coeff:      0.116D-01 0.902D-02-0.295D-01-0.693D-01-0.699D-01-0.387D-03
 Coeff:      0.291D+00 0.858D+00
 Gap=     0.135 Goal=   None    Shift=    0.000
 Gap=     0.135 Goal=   None    Shift=    0.000
 RMSDP=1.35D-05 MaxDP=1.25D-03 DE=-1.43D-05 OVMax= 1.76D-03

 Cycle   9  Pass 1  IDiag  1:
 RMSU=  6.49D-06    CP:  9.98D-01  4.35D-01  1.36D+00  9.91D-01  1.14D+00
                    CP:  1.70D+00  1.32D+00  1.06D+00
 E= -973.744866967195     Delta-E=       -0.000003208221 Rises=F Damp=F
 DIIS: error= 4.96D-05 at cycle   9 NSaved=   9.
 NSaved= 9 IEnMin= 9 EnMin= -973.744866967195     IErMin= 9 ErrMin= 4.96D-05
 ErrMax= 4.96D-05  0.00D+00 EMaxC= 1.00D-01 BMatC= 1.73D-06 BMatP= 3.40D-06
 IDIUse=1 WtCom= 1.00D+00 WtEn= 0.00D+00
 Coeff-Com:  0.441D-02 0.562D-03 0.811D-02-0.376D-02-0.505D-01-0.140D+00
 Coeff-Com:  0.198D-01 0.569D+00 0.592D+00
 Coeff:      0.441D-02 0.562D-03 0.811D-02-0.376D-02-0.505D-01-0.140D+00
 Coeff:      0.198D-01 0.569D+00 0.592D+00
 Gap=     0.135 Goal=   None    Shift=    0.000
 Gap=     0.135 Goal=   None    Shift=    0.000
 RMSDP=5.99D-06 MaxDP=4.97D-04 DE=-3.21D-06 OVMax= 7.54D-04

 Cycle  10  Pass 1  IDiag  1:
 RMSU=  2.56D-06    CP:  9.98D-01  4.35D-01  1.37D+00  9.95D-01  1.17D+00
                    CP:  1.76D+00  1.44D+00  1.32D+00  7.84D-01
 E= -973.744867875908     Delta-E=       -0.000000908713 Rises=F Damp=F
 DIIS: error= 1.84D-05 at cycle  10 NSaved=  10.
 NSaved=10 IEnMin=10 EnMin= -973.744867875908     IErMin=10 ErrMin= 1.84D-05
 ErrMax= 1.84D-05  0.00D+00 EMaxC= 1.00D-01 BMatC= 1.87D-07 BMatP= 1.73D-06
 IDIUse=1 WtCom= 1.00D+00 WtEn= 0.00D+00
 Coeff-Com: -0.845D-03-0.197D-02 0.113D-01 0.151D-01-0.650D-02-0.634D-01
 Coeff-Com: -0.580D-01 0.520D-01 0.256D+00 0.796D+00
 Coeff:     -0.845D-03-0.197D-02 0.113D-01 0.151D-01-0.650D-02-0.634D-01
 Coeff:     -0.580D-01 0.520D-01 0.256D+00 0.796D+00
 Gap=     0.135 Goal=   None    Shift=    0.000
 Gap=     0.135 Goal=   None    Shift=    0.000
 RMSDP=2.57D-06 MaxDP=1.85D-04 DE=-9.09D-07 OVMax= 3.35D-04

 Cycle  11  Pass 1  IDiag  1:
 RMSU=  1.21D-06    CP:  9.98D-01  4.35D-01  1.37D+00  9.98D-01  1.17D+00
                    CP:  1.79D+00  1.49D+00  1.40D+00  9.60D-01  1.12D+00
 E= -973.744868027511     Delta-E=       -0.000000151603 Rises=F Damp=F
 DIIS: error= 1.24D-05 at cycle  11 NSaved=  11.
 NSaved=11 IEnMin=11 EnMin= -973.744868027511     IErMin=11 ErrMin= 1.24D-05
 ErrMax= 1.24D-05  0.00D+00 EMaxC= 1.00D-01 BMatC= 4.93D-08 BMatP= 1.87D-07
 IDIUse=1 WtCom= 1.00D+00 WtEn= 0.00D+00
 Coeff-Com: -0.122D-02-0.944D-03 0.349D-02 0.705D-02 0.671D-02-0.258D-02
 Coeff-Com: -0.273D-01-0.828D-01 0.465D-02 0.362D+00 0.731D+00
 Coeff:     -0.122D-02-0.944D-03 0.349D-02 0.705D-02 0.671D-02-0.258D-02
 Coeff:     -0.273D-01-0.828D-01 0.465D-02 0.362D+00 0.731D+00
 Gap=     0.135 Goal=   None    Shift=    0.000
 Gap=     0.135 Goal=   None    Shift=    0.000
 RMSDP=1.12D-06 MaxDP=6.11D-05 DE=-1.52D-07 OVMax= 1.61D-04

 Cycle  12  Pass 1  IDiag  1:
 RMSU=  6.42D-07    CP:  9.98D-01  4.35D-01  1.37D+00  9.99D-01  1.17D+00
                    CP:  1.80D+00  1.51D+00  1.43D+00  1.01D+00  1.33D+00
                    CP:  1.16D+00
 E= -973.744868070583     Delta-E=       -0.000000043072 Rises=F Damp=F
 DIIS: error= 7.14D-06 at cycle  12 NSaved=  12.
 NSaved=12 IEnMin=12 EnMin= -973.744868070583     IErMin=12 ErrMin= 7.14D-06
 ErrMax= 7.14D-06  0.00D+00 EMaxC= 1.00D-01 BMatC= 1.43D-08 BMatP= 4.93D-08
 IDIUse=1 WtCom= 1.00D+00 WtEn= 0.00D+00
 Coeff-Com: -0.250D-03 0.267D-03-0.225D-02-0.186D-02 0.513D-02 0.203D-01
 Coeff-Com:  0.749D-02-0.545D-01-0.866D-01-0.115D+00 0.302D+00 0.925D+00
 Coeff:     -0.250D-03 0.267D-03-0.225D-02-0.186D-02 0.513D-02 0.203D-01
 Coeff:      0.749D-02-0.545D-01-0.866D-01-0.115D+00 0.302D+00 0.925D+00
 Gap=     0.135 Goal=   None    Shift=    0.000
 Gap=     0.135 Goal=   None    Shift=    0.000
 RMSDP=8.95D-07 MaxDP=3.67D-05 DE=-4.31D-08 OVMax= 1.23D-04

 Cycle  13  Pass 1  IDiag  1:
 RMSU=  3.71D-07    CP:  9.98D-01  4.35D-01  1.37D+00  9.99D-01  1.18D+00
                    CP:  1.80D+00  1.52D+00  1.45D+00  1.06D+00  1.50D+00
                    CP:  1.52D+00  1.27D+00
 E= -973.744868091653     Delta-E=       -0.000000021069 Rises=F Damp=F
 DIIS: error= 3.63D-06 at cycle  13 NSaved=  13.
 NSaved=13 IEnMin=13 EnMin= -973.744868091653     IErMin=13 ErrMin= 3.63D-06
 ErrMax= 3.63D-06  0.00D+00 EMaxC= 1.00D-01 BMatC= 4.19D-09 BMatP= 1.43D-08
 IDIUse=1 WtCom= 1.00D+00 WtEn= 0.00D+00
 Coeff-Com:  0.362D-03 0.457D-03-0.217D-02-0.323D-02-0.541D-03 0.905D-02
 Coeff-Com:  0.122D-01 0.904D-02-0.363D-01-0.178D+00-0.145D+00 0.366D+00
 Coeff-Com:  0.968D+00
 Coeff:      0.362D-03 0.457D-03-0.217D-02-0.323D-02-0.541D-03 0.905D-02
 Coeff:      0.122D-01 0.904D-02-0.363D-01-0.178D+00-0.145D+00 0.366D+00
 Coeff:      0.968D+00
 Gap=     0.135 Goal=   None    Shift=    0.000
 Gap=     0.135 Goal=   None    Shift=    0.000
 RMSDP=6.04D-07 MaxDP=2.57D-05 DE=-2.11D-08 OVMax= 8.13D-05

 Cycle  14  Pass 1  IDiag  1:
 RMSU=  1.88D-07    CP:  9.98D-01  4.35D-01  1.37D+00  9.99D-01  1.18D+00
                    CP:  1.81D+00  1.53D+00  1.46D+00  1.08D+00  1.61D+00
                    CP:  1.77D+00  1.72D+00  1.34D+00
 E= -973.744868098808     Delta-E=       -0.000000007155 Rises=F Damp=F
 DIIS: error= 1.45D-06 at cycle  14 NSaved=  14.
 NSaved=14 IEnMin=14 EnMin= -973.744868098808     IErMin=14 ErrMin= 1.45D-06
 ErrMax= 1.45D-06  0.00D+00 EMaxC= 1.00D-01 BMatC= 5.77D-10 BMatP= 4.19D-09
 IDIUse=1 WtCom= 1.00D+00 WtEn= 0.00D+00
 Coeff-Com:  0.110D-03-0.364D-04 0.360D-03 0.121D-03-0.138D-02-0.453D-02
 Coeff-Com: -0.667D-03 0.156D-01 0.205D-01 0.770D-02-0.987D-01-0.220D+00
 Coeff-Com:  0.136D+00 0.115D+01
 Coeff:      0.110D-03-0.364D-04 0.360D-03 0.121D-03-0.138D-02-0.453D-02
 Coeff:     -0.667D-03 0.156D-01 0.205D-01 0.770D-02-0.987D-01-0.220D+00
 Coeff:      0.136D+00 0.115D+01
 Gap=     0.135 Goal=   None    Shift=    0.000
 Gap=     0.135 Goal=   None    Shift=    0.000
 RMSDP=2.91D-07 MaxDP=1.35D-05 DE=-7.15D-09 OVMax= 3.95D-05

 Cycle  15  Pass 1  IDiag  1:
 RMSU=  6.81D-08    CP:  9.98D-01  4.35D-01  1.37D+00  9.99D-01  1.18D+00
                    CP:  1.81D+00  1.53D+00  1.47D+00  1.09D+00  1.65D+00
                    CP:  1.88D+00  1.93D+00  1.72D+00  1.29D+00
 E= -973.744868099966     Delta-E=       -0.000000001158 Rises=F Damp=F
 DIIS: error= 3.37D-07 at cycle  15 NSaved=  15.
 NSaved=15 IEnMin=15 EnMin= -973.744868099966     IErMin=15 ErrMin= 3.37D-07
 ErrMax= 3.37D-07  0.00D+00 EMaxC= 1.00D-01 BMatC= 4.90D-11 BMatP= 5.77D-10
 IDIUse=1 WtCom= 1.00D+00 WtEn= 0.00D+00
 Coeff-Com: -0.344D-06-0.384D-04 0.212D-03 0.222D-03-0.232D-03-0.155D-02
 Coeff-Com: -0.901D-03 0.292D-02 0.655D-02 0.133D-01-0.113D-01-0.729D-01
 Coeff-Com: -0.405D-01 0.261D+00 0.843D+00
 Coeff:     -0.344D-06-0.384D-04 0.212D-03 0.222D-03-0.232D-03-0.155D-02
 Coeff:     -0.901D-03 0.292D-02 0.655D-02 0.133D-01-0.113D-01-0.729D-01
 Coeff:     -0.405D-01 0.261D+00 0.843D+00
 Gap=     0.135 Goal=   None    Shift=    0.000
 Gap=     0.135 Goal=   None    Shift=    0.000
 RMSDP=4.54D-08 MaxDP=2.47D-06 DE=-1.16D-09 OVMax= 5.76D-06

 Cycle  16  Pass 1  IDiag  1:
 RMSU=  2.39D-08    CP:  9.98D-01  4.35D-01  1.37D+00  9.99D-01  1.18D+00
                    CP:  1.81D+00  1.53D+00  1.47D+00  1.09D+00  1.65D+00
                    CP:  1.89D+00  1.95D+00  1.78D+00  1.39D+00  1.18D+00
 E= -973.744868100003     Delta-E=       -0.000000000037 Rises=F Damp=F
 DIIS: error= 1.78D-07 at cycle  16 NSaved=  16.
 NSaved=16 IEnMin=16 EnMin= -973.744868100003     IErMin=16 ErrMin= 1.78D-07
 ErrMax= 1.78D-07  0.00D+00 EMaxC= 1.00D-01 BMatC= 2.75D-11 BMatP= 4.90D-11
 IDIUse=1 WtCom= 1.00D+00 WtEn= 0.00D+00
 Coeff-Com: -0.244D-04-0.119D-04 0.391D-04 0.102D-03 0.201D-03 0.193D-03
 Coeff-Com: -0.371D-03-0.209D-02-0.128D-02 0.589D-02 0.179D-01 0.128D-01
 Coeff-Com: -0.569D-01-0.134D+00 0.483D+00 0.674D+00
 Coeff:     -0.244D-04-0.119D-04 0.391D-04 0.102D-03 0.201D-03 0.193D-03
 Coeff:     -0.371D-03-0.209D-02-0.128D-02 0.589D-02 0.179D-01 0.128D-01
 Coeff:     -0.569D-01-0.134D+00 0.483D+00 0.674D+00
 Gap=     0.135 Goal=   None    Shift=    0.000
 Gap=     0.135 Goal=   None    Shift=    0.000
 RMSDP=2.25D-08 MaxDP=1.04D-06 DE=-3.68D-11 OVMax= 3.47D-06

 Cycle  17  Pass 1  IDiag  1:
 RMSU=  1.12D-08    CP:  9.98D-01  4.35D-01  1.37D+00  9.99D-01  1.18D+00
                    CP:  1.81D+00  1.53D+00  1.47D+00  1.09D+00  1.65D+00
                    CP:  1.90D+00  1.96D+00  1.80D+00  1.44D+00  1.34D+00
                    CP:  8.85D-01
 E= -973.744868100016     Delta-E=       -0.000000000013 Rises=F Damp=F
 DIIS: error= 4.54D-08 at cycle  17 NSaved=  17.
 NSaved=17 IEnMin=17 EnMin= -973.744868100016     IErMin=17 ErrMin= 4.54D-08
 ErrMax= 4.54D-08  0.00D+00 EMaxC= 1.00D-01 BMatC= 2.46D-12 BMatP= 2.75D-11
 IDIUse=1 WtCom= 1.00D+00 WtEn= 0.00D+00
 Coeff-Com: -0.843D-05 0.336D-05-0.269D-04-0.660D-05 0.110D-03 0.363D-03
 Coeff-Com:  0.588D-04-0.125D-02-0.162D-02-0.616D-03 0.809D-02 0.177D-01
 Coeff-Com: -0.101D-01-0.956D-01 0.521D-02 0.235D+00 0.843D+00
 Coeff:     -0.843D-05 0.336D-05-0.269D-04-0.660D-05 0.110D-03 0.363D-03
 Coeff:      0.588D-04-0.125D-02-0.162D-02-0.616D-03 0.809D-02 0.177D-01
 Coeff:     -0.101D-01-0.956D-01 0.521D-02 0.235D+00 0.843D+00
 Gap=     0.135 Goal=   None    Shift=    0.000
 Gap=     0.135 Goal=   None    Shift=    0.000
 RMSDP=9.56D-09 MaxDP=3.75D-07 DE=-1.34D-11 OVMax= 1.56D-06

 Error on total polarization charges =  0.00043
 SCF Done:  E(UB3LYP) =  -973.744868100     A.U. after   17 cycles
            NFock= 17  Conv=0.96D-08     -V/T= 2.0051
 <Sx>= 0.0000 <Sy>= 0.0000 <Sz>= 0.0000 <S**2>= 0.0000 S= 0.0000
 <L.S>= 0.000000000000E+00
 KE= 9.687859630443D+02 PE=-4.264557302685D+03 EE= 1.331580187728D+03
 Annihilation of the first spin contaminant:
 S**2 before annihilation     0.0000,   after    -0.0000
 Leave Link  502 at Tue Aug 18 20:50:59 2026, MaxMem=  2684354560 cpu:            1937.0 elap:              84.5
 (Enter /mnt/data/applications/G16/g16/l601.exe)
 Copying SCF densities to generalized density rwf, IOpCl= 1 IROHF=0.

 **********************************************************************

            Population analysis using the SCF density.

 **********************************************************************

 Alpha  occ. eigenvalues --  -88.91332 -19.12224 -10.28003 -10.24932 -10.24931
 Alpha  occ. eigenvalues --  -10.21752 -10.21749 -10.21397 -10.21396 -10.21167
 Alpha  occ. eigenvalues --  -10.21166 -10.20824 -10.20823 -10.20440 -10.20440
 Alpha  occ. eigenvalues --   -7.97670  -5.94052  -5.93620  -5.93189  -1.00890
 Alpha  occ. eigenvalues --   -0.89738  -0.87434  -0.82224  -0.78868  -0.77263
 Alpha  occ. eigenvalues --   -0.76456  -0.72042  -0.66780  -0.63783  -0.61142
 Alpha  occ. eigenvalues --   -0.60009  -0.56159  -0.54616  -0.49848  -0.48337
 Alpha  occ. eigenvalues --   -0.47963  -0.47284  -0.44729  -0.44102  -0.43193
 Alpha  occ. eigenvalues --   -0.42942  -0.42197  -0.39529  -0.38740  -0.37998
 Alpha  occ. eigenvalues --   -0.37045  -0.36973  -0.35414  -0.33427  -0.32831
 Alpha  occ. eigenvalues --   -0.27871  -0.27191  -0.26887  -0.26032  -0.22237
 Alpha virt. eigenvalues --   -0.08781  -0.04180  -0.02074  -0.01745   0.02805
 Alpha virt. eigenvalues --    0.04724   0.05800   0.08056   0.09387   0.10198
 Alpha virt. eigenvalues --    0.10560   0.12557   0.12636   0.14441   0.14853
 Alpha virt. eigenvalues --    0.15159   0.17001   0.20057   0.22405   0.24000
 Alpha virt. eigenvalues --    0.25175   0.27770   0.28063   0.28599   0.30949
 Alpha virt. eigenvalues --    0.31277   0.33311   0.39052   0.39333   0.40334
 Alpha virt. eigenvalues --    0.41223   0.42863   0.44325   0.44936   0.45518
 Alpha virt. eigenvalues --    0.45760   0.46091   0.47606   0.47833   0.48043
 Alpha virt. eigenvalues --    0.48092   0.48121   0.48842   0.49769   0.50477
 Alpha virt. eigenvalues --    0.50613   0.50919   0.51220   0.52015   0.52156
 Alpha virt. eigenvalues --    0.54948   0.55829   0.56700   0.57140   0.58632
 Alpha virt. eigenvalues --    0.60317   0.62328   0.62776   0.62837   0.62938
 Alpha virt. eigenvalues --    0.63150   0.64195   0.65457   0.65799   0.66026
 Alpha virt. eigenvalues --    0.68706   0.69907   0.70830   0.71804   0.74173
 Alpha virt. eigenvalues --    0.75144   0.75963   0.79670   0.82602   0.83012
 Alpha virt. eigenvalues --    0.85009   0.87132   0.87219   0.87748   0.89553
 Alpha virt. eigenvalues --    0.89619   0.90860   0.91130   0.91866   0.93051
 Alpha virt. eigenvalues --    0.96167   0.96226   0.96801   0.97899   0.98797
 Alpha virt. eigenvalues --    0.99665   1.01224   1.01558   1.02400   1.03498
 Alpha virt. eigenvalues --    1.03622   1.04778   1.05244   1.06843   1.08361
 Alpha virt. eigenvalues --    1.12222   1.14464   1.16408   1.16508   1.19534
 Alpha virt. eigenvalues --    1.19789   1.20826   1.27307   1.29651   1.31396
 Alpha virt. eigenvalues --    1.33583   1.35346   1.36683   1.38887   1.43021
 Alpha virt. eigenvalues --    1.46051   1.46190   1.46260   1.46932   1.47228
 Alpha virt. eigenvalues --    1.48859   1.49068   1.50064   1.50488   1.51031
 Alpha virt. eigenvalues --    1.53063   1.57924   1.60104   1.60452   1.60574
 Alpha virt. eigenvalues --    1.62463   1.63204   1.63811   1.64488   1.65622
 Alpha virt. eigenvalues --    1.66895   1.67345   1.69108   1.69174   1.72179
 Alpha virt. eigenvalues --    1.72328   1.74747   1.75712   1.76904   1.77252
 Alpha virt. eigenvalues --    1.77685   1.77860   1.78608   1.79443   1.82048
 Alpha virt. eigenvalues --    1.82452   1.83532   1.84885   1.85025   1.86394
 Alpha virt. eigenvalues --    1.89886   1.90987   1.92941   1.94551   1.95359
 Alpha virt. eigenvalues --    1.96188   1.98939   1.99613   2.01580   2.06833
 Alpha virt. eigenvalues --    2.07633   2.12441   2.15474   2.15731   2.17767
 Alpha virt. eigenvalues --    2.19053   2.20715   2.22839   2.27758   2.35440
 Alpha virt. eigenvalues --    2.35553   2.36944   2.38195   2.42090   2.43061
 Alpha virt. eigenvalues --    2.45657   2.53788   2.56011   2.63447   2.64349
 Alpha virt. eigenvalues --    2.69220   2.69226   2.71231   2.73903   2.75476
 Alpha virt. eigenvalues --    2.76241   2.80984   2.81834   2.95424   3.02079
 Alpha virt. eigenvalues --    3.31049   3.41586   3.43046   3.53579
  Beta  occ. eigenvalues --  -88.91332 -19.12224 -10.28003 -10.24932 -10.24931
  Beta  occ. eigenvalues --  -10.21752 -10.21749 -10.21397 -10.21396 -10.21167
  Beta  occ. eigenvalues --  -10.21166 -10.20824 -10.20823 -10.20440 -10.20440
  Beta  occ. eigenvalues --   -7.97670  -5.94052  -5.93620  -5.93189  -1.00890
  Beta  occ. eigenvalues --   -0.89738  -0.87434  -0.82224  -0.78868  -0.77263
  Beta  occ. eigenvalues --   -0.76456  -0.72042  -0.66780  -0.63783  -0.61142
  Beta  occ. eigenvalues --   -0.60009  -0.56159  -0.54616  -0.49848  -0.48337
  Beta  occ. eigenvalues --   -0.47963  -0.47284  -0.44729  -0.44102  -0.43193
  Beta  occ. eigenvalues --   -0.42942  -0.42197  -0.39529  -0.38740  -0.37998
  Beta  occ. eigenvalues --   -0.37045  -0.36973  -0.35414  -0.33427  -0.32831
  Beta  occ. eigenvalues --   -0.27871  -0.27191  -0.26887  -0.26032  -0.22237
  Beta virt. eigenvalues --   -0.08781  -0.04180  -0.02074  -0.01745   0.02805
  Beta virt. eigenvalues --    0.04724   0.05800   0.08056   0.09387   0.10198
  Beta virt. eigenvalues --    0.10560   0.12557   0.12636   0.14441   0.14853
  Beta virt. eigenvalues --    0.15159   0.17001   0.20057   0.22405   0.24000
  Beta virt. eigenvalues --    0.25175   0.27770   0.28063   0.28599   0.30949
  Beta virt. eigenvalues --    0.31277   0.33311   0.39052   0.39333   0.40334
  Beta virt. eigenvalues --    0.41223   0.42863   0.44325   0.44936   0.45518
  Beta virt. eigenvalues --    0.45760   0.46091   0.47606   0.47833   0.48043
  Beta virt. eigenvalues --    0.48092   0.48121   0.48842   0.49769   0.50477
  Beta virt. eigenvalues --    0.50613   0.50919   0.51220   0.52015   0.52156
  Beta virt. eigenvalues --    0.54948   0.55829   0.56700   0.57140   0.58632
  Beta virt. eigenvalues --    0.60317   0.62328   0.62776   0.62837   0.62938
  Beta virt. eigenvalues --    0.63150   0.64195   0.65457   0.65799   0.66026
  Beta virt. eigenvalues --    0.68706   0.69907   0.70830   0.71804   0.74173
  Beta virt. eigenvalues --    0.75144   0.75963   0.79670   0.82602   0.83012
  Beta virt. eigenvalues --    0.85009   0.87132   0.87219   0.87748   0.89553
  Beta virt. eigenvalues --    0.89619   0.90860   0.91130   0.91866   0.93051
  Beta virt. eigenvalues --    0.96167   0.96226   0.96801   0.97899   0.98797
  Beta virt. eigenvalues --    0.99665   1.01224   1.01558   1.02400   1.03498
  Beta virt. eigenvalues --    1.03622   1.04778   1.05244   1.06843   1.08361
  Beta virt. eigenvalues --    1.12222   1.14464   1.16408   1.16508   1.19534
  Beta virt. eigenvalues --    1.19789   1.20826   1.27307   1.29651   1.31396
  Beta virt. eigenvalues --    1.33583   1.35346   1.36683   1.38887   1.43021
  Beta virt. eigenvalues --    1.46051   1.46190   1.46260   1.46932   1.47228
  Beta virt. eigenvalues --    1.48859   1.49068   1.50064   1.50488   1.51031
  Beta virt. eigenvalues --    1.53063   1.57924   1.60104   1.60452   1.60574
  Beta virt. eigenvalues --    1.62463   1.63204   1.63811   1.64488   1.65622
  Beta virt. eigenvalues --    1.66895   1.67345   1.69108   1.69174   1.72179
  Beta virt. eigenvalues --    1.72328   1.74747   1.75712   1.76904   1.77252
  Beta virt. eigenvalues --    1.77685   1.77860   1.78608   1.79443   1.82048
  Beta virt. eigenvalues --    1.82452   1.83532   1.84885   1.85025   1.86394
  Beta virt. eigenvalues --    1.89886   1.90987   1.92941   1.94551   1.95359
  Beta virt. eigenvalues --    1.96188   1.98939   1.99613   2.01580   2.06833
  Beta virt. eigenvalues --    2.07633   2.12441   2.15474   2.15731   2.17767
  Beta virt. eigenvalues --    2.19053   2.20715   2.22839   2.27758   2.35440
  Beta virt. eigenvalues --    2.35553   2.36944   2.38195   2.42090   2.43061
  Beta virt. eigenvalues --    2.45657   2.53788   2.56011   2.63447   2.64349
  Beta virt. eigenvalues --    2.69220   2.69226   2.71231   2.73903   2.75476
  Beta virt. eigenvalues --    2.76241   2.80984   2.81834   2.95424   3.02079
  Beta virt. eigenvalues --    3.31049   3.41586   3.43046   3.53579
          Condensed to atoms (all electrons):
               1          2          3          4          5          6
     1  C    4.742617   0.494468   0.016997  -0.079895   0.023057   0.441704
     2  C    0.494468   4.748920   0.447694   0.015603  -0.080916   0.010138
     3  C    0.016997   0.447694   5.352159   0.333924  -0.058048  -0.084269
     4  C   -0.079895   0.015603   0.333924   5.473160   0.349834   0.008077
     5  C    0.023057  -0.080916  -0.058048   0.349834   4.942895   0.434072
     6  C    0.441704   0.010138  -0.084269   0.008077   0.434072   4.828788
     7  C   -0.001006   0.008321  -0.053742   0.108440  -0.073120   0.014907
     8  C    0.000043  -0.000386  -0.052245  -0.006066   0.025728  -0.000592
     9  C   -0.000128   0.001719  -0.008566  -0.052248  -0.000213   0.000080
    10  C    0.000002  -0.000225   0.001721  -0.000386   0.000042   0.000001
    11  H   -0.000000  -0.000009   0.000397   0.000032  -0.000002   0.000000
    12  C    0.000000   0.000002  -0.000128   0.000043   0.000001  -0.000000
    13  C   -0.000000   0.000001   0.000080  -0.000591  -0.000007   0.000000
    14  C    0.000001   0.000042  -0.000214   0.025736  -0.001143  -0.000007
    15  H    0.397024  -0.043892   0.010227   0.000045   0.009077  -0.048863
    16  H   -0.047254   0.393211  -0.047491   0.012173  -0.000655   0.009622
    17  H    0.010530  -0.001125   0.014818  -0.052721   0.393138  -0.054711
    18  H   -0.052440   0.009574   0.000429   0.009699  -0.040648   0.393673
    19  H    0.000000  -0.000000   0.000002   0.000001   0.000000  -0.000000
    20  H    0.000000   0.000000  -0.000001   0.000001  -0.000000  -0.000000
    21  H    0.000000   0.000002  -0.000183   0.003467  -0.000142  -0.000003
    22  S    0.005152  -0.087351   0.327595  -0.075744   0.008502  -0.000175
    23  O    0.000003  -0.000058   0.004502  -0.132207   0.014798   0.001442
               7          8          9         10         11         12
     1  C   -0.001006   0.000043  -0.000128   0.000002  -0.000000   0.000000
     2  C    0.008321  -0.000386   0.001719  -0.000225  -0.000009   0.000002
     3  C   -0.053742  -0.052245  -0.008566   0.001721   0.000397  -0.000128
     4  C    0.108440  -0.006066  -0.052248  -0.000386   0.000032   0.000043
     5  C   -0.073120   0.025728  -0.000213   0.000042  -0.000002   0.000001
     6  C    0.014907  -0.000592   0.000080   0.000001   0.000000  -0.000000
     7  C    5.242592   0.108583  -0.053726   0.008323  -0.000118  -0.001006
     8  C    0.108583   5.473032   0.333897   0.015595   0.012170  -0.079891
     9  C   -0.053726   0.333897   5.351977   0.447699  -0.047494   0.016986
    10  C    0.008323   0.015595   0.447699   4.748962   0.393226   0.494477
    11  H   -0.000118   0.012170  -0.047494   0.393226   0.702298  -0.047236
    12  C   -0.001006  -0.079891   0.016986   0.494477  -0.047236   4.742719
    13  C    0.014895   0.008065  -0.084258   0.010117   0.009619   0.441658
    14  C   -0.073200   0.349683  -0.057969  -0.080900  -0.000656   0.023043
    15  H    0.000032   0.000001   0.000002  -0.000000  -0.000000   0.000000
    16  H   -0.000118   0.000032   0.000397  -0.000009   0.000011  -0.000000
    17  H   -0.031249   0.003472  -0.000183   0.000002  -0.000000   0.000000
    18  H   -0.000391   0.000001  -0.000001   0.000000   0.000000   0.000000
    19  H    0.000032   0.000047   0.010225  -0.043865  -0.013634   0.397015
    20  H   -0.000391   0.009702   0.000428   0.009573  -0.000259  -0.052477
    21  H   -0.031202  -0.052788   0.014809  -0.001123   0.000048   0.010536
    22  S   -0.033416  -0.075728   0.327711  -0.087396  -0.007051   0.005153
    23  O    0.762455  -0.132134   0.004499  -0.000058   0.000001   0.000003
              13         14         15         16         17         18
     1  C   -0.000000   0.000001   0.397024  -0.047254   0.010530  -0.052440
     2  C    0.000001   0.000042  -0.043892   0.393211  -0.001125   0.009574
     3  C    0.000080  -0.000214   0.010227  -0.047491   0.014818   0.000429
     4  C   -0.000591   0.025736   0.000045   0.012173  -0.052721   0.009699
     5  C   -0.000007  -0.001143   0.009077  -0.000655   0.393138  -0.040648
     6  C    0.000000  -0.000007  -0.048863   0.009622  -0.054711   0.393673
     7  C    0.014895  -0.073200   0.000032  -0.000118  -0.031249  -0.000391
     8  C    0.008065   0.349683   0.000001   0.000032   0.003472   0.000001
     9  C   -0.084258  -0.057969   0.000002   0.000397  -0.000183  -0.000001
    10  C    0.010117  -0.080900  -0.000000  -0.000009   0.000002   0.000000
    11  H    0.009619  -0.000656  -0.000000   0.000011  -0.000000   0.000000
    12  C    0.441658   0.023043   0.000000  -0.000000   0.000000   0.000000
    13  C    4.828702   0.434279  -0.000000   0.000000  -0.000003  -0.000000
    14  C    0.434279   4.942726   0.000000  -0.000002  -0.000142  -0.000000
    15  H   -0.000000   0.000000   0.703677  -0.013638  -0.000179  -0.013856
    16  H    0.000000  -0.000002  -0.013638   0.702406   0.000048  -0.000259
    17  H   -0.000003  -0.000142  -0.000179   0.000048   0.738874  -0.015054
    18  H   -0.000000  -0.000000  -0.013856  -0.000259  -0.015054   0.715801
    19  H   -0.048876   0.009074  -0.000000  -0.000000   0.000000   0.000000
    20  H    0.393655  -0.040587   0.000000   0.000000  -0.000000  -0.000000
    21  H   -0.054659   0.393194   0.000000  -0.000000  -0.000063  -0.000000
    22  S   -0.000175   0.008502  -0.000230  -0.007047  -0.000143   0.000029
    23  O    0.001438   0.014816   0.000000   0.000001   0.030557  -0.000017
              19         20         21         22         23
     1  C    0.000000   0.000000   0.000000   0.005152   0.000003
     2  C   -0.000000   0.000000   0.000002  -0.087351  -0.000058
     3  C    0.000002  -0.000001  -0.000183   0.327595   0.004502
     4  C    0.000001   0.000001   0.003467  -0.075744  -0.132207
     5  C    0.000000  -0.000000  -0.000142   0.008502   0.014798
     6  C   -0.000000  -0.000000  -0.000003  -0.000175   0.001442
     7  C    0.000032  -0.000391  -0.031202  -0.033416   0.762455
     8  C    0.000047   0.009702  -0.052788  -0.075728  -0.132134
     9  C    0.010225   0.000428   0.014809   0.327711   0.004499
    10  C   -0.043865   0.009573  -0.001123  -0.087396  -0.000058
    11  H   -0.013634  -0.000259   0.000048  -0.007051   0.000001
    12  C    0.397015  -0.052477   0.010536   0.005153   0.000003
    13  C   -0.048876   0.393655  -0.054659  -0.000175   0.001438
    14  C    0.009074  -0.040587   0.393194   0.008502   0.014816
    15  H   -0.000000   0.000000   0.000000  -0.000230   0.000000
    16  H   -0.000000   0.000000  -0.000000  -0.007047   0.000001
    17  H    0.000000  -0.000000  -0.000063  -0.000143   0.030557
    18  H    0.000000  -0.000000  -0.000000   0.000029  -0.000017
    19  H    0.703653  -0.013850  -0.000179  -0.000230   0.000000
    20  H   -0.013850   0.715805  -0.015069   0.000029  -0.000017
    21  H   -0.000179  -0.015069   0.738846  -0.000143   0.030479
    22  S   -0.000230   0.000029  -0.000143  15.537060  -0.000044
    23  O    0.000000  -0.000017   0.030479  -0.000044   7.726878
          Atomic-Atomic Spin Densities.
               1          2          3          4          5          6
     1  C   -0.000000  -0.000000  -0.000000   0.000000  -0.000000   0.000000
     2  C   -0.000000   0.000000   0.000000  -0.000000   0.000000  -0.000000
     3  C   -0.000000   0.000000   0.000001  -0.000000   0.000000  -0.000000
     4  C    0.000000  -0.000000  -0.000000  -0.000000   0.000000   0.000000
     5  C   -0.000000   0.000000   0.000000   0.000000  -0.000001  -0.000000
     6  C    0.000000  -0.000000  -0.000000   0.000000  -0.000000   0.000001
     7  C   -0.000000  -0.000000  -0.000000  -0.000000   0.000000   0.000000
     8  C   -0.000000  -0.000000   0.000000  -0.000000   0.000000  -0.000000
     9  C   -0.000000   0.000000  -0.000000   0.000000   0.000000  -0.000000
    10  C   -0.000000   0.000000   0.000000  -0.000000   0.000000  -0.000000
    11  H   -0.000000   0.000000   0.000000  -0.000000  -0.000000   0.000000
    12  C    0.000000  -0.000000  -0.000000  -0.000000   0.000000   0.000000
    13  C    0.000000  -0.000000  -0.000000  -0.000000  -0.000000  -0.000000
    14  C    0.000000   0.000000   0.000000   0.000000  -0.000000  -0.000000
    15  H   -0.000000  -0.000000   0.000000   0.000000  -0.000000  -0.000000
    16  H   -0.000000  -0.000000  -0.000000  -0.000000   0.000000   0.000000
    17  H    0.000000  -0.000000   0.000000  -0.000000  -0.000000  -0.000000
    18  H    0.000000  -0.000000  -0.000000  -0.000000   0.000000   0.000000
    19  H   -0.000000   0.000000   0.000000  -0.000000  -0.000000   0.000000
    20  H    0.000000   0.000000  -0.000000  -0.000000   0.000000   0.000000
    21  H    0.000000   0.000000  -0.000000   0.000000  -0.000000  -0.000000
    22  S    0.000000   0.000000  -0.000000   0.000000  -0.000000   0.000000
    23  O    0.000000  -0.000000   0.000000  -0.000000  -0.000000   0.000000
               7          8          9         10         11         12
     1  C   -0.000000  -0.000000  -0.000000  -0.000000  -0.000000   0.000000
     2  C   -0.000000  -0.000000   0.000000   0.000000   0.000000  -0.000000
     3  C   -0.000000   0.000000  -0.000000   0.000000   0.000000  -0.000000
     4  C   -0.000000  -0.000000   0.000000  -0.000000  -0.000000  -0.000000
     5  C    0.000000   0.000000   0.000000   0.000000  -0.000000   0.000000
     6  C    0.000000  -0.000000  -0.000000  -0.000000   0.000000   0.000000
     7  C   -0.000000  -0.000000  -0.000000  -0.000000   0.000000  -0.000000
     8  C   -0.000000  -0.000000  -0.000000  -0.000000  -0.000000   0.000000
     9  C   -0.000000  -0.000000   0.000001   0.000000  -0.000000  -0.000000
    10  C   -0.000000  -0.000000   0.000000   0.000000  -0.000000  -0.000000
    11  H    0.000000  -0.000000  -0.000000  -0.000000   0.000000  -0.000000
    12  C   -0.000000   0.000000  -0.000000  -0.000000  -0.000000  -0.000000
    13  C    0.000000   0.000000  -0.000000  -0.000000   0.000000   0.000000
    14  C    0.000000   0.000000   0.000000   0.000000   0.000000  -0.000000
    15  H   -0.000000  -0.000000   0.000000   0.000000   0.000000  -0.000000
    16  H    0.000000  -0.000000   0.000000   0.000000   0.000000  -0.000000
    17  H   -0.000000   0.000000  -0.000000   0.000000   0.000000   0.000000
    18  H    0.000000  -0.000000  -0.000000   0.000000   0.000000   0.000000
    19  H   -0.000000   0.000000   0.000000  -0.000000   0.000000  -0.000000
    20  H    0.000000  -0.000000  -0.000000  -0.000000  -0.000000   0.000000
    21  H   -0.000000  -0.000000   0.000000  -0.000000   0.000000   0.000000
    22  S    0.000000   0.000000  -0.000000   0.000000   0.000000   0.000000
    23  O    0.000000  -0.000000   0.000000  -0.000000   0.000000   0.000000
              13         14         15         16         17         18
     1  C    0.000000   0.000000  -0.000000  -0.000000   0.000000   0.000000
     2  C   -0.000000   0.000000  -0.000000  -0.000000  -0.000000  -0.000000
     3  C   -0.000000   0.000000   0.000000  -0.000000   0.000000  -0.000000
     4  C   -0.000000   0.000000   0.000000  -0.000000  -0.000000  -0.000000
     5  C   -0.000000  -0.000000  -0.000000   0.000000  -0.000000   0.000000
     6  C   -0.000000  -0.000000  -0.000000   0.000000  -0.000000   0.000000
     7  C    0.000000   0.000000  -0.000000   0.000000  -0.000000   0.000000
     8  C    0.000000   0.000000  -0.000000  -0.000000   0.000000  -0.000000
     9  C   -0.000000   0.000000   0.000000   0.000000  -0.000000  -0.000000
    10  C   -0.000000   0.000000   0.000000   0.000000   0.000000   0.000000
    11  H    0.000000   0.000000   0.000000   0.000000   0.000000   0.000000
    12  C    0.000000  -0.000000  -0.000000  -0.000000   0.000000   0.000000
    13  C    0.000001  -0.000000   0.000000   0.000000  -0.000000   0.000000
    14  C   -0.000000  -0.000001  -0.000000  -0.000000  -0.000000   0.000000
    15  H    0.000000  -0.000000   0.000000   0.000000  -0.000000   0.000000
    16  H    0.000000  -0.000000   0.000000   0.000000   0.000000  -0.000000
    17  H   -0.000000  -0.000000  -0.000000   0.000000   0.000000  -0.000000
    18  H    0.000000   0.000000   0.000000  -0.000000  -0.000000  -0.000000
    19  H   -0.000000  -0.000000  -0.000000   0.000000  -0.000000   0.000000
    20  H    0.000000   0.000000   0.000000   0.000000   0.000000   0.000000
    21  H   -0.000000  -0.000000  -0.000000   0.000000  -0.000000   0.000000
    22  S    0.000000  -0.000000   0.000000   0.000000  -0.000000   0.000000
    23  O    0.000000  -0.000000   0.000000   0.000000   0.000000  -0.000000
              19         20         21         22         23
     1  C   -0.000000   0.000000   0.000000   0.000000   0.000000
     2  C    0.000000   0.000000   0.000000   0.000000  -0.000000
     3  C    0.000000  -0.000000  -0.000000  -0.000000   0.000000
     4  C   -0.000000  -0.000000   0.000000   0.000000  -0.000000
     5  C   -0.000000   0.000000  -0.000000  -0.000000  -0.000000
     6  C    0.000000   0.000000  -0.000000   0.000000   0.000000
     7  C   -0.000000   0.000000  -0.000000   0.000000   0.000000
     8  C    0.000000  -0.000000  -0.000000   0.000000  -0.000000
     9  C    0.000000  -0.000000   0.000000  -0.000000   0.000000
    10  C   -0.000000  -0.000000  -0.000000   0.000000  -0.000000
    11  H    0.000000  -0.000000   0.000000   0.000000   0.000000
    12  C   -0.000000   0.000000   0.000000   0.000000   0.000000
    13  C   -0.000000   0.000000  -0.000000   0.000000   0.000000
    14  C   -0.000000   0.000000  -0.000000  -0.000000  -0.000000
    15  H   -0.000000   0.000000  -0.000000   0.000000   0.000000
    16  H    0.000000   0.000000   0.000000   0.000000   0.000000
    17  H   -0.000000   0.000000  -0.000000  -0.000000   0.000000
    18  H    0.000000   0.000000   0.000000   0.000000  -0.000000
    19  H    0.000000   0.000000  -0.000000   0.000000   0.000000
    20  H    0.000000  -0.000000  -0.000000   0.000000  -0.000000
    21  H   -0.000000  -0.000000   0.000000  -0.000000   0.000000
    22  S    0.000000   0.000000  -0.000000   0.000000  -0.000000
    23  O    0.000000  -0.000000   0.000000  -0.000000  -0.000000
 Mulliken charges and spin densities:
               1          2
     1  C    0.049126  -0.000000
     2  C    0.084268  -0.000000
     3  C   -0.205656   0.000001
     4  C    0.059625  -0.000000
     5  C    0.053750  -0.000001
     6  C    0.046115   0.000001
     7  C    0.084105  -0.000000
     8  C    0.059779  -0.000000
     9  C   -0.205642   0.000001
    10  C    0.084226  -0.000000
    11  H   -0.001343   0.000000
    12  C    0.049103  -0.000000
    13  C    0.046061   0.000001
    14  C    0.053723  -0.000001
    15  H    0.000572   0.000000
    16  H   -0.001426   0.000000
    17  H   -0.035866   0.000000
    18  H   -0.006540  -0.000000
    19  H    0.000585   0.000000
    20  H   -0.006540  -0.000000
    21  H   -0.035827   0.000000
    22  S    0.155139  -0.000000
    23  O   -0.327336  -0.000000
 Sum of Mulliken charges =  -0.00000   0.00000
 Mulliken charges and spin densities with hydrogens summed into heavy atoms:
               1          2
     1  C    0.049698  -0.000000
     2  C    0.082842  -0.000000
     3  C   -0.205656   0.000001
     4  C    0.059625  -0.000000
     5  C    0.017884  -0.000001
     6  C    0.039575   0.000000
     7  C    0.084105  -0.000000
     8  C    0.059779  -0.000000
     9  C   -0.205642   0.000001
    10  C    0.082883  -0.000000
    12  C    0.049688  -0.000000
    13  C    0.039521   0.000000
    14  C    0.017897  -0.000001
    22  S    0.155139  -0.000000
    23  O   -0.327336  -0.000000
 Electronic spatial extent (au):  <R**2>=          20111.0978
 Charge=             -0.0000 electrons
 Dipole moment (field-independent basis, Debye):
    X=              2.4964    Y=             -4.2437    Z=              0.0619  Tot=              4.9239
 Quadrupole moment (field-independent basis, Debye-Ang):
   XX=           -104.4502   YY=           -105.8877   ZZ=            -96.8665
   XY=             44.5895   XZ=             -0.3039   YZ=              0.1208
 Traceless Quadrupole moment (field-independent basis, Debye-Ang):
   XX=             -2.0488   YY=             -3.4863   ZZ=              5.5350
   XY=             44.5895   XZ=             -0.3039   YZ=              0.1208
 Octapole moment (field-independent basis, Debye-Ang**2):
  XXX=           1667.4644  YYY=           -639.0173  ZZZ=             -2.4565  XYY=            729.8295
  XXY=           -553.4159  XXZ=              1.0588  XZZ=            597.6915  YZZ=           -199.5507
  YYZ=             -0.0330  XYZ=             -0.6776
 Hexadecapole moment (field-independent basis, Debye-Ang**3):
 XXXX=         -21978.5150 YYYY=          -4301.9175 ZZZZ=           -106.2577 XXXY=           5841.6301
 XXXZ=             -2.1761 YYYX=           3872.1179 YYYZ=              1.7313 ZZZX=              8.5686
 ZZZY=             -1.1902 XXYY=          -6001.1593 XXZZ=          -4211.4094 YYZZ=           -733.6714
 XXYZ=              4.3904 YYXZ=             -2.7519 ZZXY=           1050.8158
 N-N= 9.904462838125D+02 E-N=-4.264557307388D+03  KE= 9.687859630443D+02

 Atomic contributions to Alpha molecular orbitals:
 Alpha occ 36 OE=-0.480 is C1-p=0.1113 C12-p=0.1113 C13-p=0.1008 C6-p=0.1006
 Alpha occ 37 OE=-0.473 is C3-p=0.0663
 Alpha occ 38 OE=-0.447 is H11-s=0.0999
 Alpha occ 39 OE=-0.441 is C5-p=0.1095 C14-p=0.1091
 Alpha occ 40 OE=-0.432 is C7-p=0.1914 C4-p=0.1231 C8-p=0.1231
 Alpha occ 41 OE=-0.429 is S22-p=0.1027
 Alpha occ 42 OE=-0.422 is O23-p=0.4276 C7-p=0.1415
 Alpha occ 43 OE=-0.395 is H18-s=0.1149 H20-s=0.1148 C13-p=0.1004 C6-p=0.1004
 Alpha occ 44 OE=-0.387 is C9-p=0.1022 C3-p=0.1021
 Alpha occ 45 OE=-0.380 is S22-p=0.1689
 Alpha occ 46 OE=-0.370 is C6-p=0.0729
 Alpha occ 47 OE=-0.370 is O23-p=0.2863 C7-p=0.2147 S22-p=0.1347
 Alpha occ 48 OE=-0.354 is S22-p=0.0918
 Alpha occ 49 OE=-0.334 is S22-p=0.3573
 Alpha occ 50 OE=-0.328 is S22-p=0.2808 C13-p=0.1367 C6-p=0.1367
 Alpha occ 51 OE=-0.279 is C14-p=0.1378 C5-p=0.1376 C6-p=0.1179 C13-p=0.1179 C3-p=0.1161 C9-p=0.1161 C10-p=0.1090 C2-p=0.1088
 Alpha occ 52 OE=-0.272 is C12-p=0.1653 C1-p=0.1648 C8-p=0.1561 C4-p=0.1556
 Alpha occ 53 OE=-0.269 is O23-p=0.2525
 Alpha occ 54 OE=-0.260 is O23-p=0.7718
 Alpha occ 55 OE=-0.222 is S22-p=0.3640
 Alpha vir 56 OE=-0.088 is C7-p=0.1923 O23-p=0.1590
 Alpha vir 57 OE=-0.042 is C13-p=0.1263 C6-p=0.1262 C3-p=0.1241 C9-p=0.1240 C4-p=0.1205 C8-p=0.1205
 Alpha vir 58 OE=-0.021 is C2-p=0.1604 C10-p=0.1603 C5-p=0.1525 C14-p=0.1523
 Alpha vir 59 OE=-0.017 is C9-p=0.1298 C3-p=0.1298 C10-p=0.1007 C2-p=0.1006
 Alpha vir 60 OE=0.028 is S22-p=0.4631 H16-s=0.1030 H11-s=0.1029
 Alpha vir 61 OE=0.047 is C7-p=0.2036 C1-p=0.1345 C12-p=0.1345
 Alpha vir 62 OE=0.058 is H19-s=0.1625 H15-s=0.1623
 Alpha vir 63 OE=0.081 is H15-s=0.2385 H19-s=0.2384 H18-s=0.2039 H20-s=0.2038
 Alpha vir 64 OE=0.094 is S22-p=0.2179 H20-s=0.1359 H18-s=0.1359
 Alpha vir 65 OE=0.102 is H11-s=0.2329 H16-s=0.2324 H21-s=0.2016 H17-s=0.2012
 Alpha vir 66 OE=0.106 is H17-s=0.1961 H21-s=0.1954 H16-s=0.1725 H11-s=0.1721 H18-s=0.1062 H20-s=0.1060 H15-s=0.1010 H19-s=0.1009
 Alpha vir 67 OE=0.126 is C13-p=0.0967
 Alpha vir 68 OE=0.126 is H17-s=0.1961 H21-s=0.1961 H11-s=0.1375 H16-s=0.1375 H18-s=0.1058 H20-s=0.1055
 Alpha vir 69 OE=0.144 is H19-s=0.2837 H15-s=0.2833 H18-s=0.1314 H20-s=0.1310 H11-s=0.1034 H16-s=0.1027
 Alpha vir 70 OE=0.149 is H21-s=0.3039 H17-s=0.3033 H20-s=0.1080 H18-s=0.1076 H16-s=0.1027 H11-s=0.1023
 Alpha vir 71 OE=0.152 is H15-s=0.2234 H19-s=0.2230 H16-s=0.1801 H11-s=0.1798 H18-s=0.1547 H20-s=0.1547
 Alpha vir 72 OE=0.170 is C7-p=0.1570 C4-p=0.1399 C8-p=0.1399
 Alpha vir 73 OE=0.201 is C3-p=0.2070 C9-p=0.2069
 Alpha vir 74 OE=0.224 is C7-p=0.1728 C8-p=0.1318 C4-p=0.1318
 Alpha vir 75 OE=0.240 is C7-p=0.1280 C5-p=0.1039 C14-p=0.1038

 Atomic contributions to Beta  molecular orbitals:
 Beta  occ 36 OE=-0.480 is C1-p=0.1113 C12-p=0.1113 C13-p=0.1008 C6-p=0.1006
 Beta  occ 37 OE=-0.473 is C3-p=0.0663
 Beta  occ 38 OE=-0.447 is H11-s=0.0999
 Beta  occ 39 OE=-0.441 is C5-p=0.1095 C14-p=0.1091
 Beta  occ 40 OE=-0.432 is C7-p=0.1914 C4-p=0.1231 C8-p=0.1231
 Beta  occ 41 OE=-0.429 is S22-p=0.1027
 Beta  occ 42 OE=-0.422 is O23-p=0.4276 C7-p=0.1415
 Beta  occ 43 OE=-0.395 is H18-s=0.1149 H20-s=0.1148 C13-p=0.1004 C6-p=0.1004
 Beta  occ 44 OE=-0.387 is C9-p=0.1022 C3-p=0.1021
 Beta  occ 45 OE=-0.380 is S22-p=0.1689
 Beta  occ 46 OE=-0.370 is C6-p=0.0729
 Beta  occ 47 OE=-0.370 is O23-p=0.2863 C7-p=0.2147 S22-p=0.1347
 Beta  occ 48 OE=-0.354 is S22-p=0.0918
 Beta  occ 49 OE=-0.334 is S22-p=0.3573
 Beta  occ 50 OE=-0.328 is S22-p=0.2808 C13-p=0.1367 C6-p=0.1367
 Beta  occ 51 OE=-0.279 is C14-p=0.1378 C5-p=0.1376 C6-p=0.1179 C13-p=0.1179 C3-p=0.1161 C9-p=0.1161 C10-p=0.1090 C2-p=0.1088
 Beta  occ 52 OE=-0.272 is C12-p=0.1653 C1-p=0.1648 C8-p=0.1561 C4-p=0.1556
 Beta  occ 53 OE=-0.269 is O23-p=0.2525
 Beta  occ 54 OE=-0.260 is O23-p=0.7718
 Beta  occ 55 OE=-0.222 is S22-p=0.3640
 Beta  vir 56 OE=-0.088 is C7-p=0.1923 O23-p=0.1590
 Beta  vir 57 OE=-0.042 is C13-p=0.1263 C6-p=0.1262 C3-p=0.1241 C9-p=0.1240 C4-p=0.1205 C8-p=0.1205
 Beta  vir 58 OE=-0.021 is C2-p=0.1604 C10-p=0.1603 C5-p=0.1525 C14-p=0.1523
 Beta  vir 59 OE=-0.017 is C9-p=0.1298 C3-p=0.1298 C10-p=0.1007 C2-p=0.1006
 Beta  vir 60 OE=0.028 is S22-p=0.4631 H16-s=0.1030 H11-s=0.1029
 Beta  vir 61 OE=0.047 is C7-p=0.2036 C1-p=0.1345 C12-p=0.1345
 Beta  vir 62 OE=0.058 is H19-s=0.1625 H15-s=0.1623
 Beta  vir 63 OE=0.081 is H15-s=0.2385 H19-s=0.2384 H18-s=0.2039 H20-s=0.2038
 Beta  vir 64 OE=0.094 is S22-p=0.2179 H20-s=0.1359 H18-s=0.1359
 Beta  vir 65 OE=0.102 is H11-s=0.2329 H16-s=0.2324 H21-s=0.2016 H17-s=0.2012
 Beta  vir 66 OE=0.106 is H17-s=0.1961 H21-s=0.1954 H16-s=0.1725 H11-s=0.1721 H18-s=0.1062 H20-s=0.1060 H15-s=0.1010 H19-s=0.1009
 Beta  vir 67 OE=0.126 is C13-p=0.0967
 Beta  vir 68 OE=0.126 is H17-s=0.1961 H21-s=0.1961 H11-s=0.1375 H16-s=0.1375 H18-s=0.1058 H20-s=0.1055
 Beta  vir 69 OE=0.144 is H19-s=0.2837 H15-s=0.2833 H18-s=0.1314 H20-s=0.1310 H11-s=0.1034 H16-s=0.1027
 Beta  vir 70 OE=0.149 is H21-s=0.3039 H17-s=0.3033 H20-s=0.1080 H18-s=0.1076 H16-s=0.1027 H11-s=0.1023
 Beta  vir 71 OE=0.152 is H15-s=0.2234 H19-s=0.2230 H16-s=0.1801 H11-s=0.1798 H18-s=0.1547 H20-s=0.1547
 Beta  vir 72 OE=0.170 is C7-p=0.1570 C4-p=0.1399 C8-p=0.1399
 Beta  vir 73 OE=0.201 is C3-p=0.2070 C9-p=0.2069
 Beta  vir 74 OE=0.224 is C7-p=0.1728 C8-p=0.1318 C4-p=0.1318
 Beta  vir 75 OE=0.240 is C7-p=0.1280 C5-p=0.1039 C14-p=0.1038
 
                          Isotropic Fermi Contact Couplings
        Atom                 a.u.       MegaHertz       Gauss      10(-4) cm-1
     1  C(13)             -0.00000      -0.00002      -0.00001      -0.00001
     2  C(13)             -0.00000      -0.00000      -0.00000      -0.00000
     3  C(13)              0.00000       0.00017       0.00006       0.00006
     4  C(13)              0.00000       0.00002       0.00001       0.00001
     5  C(13)             -0.00000      -0.00013      -0.00005      -0.00004
     6  C(13)              0.00000       0.00011       0.00004       0.00004
     7  C(13)             -0.00000      -0.00013      -0.00005      -0.00004
     8  C(13)              0.00000       0.00002       0.00001       0.00001
     9  C(13)              0.00000       0.00017       0.00006       0.00006
    10  C(13)             -0.00000      -0.00000      -0.00000      -0.00000
    11  H(1)               0.00000       0.00000       0.00000       0.00000
    12  C(13)             -0.00000      -0.00002      -0.00001      -0.00001
    13  C(13)              0.00000       0.00011       0.00004       0.00004
    14  C(13)             -0.00000      -0.00013      -0.00005      -0.00004
    15  H(1)               0.00000       0.00001       0.00000       0.00000
    16  H(1)               0.00000       0.00000       0.00000       0.00000
    17  H(1)               0.00000       0.00010       0.00004       0.00003
    18  H(1)              -0.00000      -0.00006      -0.00002      -0.00002
    19  H(1)               0.00000       0.00001       0.00000       0.00000
    20  H(1)              -0.00000      -0.00006      -0.00002      -0.00002
    21  H(1)               0.00000       0.00010       0.00004       0.00003
    22  S(33)              0.00000       0.00001       0.00000       0.00000
    23  O(17)             -0.00000       0.00004       0.00001       0.00001
 --------------------------------------------------------
       Center         ----  Spin Dipole Couplings  ----
                      3XX-RR        3YY-RR        3ZZ-RR
 --------------------------------------------------------
     1   Atom       -0.000000     -0.000000      0.000000
     2   Atom       -0.000000     -0.000000      0.000000
     3   Atom       -0.000000     -0.000000      0.000000
     4   Atom        0.000000      0.000000     -0.000000
     5   Atom        0.000000      0.000000     -0.000001
     6   Atom       -0.000000     -0.000000      0.000000
     7   Atom        0.000000      0.000000     -0.000000
     8   Atom        0.000000      0.000000     -0.000000
     9   Atom       -0.000000     -0.000000      0.000000
    10   Atom       -0.000000     -0.000000      0.000000
    11   Atom        0.000000     -0.000000     -0.000000
    12   Atom       -0.000000     -0.000000      0.000000
    13   Atom       -0.000000     -0.000000      0.000000
    14   Atom        0.000000      0.000000     -0.000001
    15   Atom       -0.000000      0.000000      0.000000
    16   Atom       -0.000000      0.000000     -0.000000
    17   Atom        0.000000     -0.000000      0.000000
    18   Atom        0.000000     -0.000000     -0.000000
    19   Atom       -0.000000     -0.000000      0.000000
    20   Atom       -0.000000      0.000000     -0.000000
    21   Atom        0.000000     -0.000000      0.000000
    22   Atom       -0.000001     -0.000001      0.000002
    23   Atom        0.000001      0.000001     -0.000001
 --------------------------------------------------------
                        XY            XZ            YZ
 --------------------------------------------------------
     1   Atom       -0.000000     -0.000000      0.000000
     2   Atom       -0.000000     -0.000000      0.000000
     3   Atom       -0.000000     -0.000000      0.000000
     4   Atom        0.000000      0.000000     -0.000000
     5   Atom        0.000000      0.000000     -0.000000
     6   Atom        0.000000     -0.000000      0.000000
     7   Atom       -0.000000      0.000000     -0.000000
     8   Atom        0.000000      0.000000     -0.000000
     9   Atom        0.000000     -0.000000      0.000000
    10   Atom        0.000000     -0.000000      0.000000
    11   Atom       -0.000000      0.000000     -0.000000
    12   Atom        0.000000     -0.000000      0.000000
    13   Atom        0.000000     -0.000000      0.000000
    14   Atom        0.000000      0.000000     -0.000000
    15   Atom       -0.000000     -0.000000     -0.000000
    16   Atom       -0.000000     -0.000000     -0.000000
    17   Atom        0.000000     -0.000000      0.000000
    18   Atom       -0.000000      0.000000      0.000000
    19   Atom       -0.000000      0.000000     -0.000000
    20   Atom        0.000000     -0.000000     -0.000000
    21   Atom        0.000000     -0.000000      0.000000
    22   Atom       -0.000000     -0.000000      0.000000
    23   Atom       -0.000000      0.000000     -0.000000
 --------------------------------------------------------


 ---------------------------------------------------------------------------------
              Anisotropic Spin Dipole Couplings in Principal Axis System
 ---------------------------------------------------------------------------------

       Atom             a.u.   MegaHertz   Gauss  10(-4) cm-1        Axes

              Baa    -0.0000    -0.000    -0.000    -0.000  0.1250  0.9921 -0.0086
     1 C(13)  Bbb    -0.0000    -0.000    -0.000    -0.000  0.9921 -0.1249  0.0089
              Bcc     0.0000     0.000     0.000     0.000 -0.0078  0.0096  0.9999
 
              Baa    -0.0000    -0.000    -0.000    -0.000  0.0423  0.9991 -0.0093
     2 C(13)  Bbb    -0.0000    -0.000    -0.000    -0.000  0.9991 -0.0422  0.0082
              Bcc     0.0000     0.000     0.000     0.000 -0.0078  0.0096  0.9999
 
              Baa    -0.0000    -0.000    -0.000    -0.000  0.1370  0.9905 -0.0086
     3 C(13)  Bbb    -0.0000    -0.000    -0.000    -0.000  0.9905 -0.1369  0.0093
              Bcc     0.0000     0.000     0.000     0.000 -0.0080  0.0097  0.9999
 
              Baa    -0.0000    -0.000    -0.000    -0.000 -0.0076  0.0100  0.9999
     4 C(13)  Bbb     0.0000     0.000     0.000     0.000 -0.6969  0.7171 -0.0125
              Bcc     0.0000     0.000     0.000     0.000  0.7171  0.6969 -0.0015
 
              Baa    -0.0000    -0.000    -0.000    -0.000 -0.0079  0.0096  0.9999
     5 C(13)  Bbb     0.0000     0.000     0.000     0.000 -0.2868  0.9579 -0.0115
              Bcc     0.0000     0.000     0.000     0.000  0.9579  0.2869  0.0048
 
              Baa    -0.0000    -0.000    -0.000    -0.000 -0.1034  0.9946 -0.0105
     6 C(13)  Bbb    -0.0000    -0.000    -0.000    -0.000  0.9946  0.1034  0.0067
              Bcc     0.0000     0.000     0.000     0.000 -0.0077  0.0097  0.9999
 
              Baa    -0.0000    -0.000    -0.000    -0.000 -0.0066  0.0127  0.9999
     7 C(13)  Bbb    -0.0000    -0.000    -0.000    -0.000  0.8618  0.5072 -0.0007
              Bcc     0.0000     0.000     0.000     0.000 -0.5071  0.8618 -0.0143
 
              Baa    -0.0000    -0.000    -0.000    -0.000 -0.0087  0.0092  0.9999
     8 C(13)  Bbb     0.0000     0.000     0.000     0.000 -0.2876  0.9577 -0.0113
              Bcc     0.0000     0.000     0.000     0.000  0.9577  0.2877  0.0057
 
              Baa    -0.0000    -0.000    -0.000    -0.000  0.9320 -0.3622  0.0108
     9 C(13)  Bbb    -0.0000    -0.000    -0.000    -0.000  0.3623  0.9321 -0.0060
              Bcc     0.0000     0.000     0.000     0.000 -0.0079  0.0095  0.9999
 
              Baa    -0.0000    -0.000    -0.000    -0.000  0.8942 -0.4476  0.0112
    10 C(13)  Bbb    -0.0000    -0.000    -0.000    -0.000  0.4477  0.8942 -0.0048
              Bcc     0.0000     0.000     0.000     0.000 -0.0079  0.0093  0.9999
 
              Baa    -0.0000    -0.000    -0.000    -0.000  0.5339  0.8456 -0.0039
    11 H(1)   Bbb    -0.0000    -0.000    -0.000    -0.000 -0.0078  0.0096  0.9999
              Bcc     0.0000     0.000     0.000     0.000  0.8455 -0.5338  0.0117
 
              Baa    -0.0000    -0.000    -0.000    -0.000  0.9282 -0.3720  0.0108
    12 C(13)  Bbb    -0.0000    -0.000    -0.000    -0.000  0.3721  0.9282 -0.0054
              Bcc     0.0000     0.000     0.000     0.000 -0.0080  0.0091  0.9999
 
              Baa    -0.0000    -0.000    -0.000    -0.000  0.8196 -0.5728  0.0120
    13 C(13)  Bbb    -0.0000    -0.000    -0.000    -0.000  0.5729  0.8196 -0.0028
              Bcc     0.0000     0.000     0.000     0.000 -0.0082  0.0091  0.9999
 
              Baa    -0.0000    -0.000    -0.000    -0.000 -0.0080  0.0090  0.9999
    14 C(13)  Bbb     0.0000     0.000     0.000     0.000 -0.6967  0.7173 -0.0120
              Bcc     0.0000     0.000     0.000     0.000  0.7173  0.6967 -0.0006
 
              Baa    -0.0000    -0.000    -0.000    -0.000  0.9468  0.3218  0.0041
    15 H(1)   Bbb     0.0000     0.000     0.000     0.000 -0.0075  0.0094  0.9999
              Bcc     0.0000     0.000     0.000     0.000 -0.3217  0.9468 -0.0113
 
              Baa    -0.0000    -0.000    -0.000    -0.000  0.9989  0.0459  0.0076
    16 H(1)   Bbb    -0.0000    -0.000    -0.000    -0.000 -0.0080  0.0095  0.9999
              Bcc     0.0000     0.000     0.000     0.000 -0.0458  0.9989 -0.0099
 
              Baa    -0.0000    -0.000    -0.000    -0.000 -0.4544  0.8907 -0.0122
    17 H(1)   Bbb     0.0000     0.000     0.000     0.000 -0.0078  0.0097  0.9999
              Bcc     0.0000     0.000     0.000     0.000  0.8908  0.4544  0.0026
 
              Baa    -0.0000    -0.000    -0.000    -0.000  0.2456  0.9693 -0.0075
    18 H(1)   Bbb    -0.0000    -0.000    -0.000    -0.000 -0.0078  0.0097  0.9999
              Bcc     0.0000     0.000     0.000     0.000  0.9693 -0.2455  0.0099
 
              Baa    -0.0000    -0.000    -0.000    -0.000  0.7603  0.6495  0.0002
    19 H(1)   Bbb     0.0000     0.000     0.000     0.000 -0.0082  0.0092  0.9999
              Bcc     0.0000     0.000     0.000     0.000 -0.6495  0.7603 -0.0123
 
              Baa    -0.0000    -0.000    -0.000    -0.000  0.9661 -0.2579  0.0102
    20 H(1)   Bbb    -0.0000    -0.000    -0.000    -0.000 -0.0081  0.0092  0.9999
              Bcc     0.0000     0.000     0.000     0.000  0.2580  0.9661 -0.0068
 
              Baa    -0.0000    -0.000    -0.000    -0.000 -0.5566  0.8307 -0.0119
    21 H(1)   Bbb     0.0000     0.000     0.000     0.000 -0.0079  0.0090  0.9999
              Bcc     0.0000     0.000     0.000     0.000  0.8307  0.5567  0.0016
 
              Baa    -0.0000    -0.000    -0.000    -0.000  0.8625  0.5060  0.0021
    22 S(33)  Bbb    -0.0000    -0.000    -0.000    -0.000 -0.5059  0.8625 -0.0123
              Bcc     0.0000     0.000     0.000     0.000 -0.0080  0.0096  0.9999
 
              Baa    -0.0000     0.000     0.000     0.000 -0.0076  0.0098  0.9999
    23 O(17)  Bbb     0.0000    -0.000    -0.000    -0.000  0.8620  0.5069  0.0016
              Bcc     0.0000    -0.000    -0.000    -0.000 -0.5069  0.8619 -0.0124
 

 ---------------------------------------------------------------------------------

 No NMR shielding tensors so no spin-rotation constants.
 Leave Link  601 at Tue Aug 18 20:50:59 2026, MaxMem=  2684354560 cpu:               7.9 elap:               0.4
 (Enter /mnt/data/applications/G16/g16/l9999.exe)
 1\1\GINC-KIMIK2196\SP\UB3LYP\Gen\C13H8O1S1\ASOLE\18-Aug-2026\0\\#p b3l
 yp/gen EmpiricalDispersion=GD3BJ pseudo=read scrf=(solvent=acetonitril
 e,pcm,read) nosymm pop=(Orbitals=20) geom=checkpoint guess=read\\Title
  Card Required\\0,1\C,0,-9.142056,-0.412361,0.008517\C,0,-7.750261,-0.
 470429,0.020042\C,0,-6.998514,0.716612,0.014503\C,0,-7.611836,2.012796
 ,-0.002902\C,0,-9.025711,2.026663,-0.014163\C,0,-9.768178,0.848712,-0.
 008577\C,0,-6.879274,3.266244,-0.009232\C,0,-5.427838,3.296797,0.00255
 4\C,0,-4.593596,2.130385,0.020259\C,0,-3.190839,2.209674,0.030739\H,0,
 -2.600982,1.290969,0.044019\C,0,-2.564476,3.45399,0.024176\C,0,-3.3617
 2,4.614498,0.007105\C,0,-4.752044,4.538833,-0.003375\H,0,-9.73133,-1.3
 2921,0.012734\H,0,-7.234577,-1.432654,0.033386\H,0,-9.513422,3.000198,
 -0.02741\H,0,-10.858876,0.906971,-0.017667\H,0,-1.476784,3.522831,0.03
 2195\H,0,-2.88218,5.595886,0.001945\H,0,-5.364947,5.438757,-0.016523\S
 ,0,-5.260722,0.512864,0.030366\O,0,-7.533138,4.378094,-0.02511\\Versio
 n=AM64L-G16RevA.03\HF=-973.7448681\S2=0.\S2-1=0.\S2A=0.\RMSD=9.565e-09
 \Dipole=0.9821432,-1.6695976,0.0243664\Quadrupole=-1.5231966,-2.591945
 4,4.1151419,33.151179,-0.2259416,0.0898329\PG=C01 [X(C13H8O1S1)]\\@


 SUPPORT THE RIGHT TO ARM BEARS!
 (ADD A CLAWS TO THE BILL OF RIGHTS)
 Job cpu time:       0 days  0 hours 32 minutes 53.6 seconds.
 Elapsed time:       0 days  0 hours  1 minutes 26.2 seconds.
 File lengths (MBytes):  RWF=    302 Int=      0 D2E=      0 Chk=      7 Scr=      1
 Normal termination of Gaussian 16 at Tue Aug 18 20:50:59 2026.
