 Entering Gaussian System, Link 0=g16
 Initial command:
 /mnt/data/applications/G16/g16/l1.exe "/scratch/Gau-9079.inp" -scrdir="/scratch/"
 Entering Link 1 = /mnt/data/applications/G16/g16/l1.exe PID=      9080.
  
 Copyright (c) 1988,1990,1992,1993,1995,1998,2003,2009,2016,
            Gaussian, Inc.  All Rights Reserved.
  
 This is part of the Gaussian(R) 16 program.  It is based on
 the Gaussian(R) 09 system (copyright 2009, Gaussian, Inc.),
 the Gaussian(R) 03 system (copyright 2003, Gaussian, Inc.),
 the Gaussian(R) 98 system (copyright 1998, Gaussian, Inc.),
 the Gaussian(R) 94 system (copyright 1995, Gaussian, Inc.),
 the Gaussian 92(TM) system (copyright 1992, Gaussian, Inc.),
 the Gaussian 90(TM) system (copyright 1990, Gaussian, Inc.),
 the Gaussian 88(TM) system (copyright 1988, Gaussian, Inc.),
 the Gaussian 86(TM) system (copyright 1986, Carnegie Mellon
 University), and the Gaussian 82(TM) system (copyright 1983,
 Carnegie Mellon University). Gaussian is a federally registered
 trademark of Gaussian, Inc.
  
 This software contains proprietary and confidential information,
 including trade secrets, belonging to Gaussian, Inc.
  
 This software is provided under written license and may be
 used, copied, transmitted, or stored only in accord with that
 written license.
  
 The following legend is applicable only to US Government
 contracts under FAR:
  
                    RESTRICTED RIGHTS LEGEND
  
 Use, reproduction and disclosure by the US Government is
 subject to restrictions as set forth in subparagraphs (a)
 and (c) of the Commercial Computer Software - Restricted
 Rights clause in FAR 52.227-19.
  
 Gaussian, Inc.
 340 Quinnipiac St., Bldg. 40, Wallingford CT 06492
  
  
 ---------------------------------------------------------------
 Warning -- This program may not be used in any manner that
 competes with the business of Gaussian, Inc. or will provide
 assistance to any competitor of Gaussian, Inc.  The licensee
 of this program is prohibited from giving any competitor of
 Gaussian, Inc. access to this program.  By using this program,
 the user acknowledges that Gaussian, Inc. is engaged in the
 business of creating and licensing software in the field of
 computational chemistry and represents and warrants to the
 licensee that it is not a competitor of Gaussian, Inc. and that
 it will not use this program in any manner prohibited above.
 ---------------------------------------------------------------
  

 Cite this work as:
 Gaussian 16, Revision A.03,
 M. J. Frisch, G. W. Trucks, H. B. Schlegel, G. E. Scuseria, 
 M. A. Robb, J. R. Cheeseman, G. Scalmani, V. Barone, 
 G. A. Petersson, H. Nakatsuji, X. Li, M. Caricato, A. V. Marenich, 
 J. Bloino, B. G. Janesko, R. Gomperts, B. Mennucci, H. P. Hratchian, 
 J. V. Ortiz, A. F. Izmaylov, J. L. Sonnenberg, D. Williams-Young, 
 F. Ding, F. Lipparini, F. Egidi, J. Goings, B. Peng, A. Petrone, 
 T. Henderson, D. Ranasinghe, V. G. Zakrzewski, J. Gao, N. Rega, 
 G. Zheng, W. Liang, M. Hada, M. Ehara, K. Toyota, R. Fukuda, 
 J. Hasegawa, M. Ishida, T. Nakajima, Y. Honda, O. Kitao, H. Nakai, 
 T. Vreven, K. Throssell, J. A. Montgomery, Jr., J. E. Peralta, 
 F. Ogliaro, M. J. Bearpark, J. J. Heyd, E. N. Brothers, K. N. Kudin, 
 V. N. Staroverov, T. A. Keith, R. Kobayashi, J. Normand, 
 K. Raghavachari, A. P. Rendell, J. C. Burant, S. S. Iyengar, 
 J. Tomasi, M. Cossi, J. M. Millam, M. Klene, C. Adamo, R. Cammi, 
 J. W. Ochterski, R. L. Martin, K. Morokuma, O. Farkas, 
 J. B. Foresman, and D. J. Fox, Gaussian, Inc., Wallingford CT, 2016.
 
 ******************************************
 Gaussian 16:  AM64L-G16RevA.03 25-Dec-2016
                18-Aug-2026 
 ******************************************
 %nprocshared=24
 Will use up to   24 processors via shared memory.
 %mem=20GB
 %chk=TX_eq.chk
 ----------------------------------------------------------------------
 #p b3lyp/gen EmpiricalDispersion=GD3BJ pseudo=read scrf=(solvent=aceto
 nitrile,pcm,read) nosymm pop=(Orbitals=20) geom=checkpoint guess=read
 ----------------------------------------------------------------------
 1/29=2,38=1,40=2,172=1/1;
 2/12=2,15=1,40=1/2;
 3/5=7,11=2,14=-4,16=1,17=8,25=1,30=1,70=2203,72=2,74=-5,116=-2,124=41/1,2,3;
 4/5=1/1;
 5/5=2,38=6,53=2/2;
 6/7=2,8=2,9=2,10=2,28=1,96=20/1;
 99/5=1,9=1/99;
 Leave Link    1 at Tue Aug 18 20:49:45 2026, MaxMem=  2684354560 cpu:               1.8 elap:               0.1
 (Enter /mnt/data/applications/G16/g16/l101.exe)
 -------------------
 Title Card Required
 -------------------
 Structure from the checkpoint file:  "TX_eq.chk"
 Charge =  0 Multiplicity = 3
 Z-Matrix found in chk file.
 C,0,-9.14563,-0.38528,0.00813
 C,0,-7.75898,-0.46528,0.0198
 C,0,-6.9823,0.70961,0.01471
 C,0,-7.60777,1.97326,-0.00232
 C,0,-9.01825,2.0233,-0.01394
 C,0,-9.78353,0.86714,-0.00885
 C,0,-6.87858,3.26514,-0.00887
 C,0,-5.39522,3.27402,0.0032
 C,0,-4.5954,2.11283,0.02055
 C,0,-3.19114,2.21987,0.03076
 H,0,-2.58131,1.31431,0.04407
 C,0,-2.58641,3.47032,0.02389
 C,0,-3.37033,4.63692,0.00672
 C,0,-4.75273,4.53072,-0.00339
 H,0,-9.73635,-1.30345,0.01227
 H,0,-7.2646,-1.43865,0.03295
 H,0,-9.48165,3.00982,-0.02705
 H,0,-10.87301,0.92845,-0.01796
 H,0,-1.49685,3.53968,0.03192
 H,0,-2.89401,5.61871,0.00139
 H,0,-5.38901,5.41563,-0.0168
 S,0,-5.23591,0.4706,0.03097
 O,0,-7.50433,4.32945,-0.02457
 Recover connectivity data from disk.
 ITRead=  0  0  0  0  0  0  0  0  0  0  0  0  0  0  0  0  0  0  0  0
 ITRead=  0  0  0
 MicOpt= -1 -1 -1 -1 -1 -1 -1 -1 -1 -1 -1 -1 -1 -1 -1 -1 -1 -1 -1 -1
 MicOpt= -1 -1 -1
 NAtoms=     23 NQM=       23 NQMF=       0 NMMI=      0 NMMIF=      0
                NMic=       0 NMicF=      0.
                    Isotopes and Nuclear Properties:
 (Nuclear quadrupole moments (NQMom) in fm**2, nuclear magnetic moments (NMagM)
  in nuclear magnetons)

  Atom         1           2           3           4           5           6           7           8           9          10
 IAtWgt=          12          12          12          12          12          12          12          12          12          12
 AtmWgt=  12.0000000  12.0000000  12.0000000  12.0000000  12.0000000  12.0000000  12.0000000  12.0000000  12.0000000  12.0000000
 NucSpn=           0           0           0           0           0           0           0           0           0           0
 AtZEff=   3.6000000   3.6000000   3.6000000   3.6000000   3.6000000   3.6000000   3.6000000   3.6000000   3.6000000   3.6000000
 NQMom=    0.0000000   0.0000000   0.0000000   0.0000000   0.0000000   0.0000000   0.0000000   0.0000000   0.0000000   0.0000000
 NMagM=    0.0000000   0.0000000   0.0000000   0.0000000   0.0000000   0.0000000   0.0000000   0.0000000   0.0000000   0.0000000
 AtZNuc=   6.0000000   6.0000000   6.0000000   6.0000000   6.0000000   6.0000000   6.0000000   6.0000000   6.0000000   6.0000000

  Atom        11          12          13          14          15          16          17          18          19          20
 IAtWgt=           1          12          12          12           1           1           1           1           1           1
 AtmWgt=   1.0078250  12.0000000  12.0000000  12.0000000   1.0078250   1.0078250   1.0078250   1.0078250   1.0078250   1.0078250
 NucSpn=           1           0           0           0           1           1           1           1           1           1
 AtZEff=   1.0000000   3.6000000   3.6000000   3.6000000   1.0000000   1.0000000   1.0000000   1.0000000   1.0000000   1.0000000
 NQMom=    0.0000000   0.0000000   0.0000000   0.0000000   0.0000000   0.0000000   0.0000000   0.0000000   0.0000000   0.0000000
 NMagM=    2.7928460   0.0000000   0.0000000   0.0000000   2.7928460   2.7928460   2.7928460   2.7928460   2.7928460   2.7928460
 AtZNuc=   1.0000000   6.0000000   6.0000000   6.0000000   1.0000000   1.0000000   1.0000000   1.0000000   1.0000000   1.0000000

  Atom        21          22          23
 IAtWgt=           1          32          16
 AtmWgt=   1.0078250  31.9720718  15.9949146
 NucSpn=           1           0           0
 AtZEff=   1.0000000  13.6000000   5.6000000
 NQMom=    0.0000000   0.0000000   0.0000000
 NMagM=    2.7928460   0.0000000   0.0000000
 AtZNuc=   1.0000000  16.0000000   8.0000000
 Leave Link  101 at Tue Aug 18 20:49:45 2026, MaxMem=  2684354560 cpu:               1.9 elap:               0.1
 (Enter /mnt/data/applications/G16/g16/l202.exe)
                          Input orientation:                          
 ---------------------------------------------------------------------
 Center     Atomic      Atomic             Coordinates (Angstroms)
 Number     Number       Type             X           Y           Z
 ---------------------------------------------------------------------
      1          6           0       -9.145630   -0.385280    0.008130
      2          6           0       -7.758980   -0.465280    0.019800
      3          6           0       -6.982300    0.709610    0.014710
      4          6           0       -7.607770    1.973260   -0.002320
      5          6           0       -9.018250    2.023300   -0.013940
      6          6           0       -9.783530    0.867140   -0.008850
      7          6           0       -6.878580    3.265140   -0.008870
      8          6           0       -5.395220    3.274020    0.003200
      9          6           0       -4.595400    2.112830    0.020550
     10          6           0       -3.191140    2.219870    0.030760
     11          1           0       -2.581310    1.314310    0.044070
     12          6           0       -2.586410    3.470320    0.023890
     13          6           0       -3.370330    4.636920    0.006720
     14          6           0       -4.752730    4.530720   -0.003390
     15          1           0       -9.736350   -1.303450    0.012270
     16          1           0       -7.264600   -1.438650    0.032950
     17          1           0       -9.481650    3.009820   -0.027050
     18          1           0      -10.873010    0.928450   -0.017960
     19          1           0       -1.496850    3.539680    0.031920
     20          1           0       -2.894010    5.618710    0.001390
     21          1           0       -5.389010    5.415630   -0.016800
     22         16           0       -5.235910    0.470600    0.030970
     23          8           0       -7.504330    4.329450   -0.024570
 ---------------------------------------------------------------------
                    Distance matrix (angstroms):
                    1          2          3          4          5
     1  C    0.000000
     2  C    1.389005   0.000000
     3  C    2.424629   1.408412   0.000000
     4  C    2.815641   2.443324   1.410076   0.000000
     5  C    2.412047   2.789253   2.423158   1.411415   0.000000
     6  C    1.405618   2.423833   2.805755   2.440794   1.386501
     7  C    4.297135   3.833009   2.557743   1.483481   2.473940
     8  C    5.239855   4.423799   3.015817   2.566590   3.832876
     9  C    5.190886   4.081040   2.768818   3.015688   4.423891
    10  C    6.499482   5.298614   4.080936   4.423633   5.830596
    11  H    6.780870   5.475016   4.442436   5.069681   6.476128
    12  C    7.608500   6.499573   5.190901   5.239841   6.592713
    13  C    7.653534   6.729997   5.335743   5.005104   6.223378
    14  C    6.592781   5.830788   4.424047   3.832996   4.947922
    15  H    1.091789   2.147691   3.411335   3.907415   3.403472
    16  H    2.156033   1.091803   2.166806   3.429306   3.881055
    17  H    3.411869   3.878931   3.396978   2.141610   1.090015
    18  H    2.170348   3.411904   3.896997   3.428362   2.153798
    19  H    8.597076   7.433312   6.172500   6.308580   7.672872
    20  H    8.667796   7.789943   6.388549   5.958931   7.101656
    21  H    6.911105   6.340599   4.968520   4.095487   4.967826
    22  S    4.002370   2.691074   1.762745   2.807991   4.088886
    23  O    4.992356   4.801693   3.657499   2.358564   2.758694
                    6          7          8          9         10
     6  C    0.000000
     7  C    3.766847   0.000000
     8  C    5.005046   1.483436   0.000000
     9  C    5.335663   2.557654   1.410098   0.000000
    10  C    6.729863   3.832933   2.443350   1.408371   0.000000
    11  H    7.216283   4.719647   3.429318   2.166736   1.091837
    12  C    7.653506   4.297196   2.815737   2.424630   1.389018
    13  C    7.439127   3.766941   2.440838   2.805712   2.423802
    14  C    6.223407   2.474058   1.411429   2.423122   2.789222
    15  H    2.171205   5.388813   6.308623   6.172553   7.433297
    16  H    3.415175   4.719788   5.069983   4.442724   5.475203
    17  H    2.163918   2.615625   4.095073   4.968128   6.340180
    18  H    1.091242   4.627707   5.958887   6.388476   7.789818
    19  H    8.707077   5.388882   3.907517   3.411311   2.147677
    20  H    8.369170   4.627764   3.428356   3.896959   3.411929
    21  H    6.324605   2.616006   2.141712   3.397013   3.878889
    22  S    4.565050   3.241821   2.808080   1.762748   2.690916
    23  O    4.145189   1.234733   2.358612   3.657501   4.801770
                   11         12         13         14         15
    11  H    0.000000
    12  C    2.156110   0.000000
    13  C    3.415214   1.405625   0.000000
    14  C    3.881058   2.412081   1.386510   0.000000
    15  H    7.618942   8.597131   8.707137   7.672956   0.000000
    16  H    5.432506   6.781116   7.216549   6.476433   2.475531
    17  H    7.105949   6.910788   6.324304   4.967533   4.320962
    18  H    8.300905   8.667791   8.369203   7.101717   2.504853
    19  H    2.475575   1.091795   2.171289   3.403551   9.557492
    20  H    4.315954   2.170416   1.091247   2.153737   9.733141
    21  H    4.970685   3.411811   2.163796   1.089999   8.002890
    22  S    2.785484   4.002277   4.564997   4.088914   4.837516
    23  O    5.773379   4.992634   4.145536   2.759033   6.059112
                   16         17         18         19         20
    16  H    0.000000
    17  H    4.970694   0.000000
    18  H    4.315829   2.503611   0.000000
    19  H    7.619102   8.002578   9.733108   0.000000
    20  H    8.301168   7.085486   9.255450   2.505066   0.000000
    21  H    7.106438   4.747392   7.085834   4.320934   2.503317
    22  S    2.785825   4.947455   5.655875   4.837336   5.655829
    23  O    5.773366   2.377230   4.786946   6.059434   4.787266
                   21         22         23
    21  H    0.000000
    22  S    4.947630   0.000000
    23  O    2.377904   4.476554   0.000000
 Symmetry turned off by external request.
 Stoichiometry    C13H8OS(3)
 Framework group  C1[X(C13H8OS)]
 Deg. of freedom    63
 Full point group                 C1      NOp   1
 Rotational constants (GHZ):           1.2174964           0.4226740           0.3137504
 Leave Link  202 at Tue Aug 18 20:49:45 2026, MaxMem=  2684354560 cpu:               1.7 elap:               0.1
 (Enter /mnt/data/applications/G16/g16/l301.exe)
 General basis read from cards:  (5D, 7F)
 Centers:       1      2      3      4      5      6      7      8      9     10
 Centers:      12     13     14     22     23     11     15     16     17     18
 Centers:      19     20     21
 cc-pVDZ
 ****
 ======================================================================================================
                                       Pseudopotential Parameters
 ======================================================================================================
  Center     Atomic      Valence      Angular      Power
  Number     Number     Electrons     Momentum     of R      Exponent        Coefficient   SO-Coeffient
 ======================================================================================================
    1          6
                                   No pseudopotential on this center.
    2          6
                                   No pseudopotential on this center.
    3          6
                                   No pseudopotential on this center.
    4          6
                                   No pseudopotential on this center.
    5          6
                                   No pseudopotential on this center.
    6          6
                                   No pseudopotential on this center.
    7          6
                                   No pseudopotential on this center.
    8          6
                                   No pseudopotential on this center.
    9          6
                                   No pseudopotential on this center.
   10          6
                                   No pseudopotential on this center.
   11          1
                                   No pseudopotential on this center.
   12          6
                                   No pseudopotential on this center.
   13          6
                                   No pseudopotential on this center.
   14          6
                                   No pseudopotential on this center.
   15          1
                                   No pseudopotential on this center.
   16          1
                                   No pseudopotential on this center.
   17          1
                                   No pseudopotential on this center.
   18          1
                                   No pseudopotential on this center.
   19          1
                                   No pseudopotential on this center.
   20          1
                                   No pseudopotential on this center.
   21          1
                                   No pseudopotential on this center.
   22         16
                                   No pseudopotential on this center.
   23          8
                                   No pseudopotential on this center.
 ======================================================================================================
 Ernie: Thresh=  0.10000D-02 Tol=  0.10000D-05 Strict=F.
 Ernie:  38 primitive shells out of 398 were deleted.
   254 basis functions,   589 primitive gaussians,   269 cartesian basis functions
    56 alpha electrons       54 beta electrons
       nuclear repulsion energy       991.4075582406 Hartrees.
 IExCor=  402 DFT=T Ex+Corr=B3LYP ExCW=0 ScaHFX=  0.200000
 ScaDFX=  0.800000  0.720000  1.000000  0.810000 ScalE2=  1.000000  1.000000
 IRadAn=      5 IRanWt=     -1 IRanGd=            0 ICorTp=0 IEmpDi=141
 NAtoms=   23 NActive=   23 NUniq=   23 SFac= 1.00D+00 NAtFMM=   60 NAOKFM=F Big=F
 Integral buffers will be    131072 words long.
 Raffenetti 2 integral format.
 Two-electron integral symmetry is turned off.
 R6Disp:  Grimme-D3(BJ) Dispersion energy=       -0.0581024690 Hartrees.
 Nuclear repulsion after empirical dispersion term =      991.3494557716 Hartrees.
 Using the following non-standard input for PCM:
 NonEq=read
 --- end of non-standard input.
 ------------------------------------------------------------------------------
 Polarizable Continuum Model (PCM)
 =================================
 Model                : PCM.
 Atomic radii         : UFF (Universal Force Field).
 Polarization charges : Total charges.
 Charge compensation  : None.
 Solution method      : On-the-fly selection.
 Cavity type          : Scaled VdW (van der Waals Surface) (Alpha=1.100).
 Cavity algorithm     : GePol (No added spheres)
                        Default sphere list used, NSphG=   23.
                        Lebedev-Laikov grids with approx.  5.0 points / Ang**2.
                        Smoothing algorithm: York/Karplus (Gamma=1.0000).
                        Polarization charges: spherical gaussians, with
                                              point-specific exponents (IZeta= 3).
                        Self-potential: point-specific (ISelfS= 7).
                        Self-field    : sphere-specific E.n sum rule (ISelfD= 2).
 Solvent              : Acetonitrile, Eps=  35.688000 Eps(inf)=   1.806874
 ------------------------------------------------------------------------------
 GePol: Number of generator spheres                  =      23
 GePol: Total number of spheres                      =      23
 GePol: Number of exposed spheres                    =      23 (100.00%)
 GePol: Number of points                             =    1989
 GePol: Average weight of points                     =       0.13
 GePol: Minimum weight of points                     =   0.78D-10
 GePol: Maximum weight of points                     =    0.20577
 GePol: Number of points with low weight             =      96
 GePol: Fraction of low-weight points (<1% of avg)   =       4.83%
 GePol: Cavity surface area                          =    255.926 Ang**2
 GePol: Cavity volume                                =    277.038 Ang**3
 Leave Link  301 at Tue Aug 18 20:49:45 2026, MaxMem=  2684354560 cpu:               2.1 elap:               0.1
 (Enter /mnt/data/applications/G16/g16/l302.exe)
 NPDir=0 NMtPBC=     1 NCelOv=     1 NCel=       1 NClECP=     1 NCelD=      1
         NCelK=      1 NCelE2=     1 NClLst=     1 CellRange=     0.0.
 One-electron integrals computed using PRISM.
   1 Symmetry operations used in ECPInt.
 ECPInt:  NShTT=    6786 NPrTT=   65756 LenC2=    6458 LenP2D=   34293.
 LDataN:  DoStor=T MaxTD1= 4 Len=   56
 NBasis=   254 RedAO= T EigKep=  2.46D-04  NBF=   254
 NBsUse=   254 1.00D-06 EigRej= -1.00D+00 NBFU=   254
 Precomputing XC quadrature grid using
 IXCGrd= 4 IRadAn=           5 IRanWt=          -1 IRanGd=           0 AccXCQ= 0.00D+00.
 Generated NRdTot=       0 NPtTot=           0 NUsed=           0 NTot=          32
 NSgBfM=   268   268   268   268   268 MxSgAt=    23 MxSgA2=    23.
 Leave Link  302 at Tue Aug 18 20:49:45 2026, MaxMem=  2684354560 cpu:               9.0 elap:               0.4
 (Enter /mnt/data/applications/G16/g16/l303.exe)
 DipDrv:  MaxL=1.
 Leave Link  303 at Tue Aug 18 20:49:46 2026, MaxMem=  2684354560 cpu:               3.1 elap:               0.2
 (Enter /mnt/data/applications/G16/g16/l401.exe)
 Initial guess from the checkpoint file:  "TX_eq.chk"
 B after Tr=     0.000000    0.000000    0.000000
         Rot=    1.000000    0.000000    0.000000    0.000000 Ang=   0.00 deg.
 Guess basis will be translated and rotated to current coordinates.
 JPrj=2 DoOrth=T DoCkMO=T.
 Initial guess <Sx>= 0.0000 <Sy>= 0.0000 <Sz>= 1.0000 <S**2>= 2.0000 S= 1.0000
 Leave Link  401 at Tue Aug 18 20:49:46 2026, MaxMem=  2684354560 cpu:               9.0 elap:               0.4
 (Enter /mnt/data/applications/G16/g16/l502.exe)
 Two-electron integral symmetry not used.
 UHF open shell SCF:
 Using DIIS extrapolation, IDIIS=  1040.
 NGot=  2684354560 LenX=  2684201198 LenY=  2684128396
 Requested convergence on RMS density matrix=1.00D-08 within 128 cycles.
 Requested convergence on MAX density matrix=1.00D-06.
 Requested convergence on             energy=1.00D-06.
 No special actions if energy rises.
 Fock matrices will be formed incrementally for  20 cycles.

 Cycle   1  Pass 1  IDiag  1:
 FoFJK:  IHMeth= 1 ICntrl=       0 DoSepK=F KAlg= 0 I1Cent=           0 FoldK=F
 IRaf= 890000000 NMat=       1 IRICut=       1 DoRegI=T DoRafI=F ISym2E= 0 IDoP0=0 IntGTp=1.
 FoFCou: FMM=F IPFlag=           0 FMFlag=      100000 FMFlg1=           0
         NFxFlg=           0 DoJE=F BraDBF=F KetDBF=F FulRan=T
         wScrn=  0.000000 ICntrl=         0 IOpCl=  1 I1Cent=           0 NGrid=           0
         NMat0=    1 NMatS0=      1 NMatT0=    0 NMatD0=    1 NMtDS0=    0 NMtDT0=    0
 Symmetry not used in FoFCou.
 Inv3:  Mode=1 IEnd=    11868363.
 Iteration    1 A*A^-1 deviation from unit magnitude is 2.22D-15 for    762.
 Iteration    1 A*A^-1 deviation from orthogonality  is 1.71D-15 for   1143    244.
 Iteration    1 A^-1*A deviation from unit magnitude is 2.44D-15 for    762.
 Iteration    1 A^-1*A deviation from orthogonality  is 1.29D-15 for    782    692.
 NEqPCM:  Using non-equilibrium solvation (IEInf=1, Eps=  35.6880, EpsInf=   1.8069)
 Inv3:  Mode=1 IEnd=    11868363.
 Iteration    1 A*A^-1 deviation from unit magnitude is 2.89D-15 for    122.
 Iteration    1 A*A^-1 deviation from orthogonality  is 1.57D-15 for   1143    244.
 Iteration    1 A^-1*A deviation from unit magnitude is 2.66D-15 for    122.
 Iteration    1 A^-1*A deviation from orthogonality  is 1.23D-15 for   1039    891.
 E= -973.621858688766    
 DIIS: error= 9.10D-03 at cycle   1 NSaved=   1.
 NSaved= 1 IEnMin= 1 EnMin= -973.621858688766     IErMin= 1 ErrMin= 9.10D-03
 ErrMax= 9.10D-03  0.00D+00 EMaxC= 1.00D-01 BMatC= 6.22D-02 BMatP= 6.22D-02
 IDIUse=3 WtCom= 9.09D-01 WtEn= 9.10D-02
 Coeff-Com:  0.100D+01
 Coeff-En:   0.100D+01
 Coeff:      0.100D+01
 Gap=     0.046 Goal=   None    Shift=    0.000
 Gap=    -0.030 Goal=   None    Shift=    0.000
 GapD=   -0.030 DampG=0.250 DampE=1.000 DampFc=0.2500 IDamp=-1.
 Damping current iteration by 2.50D-01
 RMSDP=4.13D-03 MaxDP=2.70D-01              OVMax= 8.49D-01

 Cycle   2  Pass 1  IDiag  1:
 RMSU=  1.03D-03    CP:  9.98D-01
 E= -973.618114044023     Delta-E=        0.003744644743 Rises=F Damp=T
 DIIS: error= 6.73D-03 at cycle   2 NSaved=   2.
 NSaved= 2 IEnMin= 1 EnMin= -973.621858688766     IErMin= 2 ErrMin= 6.73D-03
 ErrMax= 6.73D-03  0.00D+00 EMaxC= 1.00D-01 BMatC= 2.27D-02 BMatP= 6.22D-02
 IDIUse=3 WtCom= 9.33D-01 WtEn= 6.73D-02
 Coeff-Com:  0.292D+00 0.708D+00
 Coeff-En:   0.576D+00 0.424D+00
 Coeff:      0.311D+00 0.689D+00
 Gap=     0.076 Goal=   None    Shift=    0.000
 Gap=    -0.025 Goal=   None    Shift=    0.000
 RMSDP=1.25D-03 MaxDP=7.07D-02 DE= 3.74D-03 OVMax= 9.91D-01

 Cycle   3  Pass 1  IDiag  1:
 RMSU=  9.53D-04    CP:  9.99D-01  2.15D-01
 E= -973.628644591595     Delta-E=       -0.010530547572 Rises=F Damp=F
 DIIS: error= 1.38D-02 at cycle   3 NSaved=   3.
 NSaved= 3 IEnMin= 3 EnMin= -973.628644591595     IErMin= 2 ErrMin= 6.73D-03
 ErrMax= 1.38D-02  0.00D+00 EMaxC= 1.00D-01 BMatC= 6.63D-02 BMatP= 2.27D-02
 IDIUse=2 WtCom= 0.00D+00 WtEn= 1.00D+00
 EnCoef did     2 forward-backward iterations
 Coeff-En:   0.186D+00 0.237D+00 0.577D+00
 Coeff:      0.186D+00 0.237D+00 0.577D+00
 Gap=     0.063 Goal=   None    Shift=    0.000
 Gap=     0.003 Goal=   None    Shift=    0.000
 RMSDP=1.61D-03 MaxDP=8.49D-02 DE=-1.05D-02 OVMax= 2.26D-01

 Cycle   4  Pass 1  IDiag  1:
 RMSU=  1.49D-03    CP:  1.01D+00  2.63D-01  3.99D-01
 E= -973.627408725132     Delta-E=        0.001235866463 Rises=F Damp=F
 DIIS: error= 1.35D-02 at cycle   4 NSaved=   4.
 NSaved= 4 IEnMin= 3 EnMin= -973.628644591595     IErMin= 2 ErrMin= 6.73D-03
 ErrMax= 1.35D-02  0.00D+00 EMaxC= 1.00D-01 BMatC= 8.08D-02 BMatP= 2.27D-02
 IDIUse=2 WtCom= 0.00D+00 WtEn= 1.00D+00
 Coeff-En:   0.000D+00 0.000D+00 0.514D+00 0.486D+00
 Coeff:      0.000D+00 0.000D+00 0.514D+00 0.486D+00
 Gap=     0.075 Goal=   None    Shift=    0.000
 Gap=     0.055 Goal=   None    Shift=    0.000
 RMSDP=1.01D-03 MaxDP=3.99D-02 DE= 1.24D-03 OVMax= 9.54D-02

 Cycle   5  Pass 1  IDiag  1:
 RMSU=  2.79D-04    CP:  1.00D+00  1.74D-01  5.76D-01  3.71D-01
 E= -973.643553773165     Delta-E=       -0.016145048033 Rises=F Damp=F
 DIIS: error= 2.89D-03 at cycle   5 NSaved=   5.
 NSaved= 5 IEnMin= 5 EnMin= -973.643553773165     IErMin= 5 ErrMin= 2.89D-03
 ErrMax= 2.89D-03  0.00D+00 EMaxC= 1.00D-01 BMatC= 4.79D-03 BMatP= 2.27D-02
 IDIUse=3 WtCom= 9.71D-01 WtEn= 2.89D-02
 Coeff-Com: -0.102D+00 0.766D-01 0.234D+00 0.173D+00 0.619D+00
 Coeff-En:   0.000D+00 0.000D+00 0.000D+00 0.000D+00 0.100D+01
 Coeff:     -0.994D-01 0.744D-01 0.227D+00 0.168D+00 0.630D+00
 Gap=     0.073 Goal=   None    Shift=    0.000
 Gap=     0.045 Goal=   None    Shift=    0.000
 RMSDP=1.89D-04 MaxDP=7.63D-03 DE=-1.61D-02 OVMax= 4.05D-02

 Cycle   6  Pass 1  IDiag  1:
 RMSU=  1.08D-04    CP:  1.00D+00  2.20D-01  6.87D-01  4.36D-01  8.85D-01
 E= -973.645033530612     Delta-E=       -0.001479757447 Rises=F Damp=F
 DIIS: error= 8.58D-04 at cycle   6 NSaved=   6.
 NSaved= 6 IEnMin= 6 EnMin= -973.645033530612     IErMin= 6 ErrMin= 8.58D-04
 ErrMax= 8.58D-04  0.00D+00 EMaxC= 1.00D-01 BMatC= 3.96D-04 BMatP= 4.79D-03
 IDIUse=3 WtCom= 9.91D-01 WtEn= 8.58D-03
 Coeff-Com: -0.113D+00 0.586D-01 0.741D-01 0.339D-01 0.464D+00 0.482D+00
 Coeff-En:   0.000D+00 0.000D+00 0.000D+00 0.000D+00 0.000D+00 0.100D+01
 Coeff:     -0.112D+00 0.581D-01 0.735D-01 0.336D-01 0.460D+00 0.486D+00
 Gap=     0.073 Goal=   None    Shift=    0.000
 Gap=     0.047 Goal=   None    Shift=    0.000
 RMSDP=8.00D-05 MaxDP=3.39D-03 DE=-1.48D-03 OVMax= 1.29D-02

 Cycle   7  Pass 1  IDiag  1:
 RMSU=  4.98D-05    CP:  1.00D+00  2.25D-01  7.09D-01  4.29D-01  1.09D+00
                    CP:  9.61D-01
 E= -973.645202733144     Delta-E=       -0.000169202533 Rises=F Damp=F
 DIIS: error= 8.00D-04 at cycle   7 NSaved=   7.
 NSaved= 7 IEnMin= 7 EnMin= -973.645202733144     IErMin= 7 ErrMin= 8.00D-04
 ErrMax= 8.00D-04  0.00D+00 EMaxC= 1.00D-01 BMatC= 7.23D-05 BMatP= 3.96D-04
 IDIUse=3 WtCom= 9.92D-01 WtEn= 8.00D-03
 Coeff-Com: -0.450D-01 0.350D-01-0.177D-01-0.301D-01 0.885D-01 0.215D+00
 Coeff-Com:  0.754D+00
 Coeff-En:   0.000D+00 0.000D+00 0.000D+00 0.000D+00 0.000D+00 0.000D+00
 Coeff-En:   0.100D+01
 Coeff:     -0.446D-01 0.347D-01-0.176D-01-0.298D-01 0.878D-01 0.213D+00
 Coeff:      0.756D+00
 Gap=     0.073 Goal=   None    Shift=    0.000
 Gap=     0.048 Goal=   None    Shift=    0.000
 RMSDP=6.29D-05 MaxDP=3.74D-03 DE=-1.69D-04 OVMax= 2.00D-02

 Cycle   8  Pass 1  IDiag  1:
 RMSU=  2.38D-05    CP:  1.00D+00  2.36D-01  7.23D-01  4.36D-01  1.22D+00
                    CP:  1.33D+00  1.23D+00
 E= -973.645290381998     Delta-E=       -0.000087648854 Rises=F Damp=F
 DIIS: error= 3.00D-04 at cycle   8 NSaved=   8.
 NSaved= 8 IEnMin= 8 EnMin= -973.645290381998     IErMin= 8 ErrMin= 3.00D-04
 ErrMax= 3.00D-04  0.00D+00 EMaxC= 1.00D-01 BMatC= 3.11D-05 BMatP= 7.23D-05
 IDIUse=3 WtCom= 9.97D-01 WtEn= 3.00D-03
 Coeff-Com:  0.220D-01-0.480D-02-0.481D-01-0.367D-01-0.155D+00-0.150D+00
 Coeff-Com:  0.512D+00 0.861D+00
 Coeff-En:   0.000D+00 0.000D+00 0.000D+00 0.000D+00 0.000D+00 0.000D+00
 Coeff-En:   0.000D+00 0.100D+01
 Coeff:      0.219D-01-0.478D-02-0.480D-01-0.366D-01-0.154D+00-0.149D+00
 Coeff:      0.510D+00 0.861D+00
 Gap=     0.073 Goal=   None    Shift=    0.000
 Gap=     0.050 Goal=   None    Shift=    0.000
 RMSDP=7.12D-05 MaxDP=4.75D-03 DE=-8.76D-05 OVMax= 2.23D-02

 Cycle   9  Pass 1  IDiag  1:
 RMSU=  1.54D-05    CP:  1.00D+00  2.48D-01  7.35D-01  4.44D-01  1.38D+00
                    CP:  1.66D+00  1.87D+00  1.34D+00
 E= -973.645338472243     Delta-E=       -0.000048090245 Rises=F Damp=F
 DIIS: error= 2.45D-04 at cycle   9 NSaved=   9.
 NSaved= 9 IEnMin= 9 EnMin= -973.645338472243     IErMin= 9 ErrMin= 2.45D-04
 ErrMax= 2.45D-04  0.00D+00 EMaxC= 1.00D-01 BMatC= 3.59D-05 BMatP= 3.11D-05
 IDIUse=3 WtCom= 9.97D-01 WtEn= 3.00D-03
 Coeff-Com:  0.314D-01-0.208D-01-0.213D-01-0.188D-01-0.951D-01-0.159D+00
 Coeff-Com:  0.191D-01 0.439D+00 0.825D+00
 Coeff-En:   0.000D+00 0.000D+00 0.000D+00 0.000D+00 0.000D+00 0.000D+00
 Coeff-En:   0.000D+00 0.000D+00 0.100D+01
 Coeff:      0.313D-01-0.207D-01-0.213D-01-0.187D-01-0.948D-01-0.158D+00
 Coeff:      0.191D-01 0.438D+00 0.826D+00
 Gap=     0.073 Goal=   None    Shift=    0.000
 Gap=     0.052 Goal=   None    Shift=    0.000
 RMSDP=4.40D-05 MaxDP=2.31D-03 DE=-4.81D-05 OVMax= 1.23D-02

 Cycle  10  Pass 1  IDiag  1:
 RMSU=  8.27D-06    CP:  1.00D+00  2.51D-01  7.40D-01  4.41D-01  1.48D+00
                    CP:  1.88D+00  2.22D+00  1.81D+00  1.23D+00
 E= -973.645350869236     Delta-E=       -0.000012396993 Rises=F Damp=F
 DIIS: error= 2.32D-04 at cycle  10 NSaved=  10.
 NSaved=10 IEnMin=10 EnMin= -973.645350869236     IErMin=10 ErrMin= 2.32D-04
 ErrMax= 2.32D-04  0.00D+00 EMaxC= 1.00D-01 BMatC= 2.94D-05 BMatP= 3.11D-05
 IDIUse=3 WtCom= 9.98D-01 WtEn= 2.32D-03
 Coeff-Com:  0.157D-01-0.106D-01-0.315D-02-0.114D-01-0.153D-01-0.434D-01
 Coeff-Com: -0.395D-01 0.808D-01 0.339D+00 0.688D+00
 Coeff-En:   0.000D+00 0.000D+00 0.000D+00 0.000D+00 0.000D+00 0.000D+00
 Coeff-En:   0.000D+00 0.000D+00 0.000D+00 0.100D+01
 Coeff:      0.156D-01-0.106D-01-0.314D-02-0.114D-01-0.153D-01-0.433D-01
 Coeff:     -0.394D-01 0.806D-01 0.338D+00 0.689D+00
 Gap=     0.074 Goal=   None    Shift=    0.000
 Gap=     0.052 Goal=   None    Shift=    0.000
 RMSDP=1.61D-05 MaxDP=5.68D-04 DE=-1.24D-05 OVMax= 1.59D-03

 Cycle  11  Pass 1  IDiag  1:
 RMSU=  5.60D-06    CP:  1.00D+00  2.49D-01  7.42D-01  4.33D-01  1.50D+00
                    CP:  1.92D+00  2.31D+00  1.92D+00  1.36D+00  1.10D+00
 E= -973.645358069556     Delta-E=       -0.000007200321 Rises=F Damp=F
 DIIS: error= 9.45D-05 at cycle  11 NSaved=  11.
 NSaved=11 IEnMin=11 EnMin= -973.645358069556     IErMin=11 ErrMin= 9.45D-05
 ErrMax= 9.45D-05  0.00D+00 EMaxC= 1.00D-01 BMatC= 5.66D-06 BMatP= 2.94D-05
 IDIUse=1 WtCom= 1.00D+00 WtEn= 0.00D+00
 Coeff-Com:  0.117D-02-0.479D-02 0.278D-02-0.877D-04 0.135D-01 0.302D-01
 Coeff-Com:  0.227D-01-0.562D-01-0.253D+00 0.207D+00 0.104D+01
 Coeff:      0.117D-02-0.479D-02 0.278D-02-0.877D-04 0.135D-01 0.302D-01
 Coeff:      0.227D-01-0.562D-01-0.253D+00 0.207D+00 0.104D+01
 Gap=     0.074 Goal=   None    Shift=    0.000
 Gap=     0.052 Goal=   None    Shift=    0.000
 RMSDP=9.23D-06 MaxDP=3.02D-04 DE=-7.20D-06 OVMax= 1.46D-03

 Cycle  12  Pass 1  IDiag  1:
 RMSU=  2.59D-06    CP:  1.00D+00  2.47D-01  7.43D-01  4.30D-01  1.51D+00
                    CP:  1.95D+00  2.36D+00  2.01D+00  1.47D+00  1.49D+00
                    CP:  1.38D+00
 E= -973.645359810869     Delta-E=       -0.000001741312 Rises=F Damp=F
 DIIS: error= 4.17D-05 at cycle  12 NSaved=  12.
 NSaved=12 IEnMin=12 EnMin= -973.645359810869     IErMin=12 ErrMin= 4.17D-05
 ErrMax= 4.17D-05  0.00D+00 EMaxC= 1.00D-01 BMatC= 1.04D-06 BMatP= 5.66D-06
 IDIUse=1 WtCom= 1.00D+00 WtEn= 0.00D+00
 Coeff-Com: -0.100D-02-0.207D-02 0.106D-02 0.145D-02 0.515D-02 0.201D-01
 Coeff-Com:  0.335D-01-0.283D-01-0.236D+00-0.659D-01 0.569D+00 0.703D+00
 Coeff:     -0.100D-02-0.207D-02 0.106D-02 0.145D-02 0.515D-02 0.201D-01
 Coeff:      0.335D-01-0.283D-01-0.236D+00-0.659D-01 0.569D+00 0.703D+00
 Gap=     0.074 Goal=   None    Shift=    0.000
 Gap=     0.052 Goal=   None    Shift=    0.000
 RMSDP=4.25D-06 MaxDP=1.50D-04 DE=-1.74D-06 OVMax= 7.53D-04

 Cycle  13  Pass 1  IDiag  1:
 RMSU=  1.33D-06    CP:  1.00D+00  2.46D-01  7.44D-01  4.29D-01  1.52D+00
                    CP:  1.97D+00  2.39D+00  2.06D+00  1.50D+00  1.61D+00
                    CP:  1.66D+00  1.06D+00
 E= -973.645360102662     Delta-E=       -0.000000291793 Rises=F Damp=F
 DIIS: error= 1.81D-05 at cycle  13 NSaved=  13.
 NSaved=13 IEnMin=13 EnMin= -973.645360102662     IErMin=13 ErrMin= 1.81D-05
 ErrMax= 1.81D-05  0.00D+00 EMaxC= 1.00D-01 BMatC= 2.02D-07 BMatP= 1.04D-06
 IDIUse=1 WtCom= 1.00D+00 WtEn= 0.00D+00
 Coeff-Com:  0.376D-03-0.776D-03-0.492D-03 0.395D-03-0.370D-02-0.266D-02
 Coeff-Com:  0.151D-01 0.146D-01-0.373D-01-0.942D-01-0.315D-01 0.355D+00
 Coeff-Com:  0.786D+00
 Coeff:      0.376D-03-0.776D-03-0.492D-03 0.395D-03-0.370D-02-0.266D-02
 Coeff:      0.151D-01 0.146D-01-0.373D-01-0.942D-01-0.315D-01 0.355D+00
 Coeff:      0.786D+00
 Gap=     0.074 Goal=   None    Shift=    0.000
 Gap=     0.052 Goal=   None    Shift=    0.000
 RMSDP=1.47D-06 MaxDP=5.81D-05 DE=-2.92D-07 OVMax= 1.45D-04

 Cycle  14  Pass 1  IDiag  1:
 RMSU=  5.44D-07    CP:  1.00D+00  2.46D-01  7.44D-01  4.29D-01  1.52D+00
                    CP:  1.97D+00  2.40D+00  2.07D+00  1.51D+00  1.67D+00
                    CP:  1.76D+00  1.28D+00  9.77D-01
 E= -973.645360170987     Delta-E=       -0.000000068325 Rises=F Damp=F
 DIIS: error= 7.93D-06 at cycle  14 NSaved=  14.
 NSaved=14 IEnMin=14 EnMin= -973.645360170987     IErMin=14 ErrMin= 7.93D-06
 ErrMax= 7.93D-06  0.00D+00 EMaxC= 1.00D-01 BMatC= 3.10D-08 BMatP= 2.02D-07
 IDIUse=1 WtCom= 1.00D+00 WtEn= 0.00D+00
 Coeff-Com:  0.289D-03-0.150D-03-0.317D-03-0.140D-03-0.166D-02-0.273D-02
 Coeff-Com:  0.241D-02 0.909D-02 0.156D-01-0.276D-01-0.940D-01 0.163D-01
 Coeff-Com:  0.267D+00 0.816D+00
 Coeff:      0.289D-03-0.150D-03-0.317D-03-0.140D-03-0.166D-02-0.273D-02
 Coeff:      0.241D-02 0.909D-02 0.156D-01-0.276D-01-0.940D-01 0.163D-01
 Coeff:      0.267D+00 0.816D+00
 Gap=     0.074 Goal=   None    Shift=    0.000
 Gap=     0.052 Goal=   None    Shift=    0.000
 RMSDP=6.66D-07 MaxDP=3.22D-05 DE=-6.83D-08 OVMax= 7.22D-05

 Cycle  15  Pass 1  IDiag  1:
 RMSU=  2.19D-07    CP:  1.00D+00  2.45D-01  7.44D-01  4.28D-01  1.52D+00
                    CP:  1.97D+00  2.40D+00  2.07D+00  1.51D+00  1.69D+00
                    CP:  1.81D+00  1.35D+00  1.11D+00  1.09D+00
 E= -973.645360182756     Delta-E=       -0.000000011769 Rises=F Damp=F
 DIIS: error= 2.56D-06 at cycle  15 NSaved=  15.
 NSaved=15 IEnMin=15 EnMin= -973.645360182756     IErMin=15 ErrMin= 2.56D-06
 ErrMax= 2.56D-06  0.00D+00 EMaxC= 1.00D-01 BMatC= 2.89D-09 BMatP= 3.10D-08
 IDIUse=1 WtCom= 1.00D+00 WtEn= 0.00D+00
 Coeff-Com:  0.184D-03-0.221D-04-0.140D-03-0.179D-03-0.484D-03-0.114D-02
 Coeff-Com: -0.207D-02 0.251D-02 0.164D-01 0.357D-02-0.451D-01-0.662D-01
 Coeff-Com: -0.267D-01 0.424D+00 0.695D+00
 Coeff:      0.184D-03-0.221D-04-0.140D-03-0.179D-03-0.484D-03-0.114D-02
 Coeff:     -0.207D-02 0.251D-02 0.164D-01 0.357D-02-0.451D-01-0.662D-01
 Coeff:     -0.267D-01 0.424D+00 0.695D+00
 Gap=     0.074 Goal=   None    Shift=    0.000
 Gap=     0.052 Goal=   None    Shift=    0.000
 RMSDP=2.66D-07 MaxDP=1.25D-05 DE=-1.18D-08 OVMax= 3.98D-05

 Cycle  16  Pass 1  IDiag  1:
 RMSU=  1.23D-07    CP:  1.00D+00  2.45D-01  7.44D-01  4.28D-01  1.52D+00
                    CP:  1.97D+00  2.40D+00  2.07D+00  1.51D+00  1.69D+00
                    CP:  1.82D+00  1.38D+00  1.15D+00  1.26D+00  1.11D+00
 E= -973.645360184291     Delta-E=       -0.000000001534 Rises=F Damp=F
 DIIS: error= 8.71D-07 at cycle  16 NSaved=  16.
 NSaved=16 IEnMin=16 EnMin= -973.645360184291     IErMin=16 ErrMin= 8.71D-07
 ErrMax= 8.71D-07  0.00D+00 EMaxC= 1.00D-01 BMatC= 2.95D-10 BMatP= 2.89D-09
 IDIUse=1 WtCom= 1.00D+00 WtEn= 0.00D+00
 Coeff-Com: -0.473D-04 0.574D-04 0.198D-04-0.429D-04 0.326D-03 0.581D-03
 Coeff-Com: -0.103D-02-0.134D-02 0.386D-03 0.766D-02 0.128D-01-0.192D-01
 Coeff-Com: -0.818D-01-0.909D-01 0.177D+00 0.995D+00
 Coeff:     -0.473D-04 0.574D-04 0.198D-04-0.429D-04 0.326D-03 0.581D-03
 Coeff:     -0.103D-02-0.134D-02 0.386D-03 0.766D-02 0.128D-01-0.192D-01
 Coeff:     -0.818D-01-0.909D-01 0.177D+00 0.995D+00
 Gap=     0.074 Goal=   None    Shift=    0.000
 Gap=     0.052 Goal=   None    Shift=    0.000
 RMSDP=1.29D-07 MaxDP=5.78D-06 DE=-1.53D-09 OVMax= 2.06D-05

 Cycle  17  Pass 1  IDiag  1:
 RMSU=  6.86D-08    CP:  1.00D+00  2.45D-01  7.44D-01  4.28D-01  1.52D+00
                    CP:  1.97D+00  2.40D+00  2.07D+00  1.51D+00  1.70D+00
                    CP:  1.83D+00  1.39D+00  1.17D+00  1.35D+00  1.44D+00
                    CP:  1.21D+00
 E= -973.645360184576     Delta-E=       -0.000000000285 Rises=F Damp=F
 DIIS: error= 5.10D-07 at cycle  17 NSaved=  17.
 NSaved=17 IEnMin=17 EnMin= -973.645360184576     IErMin=17 ErrMin= 5.10D-07
 ErrMax= 5.10D-07  0.00D+00 EMaxC= 1.00D-01 BMatC= 2.84D-10 BMatP= 2.95D-10
 IDIUse=1 WtCom= 1.00D+00 WtEn= 0.00D+00
 Coeff-Com: -0.673D-04 0.394D-04 0.422D-04 0.157D-04 0.309D-03 0.557D-03
 Coeff-Com: -0.420D-03-0.146D-02-0.247D-02 0.457D-02 0.169D-01 0.227D-03
 Coeff-Com: -0.505D-01-0.135D+00-0.200D-01 0.624D+00 0.563D+00
 Coeff:     -0.673D-04 0.394D-04 0.422D-04 0.157D-04 0.309D-03 0.557D-03
 Coeff:     -0.420D-03-0.146D-02-0.247D-02 0.457D-02 0.169D-01 0.227D-03
 Coeff:     -0.505D-01-0.135D+00-0.200D-01 0.624D+00 0.563D+00
 Gap=     0.074 Goal=   None    Shift=    0.000
 Gap=     0.052 Goal=   None    Shift=    0.000
 RMSDP=6.85D-08 MaxDP=2.66D-06 DE=-2.85D-10 OVMax= 9.06D-06

 Cycle  18  Pass 1  IDiag  1:
 RMSU=  4.58D-08    CP:  1.00D+00  2.45D-01  7.44D-01  4.28D-01  1.52D+00
                    CP:  1.97D+00  2.40D+00  2.07D+00  1.51D+00  1.70D+00
                    CP:  1.83D+00  1.39D+00  1.18D+00  1.38D+00  1.52D+00
                    CP:  1.47D+00  6.36D-01
 E= -973.645360184680     Delta-E=       -0.000000000104 Rises=F Damp=F
 DIIS: error= 3.66D-07 at cycle  18 NSaved=  18.
 NSaved=18 IEnMin=18 EnMin= -973.645360184680     IErMin=18 ErrMin= 3.66D-07
 ErrMax= 3.66D-07  0.00D+00 EMaxC= 1.00D-01 BMatC= 1.16D-10 BMatP= 2.84D-10
 IDIUse=1 WtCom= 1.00D+00 WtEn= 0.00D+00
 Coeff-Com: -0.394D-04 0.955D-05 0.318D-04 0.403D-04 0.130D-03 0.190D-03
 Coeff-Com: -0.192D-04-0.742D-03-0.201D-02 0.650D-03 0.839D-02 0.851D-02
 Coeff-Com: -0.730D-02-0.717D-01-0.921D-01 0.712D-01 0.468D+00 0.616D+00
 Coeff:     -0.394D-04 0.955D-05 0.318D-04 0.403D-04 0.130D-03 0.190D-03
 Coeff:     -0.192D-04-0.742D-03-0.201D-02 0.650D-03 0.839D-02 0.851D-02
 Coeff:     -0.730D-02-0.717D-01-0.921D-01 0.712D-01 0.468D+00 0.616D+00
 Gap=     0.074 Goal=   None    Shift=    0.000
 Gap=     0.052 Goal=   None    Shift=    0.000
 RMSDP=4.47D-08 MaxDP=1.68D-06 DE=-1.04D-10 OVMax= 6.89D-06

 Cycle  19  Pass 1  IDiag  1:
 RMSU=  1.72D-08    CP:  1.00D+00  2.45D-01  7.44D-01  4.28D-01  1.52D+00
                    CP:  1.97D+00  2.40D+00  2.07D+00  1.51D+00  1.70D+00
                    CP:  1.83D+00  1.39D+00  1.18D+00  1.40D+00  1.59D+00
                    CP:  1.56D+00  9.90D-01  7.97D-01
 E= -973.645360184723     Delta-E=       -0.000000000043 Rises=F Damp=F
 DIIS: error= 7.92D-08 at cycle  19 NSaved=  19.
 NSaved=19 IEnMin=19 EnMin= -973.645360184723     IErMin=19 ErrMin= 7.92D-08
 ErrMax= 7.92D-08  0.00D+00 EMaxC= 1.00D-01 BMatC= 5.89D-12 BMatP= 1.16D-10
 IDIUse=1 WtCom= 1.00D+00 WtEn= 0.00D+00
 Coeff-Com: -0.759D-05 0.548D-05 0.495D-05 0.971D-05 0.518D-05-0.276D-04
 Coeff-Com:  0.520D-04 0.325D-04-0.212D-03-0.684D-03-0.850D-03 0.260D-02
 Coeff-Com:  0.842D-02 0.257D-02-0.156D-01-0.107D+00 0.320D-01 0.190D+00
 Coeff-Com:  0.889D+00
 Coeff:     -0.759D-05 0.548D-05 0.495D-05 0.971D-05 0.518D-05-0.276D-04
 Coeff:      0.520D-04 0.325D-04-0.212D-03-0.684D-03-0.850D-03 0.260D-02
 Coeff:      0.842D-02 0.257D-02-0.156D-01-0.107D+00 0.320D-01 0.190D+00
 Coeff:      0.889D+00
 Gap=     0.074 Goal=   None    Shift=    0.000
 Gap=     0.052 Goal=   None    Shift=    0.000
 RMSDP=1.44D-08 MaxDP=6.39D-07 DE=-4.32D-11 OVMax= 1.76D-06

 Cycle  20  Pass 1  IDiag  1:
 RMSU=  6.40D-09    CP:  1.00D+00  2.45D-01  7.44D-01  4.28D-01  1.52D+00
                    CP:  1.97D+00  2.40D+00  2.07D+00  1.51D+00  1.70D+00
                    CP:  1.83D+00  1.39D+00  1.18D+00  1.40D+00  1.60D+00
                    CP:  1.60D+00  1.05D+00  9.60D-01  1.17D+00
 E= -973.645360184738     Delta-E=       -0.000000000015 Rises=F Damp=F
 DIIS: error= 6.27D-08 at cycle  20 NSaved=  20.
 NSaved=20 IEnMin=20 EnMin= -973.645360184738     IErMin=20 ErrMin= 6.27D-08
 ErrMax= 6.27D-08  0.00D+00 EMaxC= 1.00D-01 BMatC= 2.27D-12 BMatP= 5.89D-12
 IDIUse=1 WtCom= 1.00D+00 WtEn= 0.00D+00
 Coeff-Com:  0.316D-05 0.174D-05-0.351D-05-0.167D-05-0.211D-04-0.544D-04
 Coeff-Com:  0.219D-04 0.149D-03 0.224D-03-0.387D-03-0.177D-02-0.175D-03
 Coeff-Com:  0.575D-02 0.115D-01 0.936D-02-0.732D-01-0.604D-01 0.134D-02
 Coeff-Com:  0.466D+00 0.642D+00
 Coeff:      0.316D-05 0.174D-05-0.351D-05-0.167D-05-0.211D-04-0.544D-04
 Coeff:      0.219D-04 0.149D-03 0.224D-03-0.387D-03-0.177D-02-0.175D-03
 Coeff:      0.575D-02 0.115D-01 0.936D-02-0.732D-01-0.604D-01 0.134D-02
 Coeff:      0.466D+00 0.642D+00
 Gap=     0.074 Goal=   None    Shift=    0.000
 Gap=     0.052 Goal=   None    Shift=    0.000
 RMSDP=5.95D-09 MaxDP=3.13D-07 DE=-1.50D-11 OVMax= 7.10D-07

 Error on total polarization charges =  0.00013
 SCF Done:  E(UB3LYP) =  -973.645360185     A.U. after   20 cycles
            NFock= 20  Conv=0.60D-08     -V/T= 2.0047
 <Sx>= 0.0000 <Sy>= 0.0000 <Sz>= 1.0000 <S**2>= 2.0070 S= 1.0023
 <L.S>= 0.000000000000E+00
 KE= 9.690661515774D+02 PE=-4.266401010991D+03 EE= 1.332340043457D+03
 Annihilation of the first spin contaminant:
 S**2 before annihilation     2.0070,   after     2.0000
 Leave Link  502 at Tue Aug 18 20:51:24 2026, MaxMem=  2684354560 cpu:            2252.0 elap:              97.7
 (Enter /mnt/data/applications/G16/g16/l601.exe)
 Copying SCF densities to generalized density rwf, IOpCl= 1 IROHF=0.

 **********************************************************************

            Population analysis using the SCF density.

 **********************************************************************

 Alpha  occ. eigenvalues --  -88.96308 -19.10339 -10.25014 -10.25013 -10.23314
 Alpha  occ. eigenvalues --  -10.21581 -10.21580 -10.21555 -10.21555 -10.21278
 Alpha  occ. eigenvalues --  -10.21278 -10.19863 -10.19863 -10.19488 -10.19487
 Alpha  occ. eigenvalues --   -8.02385  -5.98599  -5.98467  -5.98189  -1.02003
 Alpha  occ. eigenvalues --   -0.90774  -0.87770  -0.83416  -0.78104  -0.77477
 Alpha  occ. eigenvalues --   -0.76369  -0.73051  -0.65876  -0.63544  -0.61294
 Alpha  occ. eigenvalues --   -0.60420  -0.55786  -0.54435  -0.49917  -0.47890
 Alpha  occ. eigenvalues --   -0.47690  -0.47375  -0.44552  -0.44122  -0.44050
 Alpha  occ. eigenvalues --   -0.42732  -0.41591  -0.40811  -0.39435  -0.38803
 Alpha  occ. eigenvalues --   -0.38145  -0.36441  -0.35536  -0.34870  -0.34699
 Alpha  occ. eigenvalues --   -0.28918  -0.27572  -0.27336  -0.25120  -0.24703
 Alpha  occ. eigenvalues --   -0.12055
 Alpha virt. eigenvalues --   -0.04674  -0.02879  -0.02591   0.00009   0.04503
 Alpha virt. eigenvalues --    0.04880   0.07947   0.07951   0.10228   0.10674
 Alpha virt. eigenvalues --    0.12354   0.12921   0.14679   0.14737   0.15409
 Alpha virt. eigenvalues --    0.16568   0.19463   0.23717   0.24432   0.25315
 Alpha virt. eigenvalues --    0.28224   0.28672   0.28710   0.31153   0.32525
 Alpha virt. eigenvalues --    0.32944   0.38286   0.38755   0.40318   0.40380
 Alpha virt. eigenvalues --    0.41704   0.43498   0.43539   0.44025   0.46078
 Alpha virt. eigenvalues --    0.46392   0.46716   0.47297   0.47767   0.47913
 Alpha virt. eigenvalues --    0.48381   0.49198   0.49619   0.49845   0.50475
 Alpha virt. eigenvalues --    0.50915   0.50969   0.51936   0.52498   0.55326
 Alpha virt. eigenvalues --    0.55605   0.55814   0.57751   0.58199   0.60816
 Alpha virt. eigenvalues --    0.61039   0.61781   0.62631   0.63340   0.63384
 Alpha virt. eigenvalues --    0.64217   0.65700   0.65838   0.67399   0.69201
 Alpha virt. eigenvalues --    0.70487   0.70575   0.72683   0.73834   0.74201
 Alpha virt. eigenvalues --    0.75083   0.79227   0.82259   0.82699   0.85116
 Alpha virt. eigenvalues --    0.86388   0.86870   0.87053   0.89107   0.89670
 Alpha virt. eigenvalues --    0.90965   0.91219   0.92233   0.93456   0.96342
 Alpha virt. eigenvalues --    0.96387   0.97087   0.97168   0.98777   1.00784
 Alpha virt. eigenvalues --    1.01490   1.01528   1.01837   1.03303   1.04108
 Alpha virt. eigenvalues --    1.04723   1.05508   1.07203   1.08085   1.12696
 Alpha virt. eigenvalues --    1.13504   1.15450   1.15879   1.17865   1.19148
 Alpha virt. eigenvalues --    1.20267   1.27491   1.30333   1.32417   1.34081
 Alpha virt. eigenvalues --    1.34868   1.37362   1.40589   1.43095   1.43423
 Alpha virt. eigenvalues --    1.46120   1.46386   1.47238   1.47639   1.49005
 Alpha virt. eigenvalues --    1.50010   1.50546   1.50761   1.50827   1.54321
 Alpha virt. eigenvalues --    1.58671   1.60748   1.60842   1.61613   1.62676
 Alpha virt. eigenvalues --    1.62783   1.63915   1.64424   1.65734   1.66141
 Alpha virt. eigenvalues --    1.67412   1.69168   1.69483   1.72604   1.73572
 Alpha virt. eigenvalues --    1.74969   1.75361   1.76862   1.78499   1.78599
 Alpha virt. eigenvalues --    1.78616   1.79691   1.80842   1.82806   1.83300
 Alpha virt. eigenvalues --    1.83472   1.85304   1.85415   1.86271   1.90622
 Alpha virt. eigenvalues --    1.90735   1.93770   1.94619   1.95038   1.95992
 Alpha virt. eigenvalues --    1.98912   1.99955   2.01246   2.05937   2.08278
 Alpha virt. eigenvalues --    2.12967   2.16014   2.16296   2.17954   2.19198
 Alpha virt. eigenvalues --    2.20742   2.22465   2.28470   2.35307   2.36119
 Alpha virt. eigenvalues --    2.37071   2.38661   2.42218   2.43295   2.46003
 Alpha virt. eigenvalues --    2.54290   2.55341   2.63896   2.64582   2.70311
 Alpha virt. eigenvalues --    2.70547   2.71822   2.74623   2.76201   2.77429
 Alpha virt. eigenvalues --    2.81301   2.82010   3.00336   3.07406   3.34504
 Alpha virt. eigenvalues --    3.42326   3.49312   3.57105
  Beta  occ. eigenvalues --  -88.96041 -19.09360 -10.24806 -10.24805 -10.23018
  Beta  occ. eigenvalues --  -10.21545 -10.21544 -10.21447 -10.21446 -10.21158
  Beta  occ. eigenvalues --  -10.21158 -10.19680 -10.19680 -10.19376 -10.19375
  Beta  occ. eigenvalues --   -8.02113  -5.98435  -5.98035  -5.97584  -1.00138
  Beta  occ. eigenvalues --   -0.89998  -0.87271  -0.82668  -0.77400  -0.76945
  Beta  occ. eigenvalues --   -0.75905  -0.72151  -0.65108  -0.63152  -0.60946
  Beta  occ. eigenvalues --   -0.59778  -0.55229  -0.54186  -0.49455  -0.47675
  Beta  occ. eigenvalues --   -0.47476  -0.47062  -0.44309  -0.43898  -0.42478
  Beta  occ. eigenvalues --   -0.41940  -0.40718  -0.40358  -0.38052  -0.37781
  Beta  occ. eigenvalues --   -0.36287  -0.35281  -0.34886  -0.34502  -0.32287
  Beta  occ. eigenvalues --   -0.26952  -0.26033  -0.24933  -0.23786
  Beta virt. eigenvalues --   -0.18588  -0.05044  -0.03198  -0.01244  -0.00992
  Beta virt. eigenvalues --    0.00407   0.05515   0.07173   0.08034   0.08409
  Beta virt. eigenvalues --    0.10282   0.10750   0.13077   0.13720   0.14852
  Beta virt. eigenvalues --    0.14872   0.15531   0.18668   0.19653   0.24154
  Beta virt. eigenvalues --    0.24825   0.25584   0.28389   0.28896   0.29049
  Beta virt. eigenvalues --    0.31664   0.32854   0.33342   0.38647   0.38964
  Beta virt. eigenvalues --    0.40721   0.40946   0.42851   0.44166   0.44952
  Beta virt. eigenvalues --    0.45015   0.46408   0.46757   0.47849   0.48153
  Beta virt. eigenvalues --    0.48229   0.48243   0.48716   0.49680   0.50114
  Beta virt. eigenvalues --    0.50703   0.50882   0.51231   0.51415   0.52644
  Beta virt. eigenvalues --    0.52827   0.56049   0.56084   0.56424   0.57933
  Beta virt. eigenvalues --    0.59185   0.61407   0.62257   0.62607   0.63260
  Beta virt. eigenvalues --    0.63430   0.63619   0.64504   0.65992   0.66501
  Beta virt. eigenvalues --    0.67772   0.69648   0.70662   0.70787   0.73130
  Beta virt. eigenvalues --    0.73978   0.74937   0.75389   0.80118   0.82509
  Beta virt. eigenvalues --    0.83175   0.85292   0.87044   0.87295   0.87916
  Beta virt. eigenvalues --    0.89351   0.90411   0.91202   0.91856   0.92474
  Beta virt. eigenvalues --    0.93740   0.96578   0.96880   0.97472   0.97795
  Beta virt. eigenvalues --    0.99195   1.01734   1.01803   1.02237   1.02412
  Beta virt. eigenvalues --    1.03783   1.04805   1.04919   1.07405   1.07428
  Beta virt. eigenvalues --    1.08357   1.13922   1.14289   1.16074   1.16211
  Beta virt. eigenvalues --    1.18637   1.20018   1.20651   1.27764   1.30587
  Beta virt. eigenvalues --    1.32855   1.34403   1.35275   1.37823   1.41649
  Beta virt. eigenvalues --    1.43963   1.44076   1.46296   1.46845   1.47478
  Beta virt. eigenvalues --    1.47989   1.49382   1.50230   1.50986   1.51271
  Beta virt. eigenvalues --    1.51288   1.54572   1.58854   1.61034   1.61224
  Beta virt. eigenvalues --    1.61760   1.62963   1.63040   1.64142   1.64668
  Beta virt. eigenvalues --    1.65998   1.66518   1.67698   1.69436   1.69885
  Beta virt. eigenvalues --    1.73347   1.73981   1.75286   1.75941   1.77452
  Beta virt. eigenvalues --    1.78830   1.78873   1.79340   1.79984   1.81162
  Beta virt. eigenvalues --    1.83021   1.83489   1.84080   1.85462   1.85570
  Beta virt. eigenvalues --    1.86453   1.90964   1.91059   1.94079   1.95055
  Beta virt. eigenvalues --    1.95639   1.96332   1.99184   2.00308   2.01451
  Beta virt. eigenvalues --    2.06288   2.08498   2.13657   2.16599   2.16922
  Beta virt. eigenvalues --    2.18783   2.19861   2.21120   2.23181   2.28662
  Beta virt. eigenvalues --    2.35611   2.36356   2.37187   2.38800   2.42450
  Beta virt. eigenvalues --    2.43920   2.46267   2.54521   2.55602   2.64171
  Beta virt. eigenvalues --    2.64900   2.70498   2.71949   2.73470   2.75235
  Beta virt. eigenvalues --    2.76406   2.78990   2.81429   2.82602   3.01317
  Beta virt. eigenvalues --    3.10244   3.34848   3.42533   3.50485   3.57390
          Condensed to atoms (all electrons):
               1          2          3          4          5          6
     1  C    4.785356   0.502577   0.004337  -0.075985   0.008035   0.436288
     2  C    0.502577   4.746218   0.439857   0.007820  -0.075799   0.015845
     3  C    0.004337   0.439857   5.490722   0.280719  -0.054538  -0.083745
     4  C   -0.075985   0.007820   0.280719   5.427305   0.349347   0.018773
     5  C    0.008035  -0.075799  -0.054538   0.349347   4.981480   0.414295
     6  C    0.436288   0.015845  -0.083745   0.018773   0.414295   4.818008
     7  C   -0.000406   0.006697  -0.064034   0.195744  -0.069370   0.013940
     8  C    0.000052  -0.000477  -0.053384  -0.018335   0.023993  -0.000564
     9  C   -0.000156   0.001807  -0.008376  -0.053383   0.000303   0.000091
    10  C    0.000001  -0.000252   0.001807  -0.000476   0.000048   0.000001
    11  H   -0.000000  -0.000006   0.000463   0.000028  -0.000002   0.000000
    12  C    0.000000   0.000001  -0.000156   0.000052   0.000001  -0.000000
    13  C   -0.000000   0.000001   0.000091  -0.000564  -0.000006   0.000000
    14  C    0.000001   0.000048   0.000304   0.023984  -0.001148  -0.000006
    15  H    0.395066  -0.042623   0.011289  -0.000030   0.009623  -0.051815
    16  H   -0.041428   0.391629  -0.055299   0.012076  -0.000419   0.009987
    17  H    0.010499  -0.001094   0.015744  -0.049774   0.392219  -0.060092
    18  H   -0.050983   0.009443   0.000514   0.009272  -0.043248   0.395376
    19  H    0.000000  -0.000000   0.000003   0.000001   0.000000  -0.000000
    20  H    0.000000   0.000000  -0.000000   0.000002  -0.000000  -0.000000
    21  H    0.000000   0.000002  -0.000195   0.003746  -0.000170  -0.000003
    22  S    0.005179  -0.086445   0.303102  -0.066258   0.006722  -0.000403
    23  O   -0.000011  -0.000061   0.005261  -0.131844   0.018078   0.001463
               7          8          9         10         11         12
     1  C   -0.000406   0.000052  -0.000156   0.000001  -0.000000   0.000000
     2  C    0.006697  -0.000477   0.001807  -0.000252  -0.000006   0.000001
     3  C   -0.064034  -0.053384  -0.008376   0.001807   0.000463  -0.000156
     4  C    0.195744  -0.018335  -0.053383  -0.000476   0.000028   0.000052
     5  C   -0.069370   0.023993   0.000303   0.000048  -0.000002   0.000001
     6  C    0.013940  -0.000564   0.000091   0.000001   0.000000  -0.000000
     7  C    5.174999   0.195807  -0.064063   0.006697  -0.000158  -0.000406
     8  C    0.195807   5.427225   0.280616   0.007808   0.012075  -0.075972
     9  C   -0.064063   0.280616   5.490800   0.439889  -0.055318   0.004313
    10  C    0.006697   0.007808   0.439889   4.746117   0.391606   0.502616
    11  H   -0.000158   0.012075  -0.055318   0.391606   0.713040  -0.041400
    12  C   -0.000406  -0.075972   0.004313   0.502616  -0.041400   4.785500
    13  C    0.013937   0.018786  -0.083750   0.015842   0.009986   0.436206
    14  C   -0.069393   0.349396  -0.054486  -0.075771  -0.000419   0.008021
    15  H    0.000025   0.000001   0.000003  -0.000000  -0.000000   0.000000
    16  H   -0.000158   0.000028   0.000463  -0.000006   0.000009  -0.000000
    17  H   -0.032051   0.003753  -0.000195   0.000002  -0.000000   0.000000
    18  H   -0.000318   0.000002  -0.000000   0.000000   0.000000   0.000000
    19  H    0.000025  -0.000029   0.011289  -0.042588  -0.015275   0.395048
    20  H   -0.000318   0.009270   0.000513   0.009442  -0.000230  -0.051028
    21  H   -0.032035  -0.049715   0.015746  -0.001093   0.000054   0.010499
    22  S   -0.022165  -0.066232   0.303116  -0.086453  -0.007768   0.005180
    23  O    0.728507  -0.131799   0.005263  -0.000060   0.000001  -0.000011
              13         14         15         16         17         18
     1  C   -0.000000   0.000001   0.395066  -0.041428   0.010499  -0.050983
     2  C    0.000001   0.000048  -0.042623   0.391629  -0.001094   0.009443
     3  C    0.000091   0.000304   0.011289  -0.055299   0.015744   0.000514
     4  C   -0.000564   0.023984  -0.000030   0.012076  -0.049774   0.009272
     5  C   -0.000006  -0.001148   0.009623  -0.000419   0.392219  -0.043248
     6  C    0.000000  -0.000006  -0.051815   0.009987  -0.060092   0.395376
     7  C    0.013937  -0.069393   0.000025  -0.000158  -0.032051  -0.000318
     8  C    0.018786   0.349396   0.000001   0.000028   0.003753   0.000002
     9  C   -0.083750  -0.054486   0.000003   0.000463  -0.000195  -0.000000
    10  C    0.015842  -0.075771  -0.000000  -0.000006   0.000002   0.000000
    11  H    0.009986  -0.000419  -0.000000   0.000009  -0.000000   0.000000
    12  C    0.436206   0.008021   0.000000  -0.000000   0.000000   0.000000
    13  C    4.818017   0.414416  -0.000000   0.000000  -0.000003  -0.000000
    14  C    0.414416   4.981163   0.000000  -0.000002  -0.000170  -0.000000
    15  H   -0.000000   0.000000   0.717985  -0.015278  -0.000226  -0.014006
    16  H    0.000000  -0.000002  -0.015278   0.713025   0.000054  -0.000230
    17  H   -0.000003  -0.000170  -0.000226   0.000054   0.739796  -0.014036
    18  H   -0.000000  -0.000000  -0.014006  -0.000230  -0.014036   0.709544
    19  H   -0.051830   0.009618  -0.000000  -0.000000   0.000000   0.000000
    20  H    0.395368  -0.043194   0.000000   0.000000  -0.000000  -0.000000
    21  H   -0.060097   0.392271   0.000000  -0.000000  -0.000086  -0.000000
    22  S   -0.000402   0.006718  -0.000251  -0.007771  -0.000118   0.000034
    23  O    0.001459   0.018072   0.000000   0.000001   0.032896  -0.000010
              19         20         21         22         23
     1  C    0.000000   0.000000   0.000000   0.005179  -0.000011
     2  C   -0.000000   0.000000   0.000002  -0.086445  -0.000061
     3  C    0.000003  -0.000000  -0.000195   0.303102   0.005261
     4  C    0.000001   0.000002   0.003746  -0.066258  -0.131844
     5  C    0.000000  -0.000000  -0.000170   0.006722   0.018078
     6  C   -0.000000  -0.000000  -0.000003  -0.000403   0.001463
     7  C    0.000025  -0.000318  -0.032035  -0.022165   0.728507
     8  C   -0.000029   0.009270  -0.049715  -0.066232  -0.131799
     9  C    0.011289   0.000513   0.015746   0.303116   0.005263
    10  C   -0.042588   0.009442  -0.001093  -0.086453  -0.000060
    11  H   -0.015275  -0.000230   0.000054  -0.007768   0.000001
    12  C    0.395048  -0.051028   0.010499   0.005180  -0.000011
    13  C   -0.051830   0.395368  -0.060097  -0.000402   0.001459
    14  C    0.009618  -0.043194   0.392271   0.006718   0.018072
    15  H   -0.000000   0.000000   0.000000  -0.000251   0.000000
    16  H   -0.000000   0.000000  -0.000000  -0.007771   0.000001
    17  H    0.000000  -0.000000  -0.000086  -0.000118   0.032896
    18  H    0.000000  -0.000000  -0.000000   0.000034  -0.000010
    19  H    0.717979  -0.013999  -0.000226  -0.000251   0.000000
    20  H   -0.013999   0.709542  -0.014042   0.000034  -0.000010
    21  H   -0.000226  -0.014042   0.739624  -0.000118   0.032830
    22  S   -0.000251   0.000034  -0.000118  15.445260  -0.000138
    23  O    0.000000  -0.000010   0.032830  -0.000138   7.703831
          Atomic-Atomic Spin Densities.
               1          2          3          4          5          6
     1  C    0.160356  -0.024719  -0.010996   0.004101  -0.013200   0.006485
     2  C   -0.024719   0.013701   0.042545  -0.003742   0.004049  -0.004228
     3  C   -0.010996   0.042545   0.158939  -0.006726   0.007684  -0.001448
     4  C    0.004101  -0.003742  -0.006726   0.089999  -0.031867  -0.005708
     5  C   -0.013200   0.004049   0.007684  -0.031867   0.112602   0.015907
     6  C    0.006485  -0.004228  -0.001448  -0.005708   0.015907   0.074659
     7  C    0.000360  -0.000913  -0.009973   0.054422  -0.011894  -0.000236
     8  C    0.000015  -0.000070  -0.000649   0.006421  -0.001285  -0.000018
     9  C   -0.000024   0.000484   0.009730  -0.000649   0.000061  -0.000005
    10  C   -0.000000   0.000014   0.000484  -0.000070  -0.000001  -0.000000
    11  H   -0.000000  -0.000001  -0.000006   0.000003   0.000000  -0.000000
    12  C    0.000000  -0.000000  -0.000024   0.000015  -0.000000   0.000000
    13  C    0.000000  -0.000000  -0.000005  -0.000018   0.000000   0.000000
    14  C   -0.000000  -0.000001   0.000061  -0.001285   0.000104   0.000000
    15  H    0.002570  -0.000216  -0.000072  -0.000054  -0.000032  -0.000039
    16  H    0.000118   0.000906   0.000296  -0.000039   0.000000  -0.000058
    17  H   -0.000104   0.000024  -0.000142   0.002386   0.002264  -0.000325
    18  H   -0.000054  -0.000024  -0.000036   0.000001  -0.000211   0.001725
    19  H   -0.000000   0.000000  -0.000000  -0.000000   0.000000   0.000000
    20  H    0.000000   0.000000  -0.000000   0.000000   0.000000   0.000000
    21  H    0.000000  -0.000000  -0.000006  -0.000110   0.000012   0.000000
    22  S    0.000646  -0.010070  -0.073811  -0.001282  -0.000466   0.000252
    23  O   -0.000008   0.000005   0.000230  -0.008592   0.004316   0.000004
               7          8          9         10         11         12
     1  C    0.000360   0.000015  -0.000024  -0.000000  -0.000000   0.000000
     2  C   -0.000913  -0.000070   0.000484   0.000014  -0.000001  -0.000000
     3  C   -0.009973  -0.000649   0.009730   0.000484  -0.000006  -0.000024
     4  C    0.054422   0.006421  -0.000649  -0.000070   0.000003   0.000015
     5  C   -0.011894  -0.001285   0.000061  -0.000001   0.000000  -0.000000
     6  C   -0.000236  -0.000018  -0.000005  -0.000000  -0.000000   0.000000
     7  C    0.200748   0.054449  -0.009981  -0.000914  -0.000009   0.000360
     8  C    0.054449   0.090050  -0.006753  -0.003743  -0.000039   0.004105
     9  C   -0.009981  -0.006753   0.159074   0.042560   0.000296  -0.011005
    10  C   -0.000914  -0.003743   0.042560   0.013692   0.000907  -0.024727
    11  H   -0.000009  -0.000039   0.000296   0.000907  -0.002877   0.000118
    12  C    0.000360   0.004105  -0.011005  -0.024727   0.000118   0.160512
    13  C   -0.000237  -0.005714  -0.001447  -0.004229  -0.000058   0.006465
    14  C   -0.011893  -0.031897   0.007688   0.004049   0.000000  -0.013208
    15  H   -0.000000  -0.000000  -0.000000   0.000000   0.000000  -0.000000
    16  H   -0.000009   0.000003  -0.000006  -0.000001  -0.000000  -0.000000
    17  H    0.000051  -0.000110  -0.000006  -0.000000   0.000000   0.000000
    18  H    0.000004   0.000000  -0.000000   0.000000  -0.000000   0.000000
    19  H   -0.000000  -0.000054  -0.000072  -0.000217   0.000202   0.002573
    20  H    0.000004   0.000001  -0.000036  -0.000024   0.000003  -0.000053
    21  H    0.000051   0.002383  -0.000142   0.000024  -0.000002  -0.000104
    22  S    0.005043  -0.001278  -0.073828  -0.010076  -0.000450   0.000646
    23  O   -0.090649  -0.008595   0.000230   0.000005  -0.000000  -0.000008
              13         14         15         16         17         18
     1  C    0.000000  -0.000000   0.002570   0.000118  -0.000104  -0.000054
     2  C   -0.000000  -0.000001  -0.000216   0.000906   0.000024  -0.000024
     3  C   -0.000005   0.000061  -0.000072   0.000296  -0.000142  -0.000036
     4  C   -0.000018  -0.001285  -0.000054  -0.000039   0.002386   0.000001
     5  C    0.000000   0.000104  -0.000032   0.000000   0.002264  -0.000211
     6  C    0.000000   0.000000  -0.000039  -0.000058  -0.000325   0.001725
     7  C   -0.000237  -0.011893  -0.000000  -0.000009   0.000051   0.000004
     8  C   -0.005714  -0.031897  -0.000000   0.000003  -0.000110   0.000000
     9  C   -0.001447   0.007688  -0.000000  -0.000006  -0.000006  -0.000000
    10  C   -0.004229   0.004049   0.000000  -0.000001  -0.000000   0.000000
    11  H   -0.000058   0.000000   0.000000  -0.000000   0.000000  -0.000000
    12  C    0.006465  -0.013208  -0.000000  -0.000000   0.000000   0.000000
    13  C    0.074677   0.015932   0.000000  -0.000000   0.000000   0.000000
    14  C    0.015932   0.112678   0.000000   0.000000   0.000012   0.000000
    15  H    0.000000   0.000000  -0.009105   0.000202   0.000002   0.000183
    16  H   -0.000000   0.000000   0.000202  -0.002876  -0.000002   0.000003
    17  H    0.000000   0.000012   0.000002  -0.000002  -0.008567   0.000159
    18  H    0.000000   0.000000   0.000183   0.000003   0.000159  -0.005717
    19  H   -0.000038  -0.000032  -0.000000   0.000000   0.000000   0.000000
    20  H    0.001725  -0.000212   0.000000  -0.000000   0.000000  -0.000000
    21  H   -0.000324   0.002262   0.000000   0.000000   0.000007   0.000000
    22  S    0.000252  -0.000466  -0.000000  -0.000450  -0.000005   0.000001
    23  O    0.000004   0.004313  -0.000000  -0.000000  -0.001101  -0.000000
              19         20         21         22         23
     1  C   -0.000000   0.000000   0.000000   0.000646  -0.000008
     2  C    0.000000   0.000000  -0.000000  -0.010070   0.000005
     3  C   -0.000000  -0.000000  -0.000006  -0.073811   0.000230
     4  C   -0.000000   0.000000  -0.000110  -0.001282  -0.008592
     5  C    0.000000   0.000000   0.000012  -0.000466   0.004316
     6  C    0.000000   0.000000   0.000000   0.000252   0.000004
     7  C   -0.000000   0.000004   0.000051   0.005043  -0.090649
     8  C   -0.000054   0.000001   0.002383  -0.001278  -0.008595
     9  C   -0.000072  -0.000036  -0.000142  -0.073828   0.000230
    10  C   -0.000217  -0.000024   0.000024  -0.010076   0.000005
    11  H    0.000202   0.000003  -0.000002  -0.000450  -0.000000
    12  C    0.002573  -0.000053  -0.000104   0.000646  -0.000008
    13  C   -0.000038   0.001725  -0.000324   0.000252   0.000004
    14  C   -0.000032  -0.000212   0.002262  -0.000466   0.004313
    15  H   -0.000000   0.000000   0.000000  -0.000000  -0.000000
    16  H    0.000000  -0.000000   0.000000  -0.000450  -0.000000
    17  H    0.000000   0.000000   0.000007  -0.000005  -0.001101
    18  H    0.000000  -0.000000   0.000000   0.000001  -0.000000
    19  H   -0.009112   0.000183   0.000002  -0.000000  -0.000000
    20  H    0.000183  -0.005719   0.000159   0.000001  -0.000000
    21  H    0.000002   0.000159  -0.008567  -0.000005  -0.001099
    22  S   -0.000000   0.000001  -0.000005   0.591343   0.000006
    23  O   -0.000000  -0.000000  -0.001099   0.000006   0.468501
 Mulliken charges and spin densities:
               1          2
     1  C    0.021578   0.125545
     2  C    0.084812   0.017742
     3  C   -0.234483   0.116076
     4  C    0.067781   0.097206
     5  C    0.040557   0.088042
     6  C    0.072563   0.086966
     7  C    0.018497   0.178785
     8  C    0.067695   0.097219
     9  C   -0.234483   0.116170
    10  C    0.084824   0.017733
    11  H   -0.006687  -0.001915
    12  C    0.021535   0.125663
    13  C    0.072543   0.086986
    14  C    0.040576   0.088108
    15  H   -0.009762  -0.006560
    16  H   -0.006681  -0.001914
    17  H   -0.037118  -0.005457
    18  H   -0.001351  -0.003967
    19  H   -0.009766  -0.006565
    20  H   -0.001349  -0.003968
    21  H   -0.036993  -0.005458
    22  S    0.269427   0.426001
    23  O   -0.283718   0.367562
 Sum of Mulliken charges =  -0.00000   2.00000
 Mulliken charges and spin densities with hydrogens summed into heavy atoms:
               1          2
     1  C    0.011816   0.118985
     2  C    0.078131   0.015828
     3  C   -0.234483   0.116076
     4  C    0.067781   0.097206
     5  C    0.003440   0.082585
     6  C    0.071212   0.082999
     7  C    0.018497   0.178785
     8  C    0.067695   0.097219
     9  C   -0.234483   0.116170
    10  C    0.078137   0.015818
    12  C    0.011769   0.119098
    13  C    0.071195   0.083018
    14  C    0.003583   0.082650
    22  S    0.269427   0.426001
    23  O   -0.283718   0.367562
 Electronic spatial extent (au):  <R**2>=          20073.1329
 Charge=             -0.0000 electrons
 Dipole moment (field-independent basis, Debye):
    X=              2.8227    Y=             -4.8028    Z=              0.0700  Tot=              5.5713
 Quadrupole moment (field-independent basis, Debye-Ang):
   XX=           -110.3353   YY=           -107.6142   ZZ=            -96.5942
   XY=             46.5341   XZ=             -0.3481   YZ=              0.1139
 Traceless Quadrupole moment (field-independent basis, Debye-Ang):
   XX=             -5.4874   YY=             -2.7663   ZZ=              8.2537
   XY=             46.5341   XZ=             -0.3481   YZ=              0.1139
 Octapole moment (field-independent basis, Debye-Ang**2):
  XXX=           1723.0057  YYY=           -632.9071  ZZZ=             -2.4464  XYY=            741.6031
  XXY=           -557.0656  XXZ=              1.1191  XZZ=            596.1728  YZZ=           -199.2706
  YYZ=             -0.1265  XYZ=             -0.7027
 Hexadecapole moment (field-independent basis, Debye-Ang**3):
 XXXX=         -22347.9859 YYYY=          -4225.8924 ZZZZ=           -105.6965 XXXY=           5766.4913
 XXXZ=             -0.3777 YYYX=           3848.3517 YYYZ=              1.2995 ZZZX=              8.5406
 ZZZY=             -1.2599 XXYY=          -6084.0775 XXZZ=          -4203.6841 YYZZ=           -732.3067
 XXYZ=              4.5658 YYXZ=             -2.3668 ZZXY=           1047.6009
 N-N= 9.913494557716D+02 E-N=-4.266401010325D+03  KE= 9.690661515774D+02

 Atomic contributions to Alpha molecular orbitals:
 Alpha occ 37 OE=-0.474 is C7-p=0.1005
 Alpha occ 38 OE=-0.446 is H16-s=0.0980
 Alpha occ 39 OE=-0.441 is S22-p=0.1678 C7-p=0.1283 C9-p=0.1239 C3-p=0.1239
 Alpha occ 40 OE=-0.441 is C14-p=0.0999
 Alpha occ 41 OE=-0.427 is C7-p=0.0833
 Alpha occ 42 OE=-0.416 is O23-p=0.4204 C7-p=0.1374
 Alpha occ 43 OE=-0.408 is S22-p=0.1699
 Alpha occ 44 OE=-0.394 is C9-p=0.1191 C3-p=0.1190
 Alpha occ 45 OE=-0.388 is O23-p=0.3549 C7-p=0.2256 S22-p=0.2225
 Alpha occ 46 OE=-0.381 is S22-p=0.1572
 Alpha occ 47 OE=-0.364 is H21-s=0.0790
 Alpha occ 48 OE=-0.355 is S22-p=0.0692
 Alpha occ 49 OE=-0.349 is S22-p=0.1542
 Alpha occ 50 OE=-0.347 is S22-p=0.2479 C13-p=0.1308 C6-p=0.1308 C12-p=0.1060 C1-p=0.1060
 Alpha occ 51 OE=-0.289 is C13-p=0.1692 C6-p=0.1692 C3-p=0.1575 C9-p=0.1575
 Alpha occ 52 OE=-0.276 is O23-p=0.2299 C8-p=0.1282 C4-p=0.1280
 Alpha occ 53 OE=-0.273 is C4-p=0.1416 C8-p=0.1414 C1-p=0.1398 C12-p=0.1396 C2-p=0.1004 C10-p=0.1003
 Alpha occ 54 OE=-0.251 is S22-p=0.2657 C6-p=0.1088 C13-p=0.1088
 Alpha occ 55 OE=-0.247 is O23-p=0.7113
 Alpha occ 56 OE=-0.121 is C7-p=0.2169 O23-p=0.1483
 Alpha vir 57 OE=-0.047 is C6-p=0.1303 C13-p=0.1303 C4-p=0.1273 C8-p=0.1273 C3-p=0.1162 C9-p=0.1161
 Alpha vir 58 OE=-0.029 is C2-p=0.1236 C10-p=0.1230 C3-p=0.1141 C9-p=0.1139 C5-p=0.1118 C14-p=0.1113
 Alpha vir 59 OE=-0.026 is C10-p=0.1634 C2-p=0.1627 C14-p=0.1496 C5-p=0.1491
 Alpha vir 60 OE=0.000 is S22-p=0.5037 S22-d=0.1021
 Alpha vir 61 OE=0.045 is C7-p=0.2129 C12-p=0.1347 C1-p=0.1347
 Alpha vir 62 OE=0.049 is S22-p=0.2142 C3-p=0.1050 C9-p=0.1050
 Alpha vir 63 OE=0.079 is H20-s=0.2369 H19-s=0.2353 H15-s=0.2118 H18-s=0.2061
 Alpha vir 64 OE=0.080 is H16-s=0.1668 H18-s=0.1633 H11-s=0.1527 S22-p=0.1401 H20-s=0.1322
 Alpha vir 65 OE=0.102 is H16-s=0.2316 H11-s=0.2307 H18-s=0.1648 H20-s=0.1646 H17-s=0.1506 H21-s=0.1498
 Alpha vir 66 OE=0.107 is H11-s=0.2249 H16-s=0.2240 H21-s=0.1449 H17-s=0.1447 H20-s=0.1416 H18-s=0.1407
 Alpha vir 67 OE=0.124 is C5-p=0.0970
 Alpha vir 68 OE=0.129 is H17-s=0.2119 H21-s=0.2114 H19-s=0.1375 H15-s=0.1373 H16-s=0.1153 H11-s=0.1150
 Alpha vir 69 OE=0.147 is H19-s=0.2589 H15-s=0.2443 H20-s=0.1605 H18-s=0.1593 H17-s=0.1089 H21-s=0.1029
 Alpha vir 70 OE=0.147 is H15-s=0.2499 H16-s=0.2402 H19-s=0.2350 H11-s=0.2334
 Alpha vir 71 OE=0.154 is H21-s=0.3454 H17-s=0.3437 H20-s=0.2154 H18-s=0.2146
 Alpha vir 72 OE=0.166 is C7-p=0.1755 C8-p=0.1392 C4-p=0.1391
 Alpha vir 73 OE=0.195 is C3-p=0.2526 C9-p=0.2525 S22-d=0.1155
 Alpha vir 74 OE=0.237 is C6-p=0.1326 C13-p=0.1324
 Alpha vir 75 OE=0.244 is C7-p=0.2456
 Alpha vir 76 OE=0.253 is C10-p=0.2321 C2-p=0.2320

 Atomic contributions to Beta  molecular orbitals:
 Beta  occ 35 OE=-0.477 is C3-p=0.0789
 Beta  occ 36 OE=-0.475 is C6-p=0.1070 C13-p=0.1069 C12-p=0.1055 C1-p=0.1054
 Beta  occ 37 OE=-0.471 is C7-p=0.0980
 Beta  occ 38 OE=-0.443 is H16-s=0.1000
 Beta  occ 39 OE=-0.439 is C10-p=0.1008 C2-p=0.1004 C14-p=0.1001
 Beta  occ 40 OE=-0.425 is C7-p=0.0850
 Beta  occ 41 OE=-0.419 is S22-p=0.1480 C3-p=0.1375 C9-p=0.1375
 Beta  occ 42 OE=-0.407 is O23-p=0.3924 C7-p=0.1172
 Beta  occ 43 OE=-0.404 is S22-p=0.1407
 Beta  occ 44 OE=-0.381 is C9-p=0.1097 C3-p=0.1097
 Beta  occ 45 OE=-0.378 is S22-p=0.1884
 Beta  occ 46 OE=-0.363 is H21-s=0.0795
 Beta  occ 47 OE=-0.353 is C7-p=0.0705
 Beta  occ 48 OE=-0.349 is C7-p=0.2783 O23-p=0.2725 S22-p=0.1712
 Beta  occ 49 OE=-0.345 is S22-p=0.1690
 Beta  occ 50 OE=-0.323 is S22-p=0.2122 C13-p=0.1429 C6-p=0.1429 C12-p=0.1141 C1-p=0.1140
 Beta  occ 51 OE=-0.270 is C5-p=0.1375 C14-p=0.1375 C6-p=0.1249 C13-p=0.1249 C3-p=0.1131 C9-p=0.1131 C2-p=0.1034 C10-p=0.1033
 Beta  occ 52 OE=-0.260 is C1-p=0.1608 C12-p=0.1607 C4-p=0.1488 C8-p=0.1488
 Beta  occ 53 OE=-0.249 is O23-p=0.1875 C10-p=0.1209 C2-p=0.1208 C14-p=0.1109 C5-p=0.1108
 Beta  occ 54 OE=-0.238 is O23-p=0.7154
 Beta  vir 55 OE=-0.186 is S22-p=0.3411
 Beta  vir 56 OE=-0.050 is O23-p=0.1598 C7-p=0.1174 C12-p=0.1081 C1-p=0.1080 C5-p=0.1011 C14-p=0.1011
 Beta  vir 57 OE=-0.032 is C6-p=0.1493 C13-p=0.1492 C3-p=0.1372 C9-p=0.1371
 Beta  vir 58 OE=-0.012 is C3-p=0.1466 C9-p=0.1466 C6-p=0.1002 C13-p=0.1002
 Beta  vir 59 OE=-0.010 is C14-p=0.1361 C5-p=0.1355 C10-p=0.1310 C2-p=0.1304 C1-p=0.1132 C12-p=0.1132
 Beta  vir 60 OE=0.004 is S22-p=0.5035 S22-d=0.1006
 Beta  vir 61 OE=0.055 is S22-p=0.1577 H19-s=0.1179 H15-s=0.1179
 Beta  vir 62 OE=0.072 is C7-p=0.2221 C12-p=0.1261 C1-p=0.1261
 Beta  vir 63 OE=0.080 is H20-s=0.2240 H18-s=0.2239 H19-s=0.2214 H15-s=0.2211
 Beta  vir 64 OE=0.084 is S22-p=0.1850 H11-s=0.1511 H16-s=0.1510 H18-s=0.1234 H20-s=0.1231
 Beta  vir 65 OE=0.103 is H16-s=0.2287 H11-s=0.2278 H18-s=0.1689 H20-s=0.1687 H17-s=0.1495 H21-s=0.1487
 Beta  vir 66 OE=0.108 is H11-s=0.2240 H16-s=0.2232 H21-s=0.1454 H17-s=0.1452 H20-s=0.1388 H18-s=0.1379
 Beta  vir 67 OE=0.131 is H17-s=0.2129 H21-s=0.2123 H19-s=0.1436 H15-s=0.1434 H16-s=0.1167 H11-s=0.1164
 Beta  vir 68 OE=0.137 is C5-p=0.0978
 Beta  vir 69 OE=0.149 is H19-s=0.2701 H15-s=0.2273 H20-s=0.1640 H18-s=0.1594 H17-s=0.1181 H21-s=0.1014
 Beta  vir 70 OE=0.149 is H15-s=0.2607 H16-s=0.2450 H11-s=0.2263 H19-s=0.2174
 Beta  vir 71 OE=0.155 is H21-s=0.3410 H17-s=0.3392 H20-s=0.2172 H18-s=0.2162
 Beta  vir 72 OE=0.187 is C7-p=0.2135 C8-p=0.1352 C4-p=0.1352
 Beta  vir 73 OE=0.197 is C3-p=0.2562 C9-p=0.2562 S22-d=0.1159
 Beta  vir 74 OE=0.242 is C6-p=0.1375 C13-p=0.1373
 
                          Isotropic Fermi Contact Couplings
        Atom                 a.u.       MegaHertz       Gauss      10(-4) cm-1
     1  C(13)              0.01290       7.24885       2.58657       2.41796
     2  C(13)             -0.00277      -1.55771      -0.55583      -0.51959
     3  C(13)              0.01031       5.79718       2.06858       1.93373
     4  C(13)             -0.00125      -0.70381      -0.25114      -0.23477
     5  C(13)              0.00619       3.47892       1.24137       1.16044
     6  C(13)              0.00570       3.20116       1.14225       1.06779
     7  C(13)              0.01197       6.73073       2.40169       2.24513
     8  C(13)             -0.00125      -0.70436      -0.25133      -0.23495
     9  C(13)              0.01033       5.80454       2.07120       1.93619
    10  C(13)             -0.00278      -1.56044      -0.55681      -0.52051
    11  H(1)              -0.00060      -1.34609      -0.48032      -0.44901
    12  C(13)              0.01291       7.25676       2.58939       2.42060
    13  C(13)              0.00569       3.20060       1.14206       1.06761
    14  C(13)              0.00620       3.48331       1.24293       1.16191
    15  H(1)              -0.00214      -4.78665      -1.70800      -1.59666
    16  H(1)              -0.00060      -1.34591      -0.48025      -0.44895
    17  H(1)              -0.00152      -3.40695      -1.21569      -1.13644
    18  H(1)              -0.00136      -3.04982      -1.08825      -1.01731
    19  H(1)              -0.00214      -4.79078      -1.70947      -1.59803
    20  H(1)              -0.00136      -3.05062      -1.08854      -1.01758
    21  H(1)              -0.00153      -3.40921      -1.21649      -1.13719
    22  S(33)              0.08001      13.74103       4.90314       4.58351
    23  O(17)              0.07877     -23.87492      -8.51916      -7.96382
 --------------------------------------------------------
       Center         ----  Spin Dipole Couplings  ----
                      3XX-RR        3YY-RR        3ZZ-RR
 --------------------------------------------------------
     1   Atom       -0.073346     -0.071205      0.144551
     2   Atom       -0.018551     -0.019691      0.038241
     3   Atom       -0.092159     -0.086962      0.179121
     4   Atom       -0.058731     -0.050143      0.108874
     5   Atom       -0.043822     -0.046297      0.090119
     6   Atom       -0.052282     -0.050717      0.102998
     7   Atom       -0.136943     -0.115656      0.252598
     8   Atom       -0.048698     -0.060200      0.108898
     9   Atom       -0.088049     -0.091199      0.179249
    10   Atom       -0.015088     -0.023159      0.038246
    11   Atom        0.006718     -0.000365     -0.006353
    12   Atom       -0.069524     -0.075161      0.144684
    13   Atom       -0.049647     -0.053379      0.103027
    14   Atom       -0.041226     -0.048963      0.090189
    15   Atom       -0.005018      0.007642     -0.002625
    16   Atom       -0.001924      0.008274     -0.006351
    17   Atom        0.002116      0.005037     -0.007153
    18   Atom        0.011838     -0.007614     -0.004224
    19   Atom        0.014055     -0.011431     -0.002624
    20   Atom       -0.003031      0.007257     -0.004226
    21   Atom        0.003674      0.003477     -0.007152
    22   Atom       -0.983566     -1.003013      1.986579
    23   Atom       -0.732047     -0.740977      1.473024
 --------------------------------------------------------
                        XY            XZ            YZ
 --------------------------------------------------------
     1   Atom        0.002640     -0.001735      0.002084
     2   Atom        0.005096     -0.000486      0.000598
     3   Atom        0.000228     -0.002149      0.002528
     4   Atom        0.004092     -0.001378      0.001517
     5   Atom        0.005312     -0.001082      0.001340
     6   Atom        0.001702     -0.001224      0.001498
     7   Atom       -0.019156     -0.003063      0.003448
     8   Atom       -0.001497     -0.001233      0.001563
     9   Atom       -0.002096     -0.002098      0.002527
    10   Atom        0.003171     -0.000463      0.000601
    11   Atom       -0.003804      0.000140     -0.000087
    12   Atom        0.000475     -0.001711      0.002061
    13   Atom        0.000226     -0.001232      0.001461
    14   Atom        0.003846     -0.001093      0.001314
    15   Atom        0.011058     -0.000124     -0.000011
    16   Atom        0.001008      0.000025     -0.000130
    17   Atom       -0.000782      0.000080     -0.000121
    18   Atom       -0.000022      0.000126      0.000033
    19   Atom        0.000443      0.000129      0.000086
    20   Atom        0.008258     -0.000067     -0.000041
    21   Atom       -0.001663      0.000104     -0.000111
    22   Atom        0.017302     -0.024019      0.028544
    23   Atom        0.007891     -0.018502      0.022101
 --------------------------------------------------------


 ---------------------------------------------------------------------------------
              Anisotropic Spin Dipole Couplings in Principal Axis System
 ---------------------------------------------------------------------------------

       Atom             a.u.   MegaHertz   Gauss  10(-4) cm-1        Axes

              Baa    -0.0752   -10.085    -3.599    -3.364  0.8285 -0.5599  0.0119
     1 C(13)  Bbb    -0.0694    -9.317    -3.324    -3.108  0.5600  0.8285 -0.0035
              Bcc     0.1446    19.402     6.923     6.472 -0.0078  0.0096  0.9999
 
              Baa    -0.0243    -3.255    -1.162    -1.086 -0.6666  0.7453 -0.0123
     2 C(13)  Bbb    -0.0140    -1.878    -0.670    -0.626  0.7454  0.6666 -0.0007
              Bcc     0.0383     5.133     1.832     1.712 -0.0077  0.0096  0.9999
 
              Baa    -0.0922   -12.371    -4.414    -4.126  0.9988 -0.0476  0.0084
     3 C(13)  Bbb    -0.0870   -11.671    -4.165    -3.893  0.0477  0.9988 -0.0091
              Bcc     0.1792    24.042     8.579     8.019 -0.0079  0.0095  0.9999
 
              Baa    -0.0604    -8.104    -2.892    -2.703  0.9281 -0.3723  0.0109
     4 C(13)  Bbb    -0.0485    -6.510    -2.323    -2.171  0.3723  0.9281 -0.0057
              Bcc     0.1089    14.613     5.214     4.874 -0.0080  0.0093  0.9999
 
              Baa    -0.0505    -6.781    -2.420    -2.262 -0.6217  0.7831 -0.0122
     5 C(13)  Bbb    -0.0396    -5.315    -1.896    -1.773  0.7832  0.6218  0.0001
              Bcc     0.0901    12.096     4.316     4.035 -0.0077  0.0095  0.9999
 
              Baa    -0.0534    -7.165    -2.557    -2.390  0.8409 -0.5411  0.0118
     6 C(13)  Bbb    -0.0496    -6.660    -2.376    -2.221  0.5412  0.8409 -0.0039
              Bcc     0.1030    13.825     4.933     4.611 -0.0078  0.0097  0.9999
 
              Baa    -0.1482   -19.889    -7.097    -6.634  0.8620  0.5069  0.0022
     7 C(13)  Bbb    -0.1044   -14.015    -5.001    -4.675 -0.5068  0.8619 -0.0127
              Bcc     0.2527    33.904    12.098    11.309 -0.0083  0.0098  0.9999
 
              Baa    -0.0604    -8.105    -2.892    -2.704  0.1260  0.9920 -0.0082
     8 C(13)  Bbb    -0.0485    -6.511    -2.323    -2.172  0.9920 -0.1259  0.0090
              Bcc     0.1089    14.616     5.215     4.875 -0.0079  0.0093  0.9999
 
              Baa    -0.0923   -12.379    -4.417    -4.129  0.4443  0.8959 -0.0049
     9 C(13)  Bbb    -0.0870   -11.679    -4.168    -3.896  0.8958 -0.4442  0.0113
              Bcc     0.1793    24.059     8.585     8.025 -0.0079  0.0094  0.9999
 
              Baa    -0.0243    -3.256    -1.162    -1.086 -0.3271  0.9449 -0.0115
    10 C(13)  Bbb    -0.0140    -1.878    -0.670    -0.626  0.9449  0.3272  0.0046
              Bcc     0.0383     5.134     1.832     1.712 -0.0081  0.0094  0.9999
 
              Baa    -0.0064    -3.391    -1.210    -1.131 -0.0079  0.0094  0.9999
    11 H(1)   Bbb    -0.0020    -1.078    -0.385    -0.360  0.3992  0.9169 -0.0055
              Bcc     0.0084     4.469     1.595     1.491  0.9168 -0.3991  0.0110
 
              Baa    -0.0752   -10.094    -3.602    -3.367 -0.0861  0.9962 -0.0100
    12 C(13)  Bbb    -0.0695    -9.326    -3.328    -3.111  0.9963  0.0862  0.0071
              Bcc     0.1447    19.420     6.929     6.478 -0.0080  0.0094  0.9999
 
              Baa    -0.0534    -7.167    -2.557    -2.391 -0.0631  0.9980 -0.0098
    13 C(13)  Bbb    -0.0496    -6.661    -2.377    -2.222  0.9980  0.0632  0.0074
              Bcc     0.1031    13.828     4.934     4.613 -0.0081  0.0093  0.9999
 
              Baa    -0.0506    -6.786    -2.421    -2.263 -0.3818  0.9242 -0.0116
    14 C(13)  Bbb    -0.0396    -5.319    -1.898    -1.774  0.9242  0.3818  0.0039
              Bcc     0.0902    12.105     4.319     4.038 -0.0080  0.0092  0.9999
 
              Baa    -0.0114    -6.099    -2.176    -2.034  0.8651 -0.5015  0.0116
    15 H(1)   Bbb    -0.0026    -1.400    -0.500    -0.467 -0.0078  0.0095  0.9999
              Bcc     0.0141     7.499     2.676     2.501  0.5016  0.8651 -0.0043
 
              Baa    -0.0064    -3.389    -1.209    -1.131 -0.0079  0.0095  0.9999
    16 H(1)   Bbb    -0.0020    -1.079    -0.385    -0.360  0.9952 -0.0974  0.0088
              Bcc     0.0084     4.468     1.594     1.490  0.0974  0.9952 -0.0086
 
              Baa    -0.0072    -3.818    -1.362    -1.273 -0.0079  0.0095  0.9999
    17 H(1)   Bbb     0.0019     1.025     0.366     0.342  0.9699  0.2436  0.0053
              Bcc     0.0052     2.793     0.997     0.932 -0.2435  0.9698 -0.0111
 
              Baa    -0.0076    -4.063    -1.450    -1.355  0.0012  1.0000 -0.0097
    18 H(1)   Bbb    -0.0042    -2.254    -0.804    -0.752 -0.0078  0.0097  0.9999
              Bcc     0.0118     6.317     2.254     2.107  1.0000 -0.0011  0.0078
 
              Baa    -0.0114    -6.104    -2.178    -2.036 -0.0173  0.9998 -0.0095
    19 H(1)   Bbb    -0.0026    -1.400    -0.500    -0.467 -0.0080  0.0093  0.9999
              Bcc     0.0141     7.504     2.678     2.503  0.9998  0.0174  0.0078
 
              Baa    -0.0076    -4.064    -1.450    -1.356  0.8742 -0.4853  0.0115
    20 H(1)   Bbb    -0.0042    -2.255    -0.805    -0.752 -0.0080  0.0093  0.9999
              Bcc     0.0118     6.319     2.255     2.108  0.4854  0.8743 -0.0043
 
              Baa    -0.0072    -3.817    -1.362    -1.273 -0.0082  0.0091  0.9999
    21 H(1)   Bbb     0.0019     1.019     0.364     0.340  0.6859  0.7277 -0.0010
              Bcc     0.0052     2.798     0.998     0.933  0.7276 -0.6859  0.0122
 
              Baa    -1.0136   -41.556   -14.828   -13.862 -0.5066  0.8621 -0.0123
    22 S(33)  Bbb    -0.9735   -39.911   -14.241   -13.313  0.8621  0.5067  0.0021
              Bcc     1.9870    81.467    29.069    27.174 -0.0080  0.0095  0.9999
 
              Baa    -0.7459    53.976    19.260    18.004 -0.5066  0.8621 -0.0128
    23 O(17)  Bbb    -0.7275    52.638    18.783    17.558  0.8621  0.5067  0.0022
              Bcc     1.4734  -106.614   -38.043   -35.563 -0.0084  0.0100  0.9999
 

 ---------------------------------------------------------------------------------

 No NMR shielding tensors so no spin-rotation constants.
 Leave Link  601 at Tue Aug 18 20:51:24 2026, MaxMem=  2684354560 cpu:               8.2 elap:               0.4
 (Enter /mnt/data/applications/G16/g16/l9999.exe)
 1\1\GINC-KIMIK2195\SP\UB3LYP\Gen\C13H8O1S1(3)\ASOLE\18-Aug-2026\0\\#p 
 b3lyp/gen EmpiricalDispersion=GD3BJ pseudo=read scrf=(solvent=acetonit
 rile,pcm,read) nosymm pop=(Orbitals=20) geom=checkpoint guess=read\\Ti
 tle Card Required\\0,3\C,0,-9.14563,-0.38528,0.00813\C,0,-7.75898,-0.4
 6528,0.0198\C,0,-6.9823,0.70961,0.01471\C,0,-7.60777,1.97326,-0.00232\
 C,0,-9.01825,2.0233,-0.01394\C,0,-9.78353,0.86714,-0.00885\C,0,-6.8785
 8,3.26514,-0.00887\C,0,-5.39522,3.27402,0.0032\C,0,-4.5954,2.11283,0.0
 2055\C,0,-3.19114,2.21987,0.03076\H,0,-2.58131,1.31431,0.04407\C,0,-2.
 58641,3.47032,0.02389\C,0,-3.37033,4.63692,0.00672\C,0,-4.75273,4.5307
 2,-0.00339\H,0,-9.73635,-1.30345,0.01227\H,0,-7.2646,-1.43865,0.03295\
 H,0,-9.48165,3.00982,-0.02705\H,0,-10.87301,0.92845,-0.01796\H,0,-1.49
 685,3.53968,0.03192\H,0,-2.89401,5.61871,0.00139\H,0,-5.38901,5.41563,
 -0.0168\S,0,-5.23591,0.4706,0.03097\O,0,-7.50433,4.32945,-0.02457\\Ver
 sion=AM64L-G16RevA.03\HF=-973.6453602\S2=2.007035\S2-1=0.\S2A=2.000027
 \RMSD=5.950e-09\Dipole=1.1105182,-1.8895758,0.0275448\Quadrupole=-4.07
 97455,-2.056689,6.1364345,34.5969721,-0.2588275,0.0846949\PG=C01 [X(C1
 3H8O1S1)]\\@


 THE RED LIGHT IS ALWAYS LONGER THAN THE GREEN LIGHT.

                     -- PETER'S THEORY OF RELATIVITY
 Job cpu time:       0 days  0 hours 38 minutes 10.3 seconds.
 Elapsed time:       0 days  0 hours  1 minutes 39.5 seconds.
 File lengths (MBytes):  RWF=    302 Int=      0 D2E=      0 Chk=      7 Scr=      1
 Normal termination of Gaussian 16 at Tue Aug 18 20:51:24 2026.
