%nprocshared=24
%mem=20GB
%chk=TX_triplet_eq.chk
#p b3lyp/gen EmpiricalDispersion=GD3BJ pseudo=read scrf=(solvent=acetonitrile,pcm,read) nosymm pop=(Orbitals=20)

Title Card Required

0 3
C        -9.142056       -0.412361        0.008517
C        -7.750261       -0.470429        0.020042
C        -6.998514        0.716612        0.014503
C        -7.611836        2.012796       -0.002902
C        -9.025711        2.026663       -0.014163
C        -9.768178        0.848712       -0.008577
C        -6.879274        3.266244       -0.009232
C        -5.427838        3.296797        0.002554
C        -4.593596        2.130385        0.020259
C        -3.190839        2.209674        0.030739
H        -2.600982        1.290969        0.044019
C        -2.564476        3.453990        0.024176
C        -3.361720        4.614498        0.007105
C        -4.752044        4.538833       -0.003375
H        -9.731330       -1.329210        0.012734
H        -7.234577       -1.432654        0.033386
H        -9.513422        3.000198       -0.027410
H       -10.858876        0.906971       -0.017667
H        -1.476784        3.522831        0.032195
H        -2.882180        5.595886        0.001945
H        -5.364947        5.438757       -0.016523
S        -5.260722        0.512864        0.030366
O        -7.533138        4.378094       -0.025110

-C S O H 0
cc-pVDZ
****


NonEq=write




